 vasp.5.4.4.18Apr17-6-g9f103f2a35 (build Nov 30 2020 22:55:02) complex

 executed on             LinuxIFC date 2023.09.10  22:33:24

 INCAR:
 POTCAR:    PAW_PBE Ni 02Aug2007
 POTCAR:    PAW_PBE Pt 04Feb2005
 POTCAR:    PAW_PBE H 15Jun2001

 POTCAR:    PAW_PBE Ni 02Aug2007
   VRHFIN =Ni:

   TITEL  = PAW_PBE Ni 02Aug2007
   POMASS =   58.690; ZVAL   =   10.000    mass and valenz
   ENMAX  =  269.532; ENMIN  =  202.149 eV

 POTCAR:    PAW_PBE Pt 04Feb2005
   VRHFIN =Pt: s1d9

   TITEL  = PAW_PBE Pt 04Feb2005
   POMASS =  195.080; ZVAL   =   10.000    mass and valenz
   ENMAX  =  230.283; ENMIN  =  172.712 eV

 POTCAR:    PAW_PBE H 15Jun2001
   VRHFIN =H: ultrasoft test

   TITEL  = PAW_PBE H 15Jun2001
   POMASS =    1.000; ZVAL   =    1.000    mass and valenz
   ENMAX  =  250.000; ENMIN  =  200.000 eV

 Optimization of the real space projectors (new method)

 maximal supplied QI-value         = 16.25
 optimisation between [QCUT,QGAM] = [ 11.86, 23.89] = [ 39.41,159.82] Ry
 Optimized for a Real-space Cutoff    1.33 Angstroem

   l    n(q)    QCUT    max X(q) W(low)/X(q) W(high)/X(q)  e(spline)
   2      9    11.864    60.317    0.21E-03    0.51E-03    0.25E-06
   2      9    11.864    55.921    0.21E-03    0.51E-03    0.26E-06
   0      9    11.864    51.690    0.22E-03    0.30E-04    0.17E-06
   0      9    11.864    30.015    0.20E-03    0.28E-04    0.15E-06
   1      9    11.864    18.849    0.76E-04    0.33E-03    0.17E-06
   1      9    11.864    14.624    0.60E-04    0.28E-03    0.15E-06
 Optimization of the real space projectors (new method)

[...]

   l    n(q)    QCUT    max X(q) W(low)/X(q) W(high)/X(q)  e(spline)
   2     10    11.920    66.195    0.79E-04    0.18E-03    0.24E-06
   2     10    11.920    64.643    0.81E-04    0.19E-03    0.24E-06
   0     11    11.920    95.520    0.28E-04    0.54E-04    0.18E-06
   0     11    11.920    63.403    0.27E-04    0.52E-04    0.17E-06
   1     10    11.920    19.961    0.18E-04    0.11E-03    0.23E-06
   1     10    11.920    13.289    0.25E-04    0.87E-04    0.19E-06
 Optimization of the real space projectors (new method)

 maximal supplied QI-value         = 34.20
 optimisation between [QCUT,QGAM] = [ 11.97, 23.94] = [ 40.13,160.53] Ry
 Optimized for a Real-space Cutoff    1.18 Angstroem

   l    n(q)    QCUT    max X(q) W(low)/X(q) W(high)/X(q)  e(spline)
   0      8    11.971    19.460    0.15E-03    0.31E-03    0.25E-06
   0      8    11.971    12.209    0.13E-03    0.29E-03    0.25E-06
   1      8    11.971     4.655    0.22E-03    0.24E-03    0.21E-06
  PAW_PBE Ni 02Aug2007                  :
  PAW_PBE Pt 04Feb2005                  :
  PAW_PBE H 15Jun2001                   :

 POSCAR: PtM\(2)
  positions in cartesian coordinates
 exchange correlation table for  LEXCH =        8
   RHO(1)=    0.500       N(1)  =     2000
   RHO(2)=  100.500       N(2)  =     4000

 ion  position               nearest neighbor table
   1  0.785  0.869  0.311-  55 2.43  20 2.43  39 2.43  73 2.62  72 2.62  65 2.63  40 2.64  57 2.64
                            29 2.64   3 2.64  56 2.65   2 2.65
   2  0.036  0.869  0.311-  49 2.42  52 2.42  39 2.43  77 2.61  67 2.63  65 2.63  23 2.64  33 2.64
                             3 2.64  56 2.64   1 2.65  41 2.65
   3  0.036  0.619  0.311-  60 2.42  39 2.42  12 2.42  77 2.61  66 2.62  73 2.62  15 2.64   9 2.64
                             2 2.64   1 2.64  40 2.64  41 2.65
   4  0.787  0.867  0.051-  21 2.44  62 2.44  19 2.45  42 2.64   5 2.64   6 2.64  59 2.64  58 2.65
                            30 2.66
   5  0.037  0.868  0.051-  54 2.44  35 2.44  62 2.45  24 2.64  43 2.64   4 2.64   6 2.64  58 2.65
                            34 2.65
   6  0.037  0.617  0.051-  32 2.44  54 2.44  21 2.45  18 2.63  43 2.63  10 2.63  42 2.64   4 2.64
                             5 2.64
   7  0.620  0.202  0.138-  28 2.44  30 2.44  58 2.45  55 2.45  64 2.46  63 2.46  19 2.64  62 2.64
                            37 2.64  45 2.64  22 2.64  11 2.64
   8  0.370  0.952  0.138-  16 2.44  24 2.44  59 2.45  53 2.45  26 2.45  50 2.47  38 2.64  37 2.64
                            35 2.64  25 2.64  19 2.64  44 2.64
   9  0.036  0.369  0.311-  61 2.42  12 2.42  46 2.43  68 2.61  66 2.62  71 2.63  15 2.63  13 2.64
                            33 2.64   3 2.64  40 2.64  47 2.66
  10  0.037  0.368  0.051-  38 2.44  32 2.44  31 2.45  18 2.63  16 2.63   6 2.63  34 2.63  42 2.64
                            48 2.64
  11  0.870  0.202  0.138-  48 2.44  58 2.44  34 2.45  49 2.45  61 2.45  63 2.46  35 2.64  31 2.64
                            22 2.64  38 2.64  62 2.64   7 2.64
  12  0.953  0.535  0.225-   9 2.42   3 2.42  40 2.43  32 2.44  21 2.45  31 2.45  46 2.64  39 2.64
                            61 2.64  20 2.64  60 2.65  51 2.66
  13  0.285  0.119  0.311-  46 2.42  26 2.42  53 2.43  69 2.61  74 2.62  71 2.63  15 2.63  29 2.64
                            57 2.64   9 2.64  33 2.64  23 2.66
  14  0.535  0.619  0.313-  36 2.45  50 2.45  51 2.46  41 2.62  23 2.62  27 2.62  47 2.62  57 2.64
                            40 2.64  80 2.67  76 2.71  75 2.71
  15  0.285  0.369  0.311-  60 2.42  64 2.43  46 2.43  74 2.62  66 2.63  13 2.63   9 2.63  29 2.64
                             3 2.64  79 2.65  27 2.65  41 2.65
  16  0.287  0.119  0.051-   8 2.44  37 2.44  38 2.45  30 2.63  10 2.63  34 2.63  18 2.64  59 2.64
                            24 2.64
  17  0.536  0.618  0.051-  22 2.44  25 2.44  44 2.45  28 2.64  43 2.64  24 2.64  48 2.64  59 2.65
                            42 2.65
  18  0.286  0.368  0.051-  37 2.44  45 2.44  32 2.45   6 2.63  43 2.63  10 2.63  16 2.64  30 2.64
                            28 2.64
  19  0.620  0.952  0.137-  59 2.44  30 2.44   4 2.45  20 2.45  53 2.45  55 2.45   7 2.64  62 2.64
                             8 2.64  21 2.64  25 2.64  37 2.64
  20  0.702  0.785  0.225-  40 2.43   1 2.43  57 2.43  19 2.45  25 2.45  21 2.45  53 2.64  50 2.64
                            51 2.64  55 2.64  12 2.64  39 2.64
  21  0.870  0.701  0.138-   4 2.44  42 2.44  12 2.45   6 2.45  39 2.45  20 2.45  31 2.64  32 2.64
                            54 2.64  25 2.64  19 2.64  62 2.64
  22  0.620  0.452  0.138-  17 2.44  28 2.44  48 2.45  63 2.45  51 2.46  36 2.47  25 2.64  11 2.64
                            31 2.64   7 2.64  45 2.64  44 2.64
  23  0.287  0.867  0.312-  52 2.43  50 2.43  26 2.45  69 2.61  41 2.62  14 2.62  67 2.62   2 2.64
                            57 2.64  13 2.66  33 2.66  75 2.68
  24  0.287  0.868  0.051-  44 2.44   8 2.44  35 2.45   5 2.64  34 2.64  17 2.64  59 2.64  16 2.64
                            43 2.65
  25  0.619  0.702  0.137-  59 2.44  17 2.44  42 2.45  20 2.45  51 2.46  50 2.46  22 2.64  31 2.64
                             8 2.64  44 2.64  21 2.64  19 2.64
  26  0.203  0.035  0.225-  13 2.42  33 2.43  23 2.45  35 2.45  38 2.45   8 2.45  46 2.63  52 2.64
                            49 2.64  53 2.64  50 2.64  61 2.65
  27  0.535  0.371  0.312-  36 2.43  63 2.45  64 2.45  78 2.61  41 2.62  47 2.62  14 2.62  56 2.65
                            15 2.65  29 2.65  79 2.67  76 2.70
  28  0.536  0.368  0.051-   7 2.44  22 2.44  45 2.45  43 2.64  30 2.64  17 2.64  18 2.64  58 2.64
                            48 2.65
  29  0.535  0.119  0.310-  64 2.42  53 2.43  55 2.43  78 2.62  72 2.62  74 2.63  15 2.64  13 2.64
                            56 2.64  57 2.64   1 2.64  27 2.65
  30  0.536  0.119  0.051-  19 2.44   7 2.44  37 2.44  16 2.63  18 2.64  28 2.64  59 2.64  58 2.65
                             4 2.66
  31  0.870  0.452  0.138-  42 2.44  48 2.44  10 2.45  61 2.45  12 2.45  51 2.47  21 2.64  32 2.64
                            11 2.64  38 2.64  25 2.64  22 2.64
  32  0.119  0.452  0.138-   6 2.44  10 2.44  46 2.44  12 2.44  18 2.45  60 2.46  21 2.64  38 2.64
                            31 2.64  37 2.64  54 2.64  45 2.64
  33  0.035  0.119  0.311-  49 2.42  61 2.42  26 2.43  71 2.62  67 2.62  70 2.63   2 2.64  56 2.64
                             9 2.64  13 2.64  23 2.66  47 2.66
  34  0.037  0.118  0.051-  35 2.44  38 2.44  11 2.45  16 2.63  10 2.63  24 2.64  48 2.64  58 2.64
                             5 2.65
  35  0.119  0.952  0.138-  34 2.44   5 2.44  24 2.45  26 2.45  49 2.45  52 2.46  11 2.64  44 2.64
                            38 2.64  62 2.64   8 2.64  54 2.64
  36  0.453  0.536  0.226-  27 2.43  41 2.43  14 2.45  44 2.46  22 2.47  45 2.47  51 2.62  50 2.62
                            52 2.63  63 2.63  60 2.64  64 2.64
  37  0.369  0.202  0.138-  53 2.44  18 2.44  16 2.44  30 2.44  46 2.45  64 2.46  45 2.64  38 2.64
                            32 2.64   7 2.64   8 2.64  19 2.64
  38  0.120  0.202  0.138-  46 2.43  10 2.44  34 2.44  16 2.45  26 2.45  61 2.46  32 2.64  37 2.64
                             8 2.64  11 2.64  31 2.64  35 2.64
  39  0.952  0.786  0.225-   3 2.42   2 2.43   1 2.43  62 2.45  54 2.45  21 2.45  55 2.64  12 2.64
                            49 2.64  20 2.64  60 2.64  52 2.64
  40  0.785  0.619  0.311-  51 2.42  20 2.43  12 2.43  68 2.62  73 2.63  47 2.64   1 2.64  57 2.64
                             9 2.64  14 2.64   3 2.64  80 2.65
  41  0.287  0.619  0.312-  36 2.43  52 2.44  60 2.45  27 2.62  23 2.62  77 2.62  14 2.62   2 2.65
                            15 2.65   3 2.65  79 2.66  75 2.70
  42  0.787  0.618  0.051-  31 2.44  21 2.44  25 2.45  48 2.63  10 2.64   4 2.64   6 2.64  59 2.65
                            17 2.65
  43  0.287  0.617  0.051-  45 2.44  44 2.44  54 2.45   6 2.63  18 2.63  28 2.64   5 2.64  17 2.64
                            24 2.65
  44  0.369  0.702  0.138-  24 2.44  43 2.44  17 2.45  52 2.45  50 2.46  36 2.46  54 2.64  35 2.64
                            45 2.64  25 2.64   8 2.64  22 2.64
  45  0.370  0.452  0.138-  43 2.44  18 2.44  64 2.45  28 2.45  60 2.45  36 2.47  37 2.64  44 2.64
                             7 2.64  32 2.64  54 2.64  22 2.64
  46  0.202  0.285  0.225-  13 2.42   9 2.43  15 2.43  38 2.43  32 2.44  37 2.45  26 2.63  61 2.63
                            53 2.64  12 2.64  64 2.66  60 2.66
  47  0.783  0.370  0.312-  51 2.43  63 2.43  61 2.45  68 2.61  27 2.62  70 2.62  14 2.62  56 2.64
                            40 2.64   9 2.66  33 2.66  76 2.69
  48  0.787  0.368  0.051-  11 2.44  31 2.44  22 2.45  42 2.63  10 2.64  34 2.64  58 2.64  17 2.64
                            28 2.65
  49  0.952  0.036  0.225-  33 2.42   2 2.42  56 2.43  11 2.45  35 2.45  62 2.45  61 2.64  26 2.64
                            39 2.64  55 2.64  63 2.65  52 2.65
  50  0.453  0.784  0.225-  57 2.42  23 2.43  14 2.45  44 2.46  25 2.46   8 2.47  36 2.62  51 2.62
                            52 2.63  20 2.64  26 2.64  53 2.65
  51  0.701  0.536  0.225-  40 2.42  47 2.43  22 2.46  14 2.46  25 2.46  31 2.47  36 2.62  50 2.62
                            63 2.63  20 2.64  61 2.64  12 2.66
  52  0.203  0.785  0.225-   2 2.42  23 2.43  41 2.44  44 2.45  54 2.46  35 2.46  50 2.63  60 2.63
                            36 2.63  26 2.64  39 2.64  49 2.65
  53  0.452  0.036  0.225-  29 2.43  13 2.43  57 2.43  37 2.44   8 2.45  19 2.45  46 2.64  55 2.64
                            20 2.64  26 2.64  64 2.65  50 2.65
[...]
   0.176E+01 -.307E+01 0.167E+04   -.175E+01 0.306E+01 -.167E+04   -.173E-01 0.264E-01 -.169E+00   -.667E-04 0.178E-02 -.246E-02
   0.635E+00 -.119E+01 0.167E+04   -.633E+00 0.118E+01 -.167E+04   -.861E-02 0.271E-01 -.151E+00   -.207E-02 0.891E-03 -.492E-02
   -.141E+01 0.209E+01 -.172E+04   0.143E+01 -.226E+01 0.172E+04   -.320E-01 0.151E+00 0.143E+01   -.157E-02 0.117E-02 -.108E-01
   -.372E+00 0.912E+00 0.334E+04   0.357E+00 -.901E+00 -.334E+04   0.786E-02 -.135E-01 -.244E+01   0.155E-02 -.256E-02 0.634E-02
   0.140E+01 -.220E+00 0.167E+04   -.138E+01 0.237E+00 -.167E+04   -.180E-01 -.125E-01 -.160E+00   -.997E-03 -.129E-04 -.546E-02
   0.996E+00 0.670E+01 -.176E+02   -.980E+00 -.675E+01 0.178E+02   -.163E-01 0.397E-01 -.305E+00   -.780E-03 -.196E-02 -.103E-01
   -.432E-01 -.395E+01 -.173E+04   0.106E+00 0.405E+01 0.173E+04   -.489E-01 -.994E-01 0.146E+01   -.213E-02 -.101E-02 -.105E-01
   -.260E+01 0.102E+01 0.334E+04   0.261E+01 -.103E+01 -.334E+04   -.956E-03 0.124E-01 -.249E+01   -.753E-03 0.160E-02 0.609E-02
   -.193E+01 -.103E+01 -.170E+04   0.197E+01 0.103E+01 0.169E+04   -.378E-01 -.385E-03 0.141E+01   0.142E-02 0.789E-03 -.128E-01
   -.428E+01 0.311E+01 0.334E+04   0.426E+01 -.311E+01 -.334E+04   0.288E-01 -.196E-01 -.241E+01   -.153E-02 -.517E-03 0.442E-02
   0.514E+01 -.229E+01 0.167E+04   -.516E+01 0.231E+01 -.167E+04   -.235E-01 -.274E-02 -.167E+00   -.155E-02 0.225E-02 -.500E-02
   -.240E+01 -.209E+01 0.167E+04   0.241E+01 0.217E+01 -.167E+04   0.159E-01 -.542E-01 -.162E+00   0.347E-02 0.116E-02 -.179E-02
   0.152E+00 -.453E-01 -.170E+04   -.201E+00 0.119E-01 0.170E+04   0.426E-01 0.311E-01 0.142E+01   0.182E-02 -.201E-02 -.118E-01
   0.353E+01 0.199E+01 0.334E+04   -.350E+01 -.196E+01 -.334E+04   -.296E-01 -.174E-01 -.237E+01   -.490E-03 -.193E-02 0.372E-02
   0.682E+00 0.218E+01 0.167E+04   -.703E+00 -.221E+01 -.167E+04   0.997E-02 -.113E-01 -.166E+00   -.102E-02 -.364E-02 -.161E-03
   -.119E+01 -.303E+00 -.271E+02   0.117E+01 0.285E+00 0.274E+02   0.266E-01 0.149E-01 -.366E+00   -.160E-02 -.710E-03 -.151E-01
   -.388E+01 0.647E+00 0.167E+04   0.395E+01 -.672E+00 -.167E+04   -.387E-01 0.306E-01 -.160E+00   0.298E-02 -.308E-03 -.398E-02
   0.335E+01 0.289E+01 0.167E+04   -.340E+01 -.292E+01 -.167E+04   0.206E-01 0.113E-01 -.155E+00   0.209E-02 -.139E-02 -.966E-03
   -.705E+00 -.731E+00 -.126E+02   0.709E+00 0.716E+00 0.128E+02   -.121E-01 0.229E-01 -.300E+00   -.767E-03 0.349E-02 -.133E-01
   0.586E+01 -.746E+00 -.170E+04   -.595E+01 0.810E+00 0.170E+04   0.792E-01 -.518E-01 0.141E+01   0.135E-02 0.104E-02 -.115E-01
   -.318E+01 0.225E+01 -.173E+04   0.330E+01 -.226E+01 0.173E+04   -.121E+00 0.141E-01 0.147E+01   -.824E-04 -.278E-03 -.990E-02
   0.306E+01 -.266E+01 0.334E+04   -.305E+01 0.267E+01 -.334E+04   -.169E-01 0.162E-01 -.243E+01   -.198E-02 -.351E-03 0.223E-02
   -.238E+01 -.229E+01 0.334E+04   0.236E+01 0.231E+01 -.334E+04   0.236E-01 -.387E-02 -.247E+01   0.232E-02 -.755E-03 0.695E-02
   -.197E+01 0.703E+00 0.167E+04   0.196E+01 -.695E+00 -.167E+04   0.222E-01 -.203E-01 -.151E+00   -.133E-02 -.945E-03 -.480E-02
   -.415E+01 -.133E+01 0.167E+04   0.418E+01 0.134E+01 -.167E+04   0.164E-01 0.122E-01 -.121E+00   0.130E-03 0.115E-02 -.307E-02
   -.482E+01 -.210E+01 -.107E+02   0.479E+01 0.207E+01 0.109E+02   0.178E-01 0.142E-01 -.318E+00   0.253E-02 0.628E-03 -.931E-02
   0.113E+01 -.226E+01 -.172E+04   -.126E+01 0.235E+01 0.172E+04   0.113E+00 -.904E-01 0.143E+01   -.158E-02 -.227E-02 -.109E-01
   0.335E+01 0.329E-01 0.334E+04   -.334E+01 -.359E-01 -.334E+04   -.370E-01 0.142E-02 -.244E+01   -.198E-02 0.448E-02 0.488E-02
   0.419E+00 0.331E+00 -.116E+02   -.411E+00 -.332E+00 0.118E+02   -.195E-01 -.518E-02 -.310E+00   -.152E-02 -.137E-02 -.133E-01
   -.183E+01 0.614E+00 -.218E+02   0.180E+01 -.617E+00 0.220E+02   0.333E-01 0.158E-01 -.300E+00   -.260E-02 0.156E-02 -.137E-01
   0.239E+00 -.189E+01 -.231E+02   -.254E+00 0.186E+01 0.233E+02   0.286E-01 0.228E-01 -.302E+00   -.216E-02 -.751E-03 -.152E-01
   -.367E+00 0.549E+00 -.194E+02   0.440E+00 -.548E+00 0.196E+02   -.621E-01 0.907E-02 -.300E+00   -.749E-05 0.148E-02 -.143E-01
   -.284E+00 0.522E+01 -.832E+01   0.267E+00 -.520E+01 0.852E+01   0.244E-01 -.154E-01 -.285E+00   0.251E-02 0.123E-02 -.135E-01
   -.160E+01 -.213E+01 0.167E+04   0.159E+01 0.213E+01 -.167E+04   0.149E-01 0.245E-02 -.185E+00   0.238E-02 -.137E-03 -.170E-02
   -.459E+00 -.647E+00 -.107E+02   0.452E+00 0.650E+00 0.109E+02   0.132E-01 -.113E-01 -.301E+00   -.191E-03 -.132E-02 -.130E-01
   0.258E-01 -.861E+00 -.170E+04   -.301E-01 0.875E+00 0.170E+04   0.150E-02 -.149E-01 0.143E+01   -.226E-02 -.207E-02 -.143E-01
   0.211E+01 0.556E+01 -.170E+04   -.210E+01 -.568E+01 0.170E+04   -.934E-02 0.930E-01 0.142E+01   -.173E-03 0.273E-02 -.116E-01
   0.124E+01 0.137E+01 0.334E+04   -.125E+01 -.137E+01 -.334E+04   -.290E-02 -.119E-01 -.245E+01   -.264E-02 -.478E-03 0.532E-02
   -.817E+00 0.180E+01 0.335E+04   0.816E+00 -.180E+01 -.334E+04   0.489E-02 -.122E-01 -.246E+01   0.190E-03 0.980E-03 0.407E-02
   -.367E+01 -.136E+01 -.211E+02   0.370E+01 0.132E+01 0.214E+02   -.352E-01 0.346E-01 -.307E+00   0.479E-03 -.142E-02 -.140E-01
[...]
   -.267E+01 -.524E+01 -.323E+04   0.259E+01 0.550E+01 0.323E+04   0.685E-01 -.272E+00 0.197E+01   -.101E-02 0.115E-02 -.204E-02
   -.378E+01 0.719E+01 -.324E+04   0.381E+01 -.718E+01 0.324E+04   -.272E-01 -.251E-01 0.179E+01   0.548E-03 -.784E-03 -.223E-02
   -.268E+01 -.162E+01 -.325E+04   0.265E+01 0.160E+01 0.325E+04   0.707E-01 0.403E-01 0.177E+01   0.181E-02 -.521E-03 -.337E-02
   -.431E+01 -.149E+01 -.325E+04   0.430E+01 0.155E+01 0.324E+04   0.784E-02 -.633E-01 0.183E+01   0.289E-04 0.179E-02 -.206E-02
   -.303E+01 -.279E+01 -.325E+04   0.308E+01 0.275E+01 0.324E+04   -.560E-01 0.285E-01 0.183E+01   0.150E-02 0.612E-03 -.106E-02
   0.409E+01 0.318E+01 -.325E+04   -.411E+01 -.314E+01 0.324E+04   0.504E-02 -.307E-01 0.182E+01   -.373E-03 0.566E-03 -.328E-02
   0.100E+02 -.180E+02 -.325E+04   -.110E+02 0.196E+02 0.325E+04   0.958E+00 -.165E+01 0.178E+01   -.269E-03 -.870E-04 -.229E-02
   -.100E+02 0.179E+02 -.325E+04   0.110E+02 -.195E+02 0.325E+04   -.992E+00 0.166E+01 0.183E+01   -.209E-02 0.891E-03 -.133E-02
   0.538E+01 -.934E+00 -.323E+04   -.560E+01 0.113E+01 0.323E+04   0.253E+00 -.194E+00 0.190E+01   0.938E-03 -.963E-03 -.254E-02
   0.159E+01 0.536E+01 -.323E+04   -.153E+01 -.563E+01 0.323E+04   -.317E-01 0.292E+00 0.190E+01   -.197E-02 0.338E-03 -.320E-02
   0.173E+02 0.104E+02 -.323E+04   -.176E+02 -.106E+02 0.323E+04   0.316E+00 0.182E+00 0.484E+00   -.546E-03 -.336E-03 -.273E-02
   -.184E+02 -.103E+02 -.322E+04   0.187E+02 0.105E+02 0.322E+04   -.268E+00 -.162E+00 0.396E+00   -.196E-02 0.607E-03 0.513E-03
   -.105E+01 -.348E+00 -.379E+03   0.155E+01 0.618E+00 0.381E+03   -.504E+00 -.267E+00 -.175E+01   -.409E-04 0.555E-04 0.129E-03
   0.106E+01 0.702E+00 -.379E+03   -.160E+01 -.102E+01 0.381E+03   0.550E+00 0.318E+00 -.176E+01   -.136E-03 0.475E-04 0.182E-03
   0.105E-02 -.902E-01 0.450E+00   -.660E-12 -.361E-12 0.210E-11   0.135E-01 0.128E+00 0.440E-01   0.145E-03 -.512E-04 -.392E+00

 POSITION                                       TOTAL-FORCE (eV/Angst)
     12.88201      7.94738      6.83452         0.000517     -0.000502     -0.042143
      4.96768      7.94814      6.83377        -0.005027     -0.001171     -0.030374
      3.64679      5.65927      6.83166         0.001897      0.000387     -0.039083
     12.89392      7.93072      1.11750        -0.008741      0.022529     -0.005260
      4.97366      7.93457      1.11960        -0.020272      0.016542     -0.010952
      3.65446      5.64440      1.12118        -0.016278      0.029396     -0.026975
      7.60690      1.84361      3.02604         0.009016      0.007814      0.035256
      8.92763      8.70465      3.02539         0.000632     -0.052262      0.057131
      2.32345      3.37441      6.83165        -0.008456      0.002401     -0.013130
      2.33374      3.36461      1.12227        -0.002773     -0.002819     -0.020812
     10.24925      1.84531      3.02711        -0.042868      0.007716      0.047735
     12.88856      4.89685      4.94490         0.003727      0.004785     -0.020964
      3.64338      1.08865      6.83115        -0.000078     -0.010184     -0.012954
      8.91962      5.66051      6.88759         0.003612     -0.001556      0.035407
      4.95584      3.37005      6.83466         0.016812      0.009698     -0.008604
      3.65186      1.08418      1.11988        -0.013024      0.007222     -0.021040
      8.92561      5.65018      1.11709        -0.001435      0.008468     -0.022921
      4.96698      3.36887      1.12200        -0.006686     -0.012454     -0.015291
     11.56838      8.70382      3.02190         0.007454     -0.012800      0.018293
     11.56230      7.18290      4.94633         0.002477      0.001872      0.003620
     12.88720      6.41517      3.02752        -0.006158      0.016836      0.008372
      8.92783      4.13014      3.02545        -0.008468      0.012485      0.037533
      7.60358      7.92596      6.85709        -0.007663     -0.022082     -0.002744
      7.60986      7.93873      1.11836        -0.006478     -0.004707     -0.017034
     10.24596      6.41680      3.02147         0.004405      0.004395      0.045449
      2.32568      0.31795      4.94933        -0.000564     -0.002944     -0.026345
      7.60747      3.39129      6.86448         0.009078      0.002684      0.007786
      7.60757      3.36630      1.11921         0.007114      0.008971     -0.017392
      6.28211      1.09271      6.83016         0.001988     -0.001491     -0.035768
      6.28451      1.08554      1.11777         0.016697     -0.017882     -0.016351
     11.56819      4.13151      3.03021        -0.042784      0.024694      0.045268
      3.64648      4.13087      3.03446         0.027478      0.021289      0.028300
      1.00320      1.08855      6.83356        -0.004657     -0.004787     -0.013307
      1.01780      1.08194      1.11999        -0.004982      0.003752     -0.009810
      6.28724      8.70551      3.02768        -0.011510     -0.041642      0.043833
      7.61141      4.90078      4.96297        -0.005017     -0.005914     -0.028600
      4.96690      1.84646      3.03103         0.032405      0.005024      0.033452
      2.32879      1.84564      3.03209        -0.023885     -0.020405      0.019033
     14.20582      7.18459      4.94820        -0.008733      0.011065     -0.019204
     11.56236      5.66130      6.83602        -0.011238      0.009276     -0.021120
      6.30059      5.65746      6.86588         0.005311      0.000428      0.011738
     11.57464      5.64731      1.11818        -0.013887      0.024596     -0.010276
      6.28689      5.64718      1.12036         0.013056      0.017693     -0.021528
      7.60477      6.41802      3.02605         0.013628     -0.013399      0.038203
      6.28706      4.13029      3.03044         0.047210      0.025853      0.050702
      3.63376      2.60388      4.94190        -0.010766     -0.009063     -0.002624
     10.22418      3.38641      6.85606        -0.019416      0.001944     -0.001802
     10.25662      3.36685      1.11930        -0.028278      0.002052     -0.020838
     10.24595      0.32558      4.94814        -0.011665     -0.007340     -0.025859
      8.92091      7.17244      4.95655        -0.000031      0.018160     -0.000105
     10.23294      4.90021      4.95701         0.015065     -0.011351      0.000482
      6.29060      7.17757      4.95443         0.009448      0.012940     -0.006263
      4.96649      0.32726      4.94183         0.008972      0.005779     -0.019366
      4.96652      6.41710      3.02983         0.012120      0.006783      0.025389
      7.60542      0.32447      4.94668         0.006087     -0.009338     -0.022786
      8.92508      1.09285      6.83256        -0.004640     -0.003226     -0.029286
     10.24196      7.94822      6.83544         0.004829     -0.022953     -0.021315
      8.93363      1.08195      1.11845        -0.012873     -0.013399     -0.009950
     10.25000      7.94040      1.11577         0.004170     -0.008012     -0.007949
      4.97496      4.89834      4.95365        -0.004123     -0.009714     -0.024500
[...]
     11.57664      4.13134      8.96062        -0.001058     -0.016134     -0.001769
      8.92059      8.73081      8.96106        -0.010068     -0.001884     -0.001897
     10.24474      1.84845      8.97787        -0.000594     -0.012296      0.004674
      2.31381      1.84988      8.97066         0.037051      0.019350      0.000528
     11.56661      8.72512      8.96849        -0.004965     -0.006884      0.009257
     12.89514      6.42589      8.96916        -0.007725     -0.011894      0.009751
      4.95530      1.84533      8.96840        -0.008238      0.004796     -0.002519
      7.58053      6.46315      9.10829        -0.010045     -0.019348      0.026876
      8.94209      4.10483      9.10460        -0.019642     -0.004050      0.016468
      4.94457      6.43749      8.96387         0.026641      0.002880      0.000501
      7.60131      1.83506      8.96255         0.025515      0.013795      0.002589
      6.23035      4.11071      9.03109         0.020759      0.008706      0.011548
     10.29490      6.45810      9.02685         0.022593      0.002588      0.013795
      7.38930      4.79692     10.09096        -0.005698      0.002105      0.011790
      9.13987      5.78765     10.08386         0.006496      0.002869      0.039599
    total drift:                                0.014658      0.037865      0.102104

  FREE ENERGIE OF THE ION-ELECTRON SYSTEM (eV)
  free  energy   TOTEN  =      -461.12384471 eV

  energy  without entropy=     -461.12384471  energy(sigma->0) =     -461.12384471

 Finite differences:
   Step               POTIM =   1.000000000000000E-002
   Degrees of freedom DOF   =            0

 SECOND DERIVATIVES (NOT SYMMETRIZED)

 Error while diagonalisation DSYEV INFO=          -5
 Some of (or all) eigenvectors and eigenvalues are not correct !

 Eigenvectors and eigenvalues of the dynamical matrix

 Finite differences POTIM=  1.000000000000000E-002
  LATTYP: Found a hexagonal cell.
 ALAT       =    10.5600004196
 C/A-ratio  =     2.0833332505

  Lattice vectors:

 A1 = (   5.2800002098,  -9.1452286274,   0.0000000000)
 A2 = ( -10.5600004196,   0.0000000000,   0.0000000000)
 A3 = (   0.0000000000,   0.0000000000, -22.0000000000)

Analysis of symmetry for initial positions (statically):
 Subroutine PRICEL returns:
 Original cell was already a primitive cell.

[...]

The static configuration has the point symmetry C_1 .

Analysis of symmetry for dynamics (positions and initial velocities):
 Subroutine PRICEL returns:
 Original cell was already a primitive cell.

[...]

The dynamic configuration has the point symmetry C_1 .

Analysis of constrained symmetry for selective dynamics:
 Subroutine PRICEL returns:
 Original cell was already a primitive cell.

[...]

The constrained configuration has the point symmetry C_1 .

Analysis of structural, dynamic, and magnetic symmetry:
 Subroutine PRICEL returns:
 Original cell was already a primitive cell.

 Routine SETGRP: Setting up the symmetry group for a
 hexagonal supercell.

 Subroutine GETGRP returns: Found  1 space group operations
 (whereof  1 operations were pure point group operations)
 out of a pool of 24 trial point group operations.

The magnetic configuration has the point symmetry C_1 .

 Subroutine INISYM returns: Found  1 space group operations
 (whereof  1 operations are pure point group operations),
 and found     1 'primitive' translations

 KPOINTS: mesh auto

Automatic generation of k-mesh.
Space group operators:
 irot       det(A)        alpha          n_x          n_y          n_z        tau_x        tau_y        tau_z
    1     1.000000     0.000001     1.000000     0.000000     0.000000     0.000000     0.000000     0.000000

 Subroutine IBZKPT returns following result:

 Found      4 irreducible k-points:

 Following reciprocal coordinates:
            Coordinates               Weight
  0.000000  0.000000  0.000000      1.000000
  0.500000  0.000000  0.000000      1.000000
  0.000000  0.500000  0.000000      1.000000
  0.500000  0.500000  0.000000      1.000000

 Following cartesian coordinates:
            Coordinates               Weight
  0.000000  0.000000  0.000000      1.000000
  0.047348 -0.027337  0.000000      1.000000
  0.000000  0.054673  0.000000      1.000000
  0.047348  0.027337  0.000000      1.000000

 TETIRR: Found     12 inequivalent tetrahedra from       24
 BZINTS: Fermi energy:  1.571439;802.000000 electrons
         Band energy:-630.983465;  BLOECHL correction: -0.270351