 vasp.5.4.4.18Apr17-6-g9f103f2a35 (build Nov 30 2020 22:55:02) complex

 executed on             LinuxIFC date 2021.10.10  12:06:34

 INCAR:
 POTCAR:    PAW_PBE Pt 04Feb2005
 POTCAR:    PAW_PBE Fe 06Sep2000
 POTCAR:    PAW_PBE Co 02Aug2007
 POTCAR:    PAW_PBE Cu 22Jun2005
 POTCAR:    PAW_PBE Ni 02Aug2007
 POTCAR:    PAW_PBE Pt 04Feb2005
   VRHFIN =Pt: s1d9

   TITEL  = PAW_PBE Pt 04Feb2005
   POMASS =  195.080; ZVAL   =   10.000    mass and valenz
   ENMAX  =  230.283; ENMIN  =  172.712 eV

 POTCAR:    PAW_PBE Fe 06Sep2000
   VRHFIN =Fe:  d7 s1

   TITEL  = PAW_PBE Fe 06Sep2000
   POMASS =   55.847; ZVAL   =    8.000    mass and valenz
   ENMAX  =  267.882; ENMIN  =  200.911 eV

 POTCAR:    PAW_PBE Co 02Aug2007
   VRHFIN =Co: d8 s1

   TITEL  = PAW_PBE Co 02Aug2007
   POMASS =   58.933; ZVAL   =    9.000    mass and valenz
   ENMAX  =  267.968; ENMIN  =  200.976 eV

 POTCAR:    PAW_PBE Cu 22Jun2005
   VRHFIN =Cu: d10 p1

   TITEL  = PAW_PBE Cu 22Jun2005
   POMASS =   63.546; ZVAL   =   11.000    mass and valenz
   ENMAX  =  295.446; ENMIN  =  221.585 eV

 POTCAR:    PAW_PBE Ni 02Aug2007
   VRHFIN =Ni:

   TITEL  = PAW_PBE Ni 02Aug2007
   POMASS =   58.690; ZVAL   =   10.000    mass and valenz
   ENMAX  =  269.532; ENMIN  =  202.149 eV

 Optimization of the real space projectors (new method)

 maximal supplied QI-value         = 14.36
 optimisation between [QCUT,QGAM] = [ 11.92, 23.98] = [ 39.79,161.09] Ry
 Optimized for a Real-space Cutoff    1.49 Angstroem

   l    n(q)    QCUT    max X(q) W(low)/X(q) W(high)/X(q)  e(spline)
   2     10    11.920    66.195    0.79E-04    0.18E-03    0.24E-06
   2     10    11.920    64.643    0.81E-04    0.19E-03    0.24E-06
   0     11    11.920    95.520    0.28E-04    0.54E-04    0.18E-06
   0     11    11.920    63.403    0.27E-04    0.52E-04    0.17E-06
   1     10    11.920    19.961    0.18E-04    0.11E-03    0.23E-06
   1     10    11.920    13.289    0.25E-04    0.87E-04    0.19E-06
 Optimization of the real space projectors (new method)

[...]

   l    n(q)    QCUT    max X(q) W(low)/X(q) W(high)/X(q)  e(spline)
   2     10    11.864     4.610    0.10E-03    0.20E-03    0.29E-06
   2     10    11.864     8.522    0.17E-03    0.33E-03    0.50E-06
   0     11    11.864    51.609    0.52E-04    0.55E-04    0.33E-06
   0     11    11.864    27.747    0.46E-04    0.52E-04    0.31E-06
   1     10    11.864    20.408    0.54E-04    0.25E-04    0.21E-06
   1     10    11.864    13.425    0.48E-04    0.22E-04    0.18E-06
 Optimization of the real space projectors (new method)

 maximal supplied QI-value         = 16.25
 optimisation between [QCUT,QGAM] = [ 11.86, 23.89] = [ 39.41,159.82] Ry
 Optimized for a Real-space Cutoff    1.33 Angstroem

   l    n(q)    QCUT    max X(q) W(low)/X(q) W(high)/X(q)  e(spline)
   2      9    11.864    60.317    0.21E-03    0.51E-03    0.25E-06
   2      9    11.864    55.921    0.21E-03    0.51E-03    0.26E-06
   0      9    11.864    51.690    0.22E-03    0.30E-04    0.17E-06
   0      9    11.864    30.015    0.20E-03    0.28E-04    0.15E-06
   1      9    11.864    18.849    0.76E-04    0.33E-03    0.17E-06
   1      9    11.864    14.624    0.60E-04    0.28E-03    0.15E-06
  PAW_PBE Pt 04Feb2005                  :
  PAW_PBE Fe 06Sep2000                  :
  PAW_PBE Co 02Aug2007                  :
  PAW_PBE Cu 22Jun2005                  :
  PAW_PBE Ni 02Aug2007                  :

 POSCAR: 10.56
  positions in direct lattice
 exchange correlation table for  LEXCH =        8
   RHO(1)=    0.500       N(1)  =     2000
   RHO(2)=  100.500       N(2)  =     4000

 ion  position               nearest neighbor table
   1  0.789  0.869  0.319-  28 2.51  29 2.52  49 2.56  12 2.58  61 2.60  33 2.63  19 2.64   4 2.67
                            11 2.68  60 2.71  59 2.72   2 2.82
   2  0.054  0.873  0.320-  79 2.45  30 2.50  52 2.54  28 2.59   6 2.61  16 2.63  22 2.65  77 2.67
                            33 2.67   4 2.68  60 2.69   1 2.82
   3  0.284  0.380  0.321-  31 2.48  64 2.51  33 2.57  39 2.60   5 2.61  13 2.65  68 2.65  30 2.66
                            25 2.69  43 2.70  18 2.73  19 2.73
   4  0.873  0.961  0.416-  12 2.62   9 2.62  17 2.63  16 2.64  11 2.64   6 2.65   1 2.67  60 2.67
                             2 2.68
   5  0.125  0.462  0.420-   3 2.61  25 2.62  33 2.63  13 2.63  16 2.64  39 2.64  10 2.64  12 2.66
                             7 2.67
   6  0.124  0.961  0.419-   2 2.61  16 2.63  14 2.63   8 2.64   9 2.65   4 2.65  10 2.65  52 2.71
                            22 2.79
   7  0.871  0.462  0.422-  75 2.62  15 2.63  27 2.65   9 2.66  12 2.66   5 2.67  10 2.67  39 2.69
                            29 2.75
   8  0.374  0.961  0.417-  27 2.61  14 2.63  10 2.63  43 2.63   6 2.64  11 2.64  13 2.64  52 2.66
                            61 2.71
   9  0.872  0.210  0.416-   4 2.62  17 2.63   6 2.65  15 2.65   7 2.66  75 2.67  10 2.68  60 2.71
                            22 2.74
  10  0.126  0.211  0.417-  13 2.61   8 2.63   5 2.64   6 2.65   7 2.67  43 2.67   9 2.68  39 2.68
                            22 2.74
  11  0.624  0.960  0.420-  12 2.62  27 2.63   8 2.64  17 2.64   4 2.64  13 2.65   1 2.68  19 2.76
                            61 2.78
  12  0.873  0.713  0.417-   1 2.58  33 2.62   4 2.62  11 2.62  16 2.64   5 2.66  27 2.66   7 2.66
                            29 2.66
  13  0.373  0.211  0.419-  10 2.61   5 2.63   8 2.64  17 2.65  25 2.65  11 2.65   3 2.65  43 2.73
                            19 2.80
  14  0.374  0.712  0.417-  27 2.62   8 2.63   6 2.63  52 2.63  15 2.64  16 2.64  25 2.64  44 2.65
                            30 2.66
  15  0.623  0.462  0.420-   7 2.63  14 2.64  27 2.64  25 2.65   9 2.65  17 2.65  75 2.67  44 2.68
                            18 2.71
  16  0.123  0.712  0.419-  33 2.63   6 2.63   2 2.63  25 2.63   4 2.64   5 2.64  12 2.64  14 2.64
                            30 2.65
  17  0.624  0.210  0.419-   9 2.63   4 2.63  11 2.64  13 2.65  15 2.65  25 2.66  18 2.74  60 2.79
                            19 2.84
  18  0.543  0.379  0.317-  68 2.55  67 2.57  26 2.61  44 2.63  60 2.67  75 2.69  30 2.70  15 2.71
                             3 2.73  17 2.74  19 2.76  25 2.78
  19  0.540  0.119  0.313-  80 2.51  59 2.53  68 2.54  43 2.60  61 2.63   1 2.64  60 2.70   3 2.73
                            18 2.76  11 2.76  13 2.80  17 2.84
  20  0.555  0.113  0.035-  34 2.61  62 2.62  48 2.63  37 2.63  63 2.64  57 2.67  45 2.68  56 2.78
                            47 2.81
  21  0.124  0.465  0.134-  36 2.53  47 2.56  64 2.57  58 2.59  40 2.61  42 2.63  74 2.64  50 2.66
                            31 2.69  70 2.72  69 2.75  57 2.79
  22  0.041  0.130  0.313-  65 2.47  55 2.50  77 2.51  43 2.61   2 2.65  60 2.65  52 2.68  75 2.70
                            39 2.70  10 2.74   9 2.74   6 2.79
  23  0.045  0.123  0.032-  62 2.60  76 2.64  41 2.65  45 2.66  35 2.68  40 2.70  70 2.72  24 2.73
                            53 2.75
  24  0.131  0.949  0.133-  79 2.52  77 2.54  35 2.55  58 2.57  53 2.58  73 2.61  55 2.62  66 2.67
                            38 2.68  70 2.69  23 2.73  41 2.75
  25  0.372  0.462  0.421-   5 2.62  16 2.63  14 2.64  15 2.65  13 2.65  17 2.66   3 2.69  30 2.73
                            18 2.78
  26  0.454  0.555  0.223-  73 2.49  51 2.54  78 2.57  44 2.58  74 2.58  79 2.59  30 2.61  18 2.61
                            32 2.63  64 2.65  68 2.71  67 2.76
  27  0.621  0.713  0.417-   8 2.61  14 2.62  44 2.63  11 2.63  15 2.64   7 2.65  61 2.65  12 2.66
                            29 2.68
  28  0.952  0.797  0.228-   1 2.51  33 2.59   2 2.59  58 2.62  59 2.63  50 2.63  66 2.63  42 2.63
                            49 2.65  77 2.67  79 2.70  64 2.72
  29  0.791  0.629  0.318-  42 2.44  32 2.44  75 2.51   1 2.52  39 2.55  49 2.56  61 2.58  44 2.63
                            33 2.65  12 2.66  27 2.68   7 2.75
  30  0.285  0.631  0.319-  64 2.48  79 2.49   2 2.50  33 2.58  26 2.61  52 2.62  16 2.65   3 2.66
                            14 2.66  18 2.70  44 2.71  25 2.73
  31  0.209  0.291  0.232-  43 2.45   3 2.48  39 2.52  70 2.62  68 2.65  64 2.65  55 2.68  65 2.68
                            21 2.69  80 2.70  57 2.71  42 2.73
  32  0.701  0.559  0.229-  29 2.44  44 2.46  49 2.49  54 2.54  75 2.54  78 2.55  42 2.58  69 2.58
                            26 2.63  65 2.66  51 2.67  67 2.74
  33  0.043  0.626  0.322-  39 2.55  64 2.55  42 2.56   3 2.57  30 2.58  28 2.59  12 2.62   5 2.63
                            16 2.63   1 2.63  29 2.65   2 2.67
  34  0.797  0.863  0.042-  50 2.40  48 2.48  71 2.49  66 2.51  36 2.58  20 2.61  63 2.61  35 2.74
                            62 2.74
  35  0.055  0.865  0.038-  72 2.51  24 2.55  36 2.57  58 2.57  66 2.62  53 2.68  23 2.68  62 2.70
                            34 2.74
  36  0.047  0.626  0.040-  21 2.53  35 2.57  58 2.58  34 2.58  47 2.58  50 2.59  72 2.61  40 2.63
                            71 2.67
  37  0.629  0.217  0.129-  41 2.53  56 2.54  59 2.54  67 2.57  51 2.58  74 2.61  62 2.63  68 2.63
                            66 2.63  20 2.63  57 2.64  48 2.84
  38  0.385  0.949  0.130-  53 2.44  80 2.49  54 2.50  78 2.50  63 2.53  73 2.54  45 2.57  48 2.60
                            55 2.62  57 2.67  24 2.68  70 2.70
  39  0.034  0.389  0.320-  42 2.49  31 2.52  33 2.55  75 2.55  29 2.55  65 2.58   3 2.60   5 2.64
                            10 2.68   7 2.69  22 2.70  43 2.79
  40  0.037  0.382  0.038-  71 2.59  21 2.61  76 2.62  69 2.62  36 2.63  70 2.67  47 2.69  23 2.70
                            45 2.77
  41  0.872  0.210  0.129-  76 2.47  67 2.53  37 2.53  77 2.54  62 2.58  66 2.62  23 2.65  51 2.66
                            65 2.66  69 2.66  70 2.69  24 2.75
  42  0.950  0.549  0.229-  29 2.44  39 2.49  33 2.56  32 2.58  49 2.59  65 2.60  50 2.61  69 2.62
                            21 2.63  28 2.63  64 2.71  31 2.73
  43  0.293  0.120  0.318-  31 2.45  55 2.45  80 2.55  52 2.59  19 2.60  22 2.61   8 2.63  61 2.64
                            10 2.67   3 2.70  13 2.73  39 2.79
  44  0.543  0.628  0.319-  32 2.46  61 2.55  75 2.57  26 2.58  78 2.59  52 2.62  27 2.63  18 2.63
                            29 2.63  14 2.65  15 2.68  30 2.71
  45  0.298  0.119  0.037-  38 2.57  53 2.62  57 2.63  63 2.64  70 2.65  23 2.66  20 2.68  47 2.73
                            40 2.77
  46  0.547  0.627  0.045-  73 2.38  51 2.42  54 2.45  53 2.53  63 2.55  56 2.61  71 2.61  76 2.65
                            72 2.67
  47  0.292  0.381  0.041-  74 2.48  21 2.56  36 2.58  72 2.62  57 2.63  56 2.65  40 2.69  45 2.73
                            20 2.81
  48  0.632  0.946  0.132-  49 2.47  34 2.48  50 2.48  54 2.50  59 2.53  63 2.57  80 2.59  38 2.60
                            66 2.62  20 2.63  57 2.64  37 2.84
  49  0.704  0.793  0.224-  48 2.47  54 2.48  32 2.49  61 2.50  50 2.53  80 2.55  29 2.56   1 2.56
                            42 2.59  78 2.59  28 2.65  59 2.69
  50  0.869  0.712  0.131-  34 2.40  71 2.46  48 2.48  49 2.53  54 2.58  36 2.59  42 2.61  69 2.62
                            28 2.63  21 2.66  66 2.66  58 2.75
  51  0.623  0.464  0.132-  46 2.42  26 2.54  73 2.55  69 2.56  56 2.56  67 2.56  76 2.57  37 2.58
[...]
   0.365E+02 -.109E+02 -.155E+04   -.382E+02 0.112E+02 0.155E+04   0.171E+01 -.279E+00 0.205E+01   -.144E-01 -.923E-02 0.310E-01
   -.502E+01 0.228E+02 -.295E+04   0.511E+01 -.227E+02 0.294E+04   -.109E+00 -.104E+00 0.723E+00   0.236E-01 0.299E-01 0.115E-01
   -.975E+01 0.678E+01 -.293E+04   0.929E+01 -.638E+01 0.293E+04   0.481E+00 -.355E+00 0.147E+01   -.195E-01 -.445E-01 -.174E-01
   -.132E+01 0.161E+01 -.292E+04   0.123E+01 -.193E+01 0.292E+04   0.964E-01 0.249E+00 0.890E+00   0.121E-01 0.495E-01 0.941E-02
   -.196E+02 -.418E+01 -.296E+04   0.196E+02 0.386E+01 0.295E+04   -.522E-01 0.326E+00 0.138E+01   0.126E-02 -.245E-01 -.233E-01
   0.125E+02 -.186E+02 -.293E+04   -.127E+02 0.187E+02 0.293E+04   0.283E+00 -.929E-01 0.181E+01   -.281E-01 0.825E-02 -.188E-02
   -.224E+02 0.126E+02 -.294E+04   0.222E+02 -.124E+02 0.294E+04   0.157E+00 -.225E+00 0.102E+01   0.371E-01 0.128E-01 -.113E-01
   -.990E+01 -.168E+01 -.291E+04   0.103E+02 0.191E+01 0.291E+04   -.311E+00 -.225E+00 0.157E+01   -.294E-01 0.122E-01 -.174E-01
   -.511E+01 -.402E+01 -.295E+04   0.542E+01 0.387E+01 0.295E+04   -.321E+00 0.909E-01 0.664E+00   -.156E-01 -.697E-02 -.171E-02
   -.913E+01 0.224E+01 -.293E+04   0.945E+01 -.248E+01 0.293E+04   -.297E+00 0.262E+00 0.107E+01   -.354E-01 -.337E-01 -.132E-01
   0.407E+01 -.195E+02 -.293E+04   -.432E+01 0.193E+02 0.293E+04   0.276E+00 0.289E+00 0.853E+00   -.218E-01 0.334E-01 0.186E-02
   0.209E+02 0.732E+01 -.294E+04   -.205E+02 -.724E+01 0.294E+04   -.407E+00 -.102E+00 0.134E+01   0.168E-01 0.112E-02 0.173E-01
   0.202E+02 -.109E+02 -.294E+04   -.199E+02 0.112E+02 0.293E+04   -.282E+00 -.175E+00 0.123E+01   0.163E-01 -.975E-02 0.468E-02
   -.144E+01 0.807E+00 -.292E+04   0.115E+01 -.117E+01 0.292E+04   0.285E+00 0.340E+00 0.105E+01   0.905E-02 0.876E-03 -.305E-02
   0.273E+02 -.802E+01 -.293E+04   -.271E+02 0.818E+01 0.293E+04   -.156E+00 -.206E+00 0.960E+00   0.108E-01 0.270E-01 -.145E-01
   0.716E+02 -.726E+02 -.154E+04   -.704E+02 0.728E+02 0.154E+04   -.126E+01 -.224E+00 0.176E+01   0.247E-01 -.539E-02 0.281E-01
   0.303E+02 -.435E+02 -.153E+04   -.314E+02 0.431E+02 0.153E+04   0.112E+01 0.433E+00 0.247E+01   0.207E-02 -.151E-01 -.362E-02
   0.334E+02 0.316E+02 0.304E+04   -.336E+02 -.318E+02 -.304E+04   0.151E+00 0.179E+00 -.238E+01   -.175E-01 -.849E-02 -.426E-02
   0.354E+02 -.840E+01 0.160E+04   -.363E+02 0.911E+01 -.160E+04   0.918E+00 -.667E+00 0.923E+00   0.428E-01 0.218E-01 -.575E-02
   -.707E+02 0.978E+01 -.149E+04   0.717E+02 -.913E+01 0.149E+04   -.898E+00 -.656E+00 0.269E+01   -.185E-01 0.302E-01 0.689E-01
   -.542E+02 0.512E+02 0.309E+04   0.549E+02 -.503E+02 -.309E+04   -.711E+00 -.861E+00 -.205E+01   0.132E-01 -.381E-01 -.294E-01
   -.351E+00 -.526E+02 0.159E+04   0.621E+00 0.521E+02 -.159E+04   -.320E+00 0.426E+00 -.765E+00   0.238E-02 -.480E-01 -.128E-01
   0.986E+01 0.297E+01 -.293E+04   -.100E+02 -.289E+01 0.293E+04   0.136E+00 -.839E-01 0.699E+00   -.102E-02 -.227E-01 0.192E-01
   -.227E+02 -.925E+01 0.373E+01   0.226E+02 0.947E+01 -.509E+01   -.113E-01 -.304E+00 0.130E+01   -.114E-01 0.301E-01 0.509E-01
   -.114E+02 0.778E+01 -.294E+04   0.109E+02 -.792E+01 0.294E+04   0.506E+00 0.184E+00 0.123E+01   0.569E-02 -.178E-01 0.583E-03
   0.194E+02 0.660E+02 0.213E+00   -.203E+02 -.672E+02 -.621E+00   0.105E+01 0.112E+01 0.325E+00   -.227E-01 0.218E-01 0.774E-02
   -.654E+02 0.898E+01 -.150E+04   0.658E+02 -.102E+02 0.150E+04   -.337E+00 0.125E+01 0.286E+01   -.193E-01 0.376E-04 0.255E-01
   0.282E+02 0.274E+02 -.155E+04   -.279E+02 -.267E+02 0.155E+04   -.332E+00 -.697E+00 0.228E+01   0.734E-02 0.529E-02 0.101E-01
   0.199E+02 -.638E+02 -.828E+02   -.209E+02 0.632E+02 0.830E+02   0.101E+01 0.505E+00 -.239E+00   0.276E-01 -.129E-02 0.500E-01
   -.228E+02 -.232E+02 -.569E-01   0.236E+02 0.238E+02 -.749E+00   -.838E+00 -.730E+00 0.716E+00   -.575E-03 0.560E-01 0.916E-01
   0.189E+02 0.152E+02 -.126E+04   -.190E+02 -.156E+02 0.125E+04   0.115E+00 0.446E+00 0.433E+00   -.103E-01 -.710E-02 0.161E-01
   -.598E+02 -.265E+01 0.244E+04   0.601E+02 0.136E+01 -.244E+04   -.388E+00 0.132E+01 -.269E+01   0.513E-02 0.448E-02 0.459E-02
   0.305E+02 -.140E+02 0.247E+04   -.304E+02 0.126E+02 -.247E+04   -.601E-01 0.149E+01 -.229E+01   0.151E-01 -.202E-01 0.229E-02
   0.228E+02 -.398E+01 0.247E+04   -.230E+02 0.455E+01 -.247E+04   0.146E+00 -.602E+00 -.286E+01   0.254E-01 -.355E-02 -.255E-02
   0.714E+01 0.518E+02 0.129E+04   -.626E+01 -.511E+02 -.129E+04   -.906E+00 -.700E+00 -.118E+00   -.230E-01 -.342E-01 0.132E-01
   0.336E+02 -.542E+02 0.128E+04   -.335E+02 0.540E+02 -.128E+04   -.122E+00 0.235E+00 -.397E+00   0.183E-01 -.197E-01 0.390E-02
   -.543E+02 -.242E+02 -.124E+04   0.545E+02 0.244E+02 0.124E+04   -.160E+00 -.243E+00 0.729E+00   -.123E-01 -.537E-02 0.472E-01
   -.934E+02 0.205E+02 0.248E+04   0.931E+02 -.202E+02 -.248E+04   0.244E+00 -.248E+00 -.264E+01   0.359E-01 -.569E-02 -.277E-01
   -.337E+02 0.461E+02 0.130E+04   0.329E+02 -.456E+02 -.130E+04   0.801E+00 -.535E+00 -.410E+00   0.203E-02 -.484E-01 0.186E-01
   -.431E+02 0.229E+01 -.487E+02   0.429E+02 -.193E+01 0.486E+02   0.197E+00 -.425E+00 -.730E-01   -.363E-02 0.301E-01 0.409E-01
   0.146E+02 -.824E+02 -.125E+04   -.147E+02 0.822E+02 0.125E+04   0.140E+00 0.232E+00 0.108E+01   0.195E-02 0.779E-02 0.364E-01
   0.121E+02 0.301E+02 -.124E+04   -.123E+02 -.301E+02 0.124E+04   0.121E+00 -.672E-01 0.333E+00   0.182E-01 -.242E-02 0.111E-01
   0.146E+02 -.465E+02 0.245E+04   -.153E+02 0.458E+02 -.245E+04   0.662E+00 0.694E+00 -.274E+01   0.897E-02 -.169E-01 0.208E-02
   0.443E+01 -.197E+02 0.276E+04   -.448E+01 0.199E+02 -.275E+04   0.976E-01 -.247E+00 -.231E+01   -.335E-01 0.537E-01 -.108E-01
   0.119E+03 0.291E+02 0.279E+04   -.120E+03 -.284E+02 -.279E+04   0.467E+00 -.692E+00 -.235E+01   -.967E-02 0.107E-01 -.544E-02
   -.362E+02 -.275E+02 0.142E+04   0.358E+02 0.264E+02 -.142E+04   0.432E+00 0.110E+01 -.437E+00   -.207E-01 -.146E-01 0.404E-01
   -.597E+02 0.677E+02 0.188E+02   0.597E+02 -.676E+02 -.197E+02   -.523E-01 -.239E+00 0.832E+00   -.168E-01 0.303E-01 0.245E-01
   -.885E+02 0.191E+02 0.141E+04   0.880E+02 -.187E+02 -.141E+04   0.516E+00 -.490E+00 -.116E+00   0.839E-02 0.379E-01 0.411E-01
   -.208E+02 0.921E+01 0.139E+04   0.210E+02 -.945E+01 -.139E+04   -.155E+00 0.282E+00 -.106E+00   -.286E-01 0.150E-01 0.406E-01
   0.458E+02 0.718E+01 -.141E+04   -.456E+02 -.738E+01 0.140E+04   -.268E+00 0.249E+00 0.146E+01   0.315E-02 -.862E-02 0.228E-01
   0.529E+02 -.807E+02 0.277E+04   -.526E+02 0.805E+02 -.276E+04   -.352E+00 0.221E+00 -.240E+01   -.885E-02 0.413E-02 0.108E-01
   -.137E+02 0.188E+01 0.138E+04   0.139E+02 -.175E+01 -.138E+04   -.117E+00 -.244E+00 -.424E+00   -.189E-02 0.846E-01 0.565E-01
   0.168E+02 -.673E+02 -.201E+02   -.160E+02 0.669E+02 0.204E+02   -.791E+00 0.583E+00 -.341E+00   0.120E-01 -.293E-01 0.962E-02
   0.309E+02 0.339E+02 0.344E+04   -.309E+02 -.331E+02 -.344E+04   0.133E+00 -.861E+00 -.357E+01   -.626E-01 -.110E-02 -.350E-01
   0.632E+02 0.849E+01 0.174E+04   -.633E+02 -.914E+01 -.174E+04   0.121E+00 0.699E+00 -.163E+00   0.522E-02 -.302E-01 0.152E-01
   0.102E+03 -.314E+02 0.172E+04   -.102E+03 0.313E+02 -.172E+04   -.199E+00 0.195E-01 0.317E-01   0.128E-01 0.418E-02 0.573E-02
   0.156E+02 0.711E+02 0.803E+02   -.162E+02 -.709E+02 -.811E+02   0.561E+00 -.194E+00 0.717E+00   -.286E-01 -.419E-01 0.256E-01
   0.137E+02 0.548E+02 -.172E+04   -.132E+02 -.544E+02 0.171E+04   -.467E+00 -.452E+00 0.150E+01   0.133E-01 0.146E-01 0.220E-01
[...]
   0.775E+01 -.772E+02 0.462E+02   -.739E+01 0.761E+02 -.470E+02   -.362E+00 0.130E+01 0.590E+00   -.486E-02 -.117E-01 0.863E-01
   0.566E+02 -.379E+02 -.143E+01   -.560E+02 0.375E+02 0.108E+01   -.630E+00 0.428E+00 0.374E+00   -.617E-02 -.175E-01 0.334E-01
   -.736E+02 0.926E+00 0.155E+04   0.731E+02 -.810E+00 -.155E+04   0.406E+00 -.674E-01 -.105E+00   0.401E-01 0.128E-01 0.309E-01
   -.128E+02 0.194E+02 0.162E+04   0.131E+02 -.196E+02 -.162E+04   -.355E+00 0.218E+00 -.434E+00   0.301E-01 -.288E-01 -.803E-02
   -.101E+03 -.431E+01 0.308E+04   0.101E+03 0.436E+01 -.308E+04   -.542E+00 -.467E-01 -.132E+01   0.366E-01 0.256E-01 -.218E-01
   0.702E+02 -.525E+02 0.309E+04   -.705E+02 0.530E+02 -.308E+04   0.374E+00 -.594E+00 -.847E+00   -.302E-01 0.233E-01 -.487E-02
   0.148E+02 -.404E+02 0.155E+04   -.144E+02 0.401E+02 -.155E+04   -.394E+00 0.230E+00 0.171E-01   -.244E-01 0.582E-01 0.171E-01
   0.513E+02 0.197E+01 0.159E+04   -.508E+02 -.198E+01 -.159E+04   -.474E+00 0.407E-01 -.109E+00   -.453E-01 0.249E-01 0.271E-02
   -.405E+02 -.738E+02 -.156E+04   0.405E+02 0.739E+02 0.155E+04   0.135E+00 -.786E-01 0.797E+00   0.109E-01 -.649E-03 0.527E-01
   -.540E+02 0.295E+02 0.307E+04   0.544E+02 -.289E+02 -.307E+04   -.428E+00 -.590E+00 -.189E+01   0.195E-01 -.309E-01 -.452E-01
   -.466E+02 0.740E+02 0.723E+02   0.469E+02 -.737E+02 -.725E+02   -.338E+00 -.330E+00 0.707E-01   -.179E-01 -.157E-01 0.318E-01
   0.629E-01 0.623E+02 -.630E+01   -.162E+00 -.615E+02 0.619E+01   0.962E-01 -.841E+00 -.142E-01   0.337E-01 0.103E-02 0.549E-02
   0.460E+02 0.618E+01 -.367E+02   -.456E+02 -.558E+01 0.366E+02   -.369E+00 -.601E+00 0.595E-01   0.209E-03 -.186E-01 0.576E-02
   0.249E+02 -.495E+02 0.304E+02   -.253E+02 0.491E+02 -.307E+02   0.326E+00 0.456E+00 0.171E+00   0.326E-01 -.467E-01 0.125E-02
   -.213E+01 -.825E+00 -.971E+01   0.853E-13 0.711E-13 0.365E-10   0.216E+01 0.783E+00 0.869E+01   -.150E-01 0.129E-01 0.101E+01

 POSITION                                       TOTAL-FORCE (eV/Angst)
     12.94971      8.04053      6.98678        -0.007145      0.003162     -0.007209
      5.10438      8.07593      6.94934         0.018975     -0.005378     -0.001294
      4.95824      3.48638      7.03441        -0.007053     -0.022683      0.006837
     14.30651      8.79892      9.34049         0.006453      0.003416     -0.019522
      3.72415      4.22944      9.41621         0.009810     -0.016844      0.020942
      6.38668      8.79371      9.28021         0.002069      0.018613      0.004369
     11.65321      4.20769      9.38672         0.022170      0.011804      0.016311
      9.02014      8.78104      9.25070        -0.003861     -0.005598      0.008272
     10.33836      1.93334      9.25329         0.022672     -0.012053      0.003473
      2.43331      1.93048      9.29284        -0.014614     -0.001588      0.011703
     11.66339      8.78921      9.32755         0.011373     -0.024103      0.008356
     12.97924      6.50294      9.38765        -0.027339     -0.011659      0.012797
      5.05605      1.91534      9.35042         0.003139      0.021823      0.016779
      7.71902      6.51495      9.33618         0.024560     -0.004763     -0.014967
      9.03732      4.22113      9.30256        -0.011559     -0.001199      0.003115
      5.06014      6.50457      9.38552         0.015883     -0.009497      0.016889
      7.70633      1.92706      9.28204         0.000774      0.010847      0.027400
      7.77291      3.43929      6.97865        -0.014787     -0.012538     -0.008509
      6.29731      1.14161      6.92884         0.010225      0.008736      0.008386
      6.42858      1.12974      0.87872        -0.017004     -0.009926      0.001351
      3.70548      4.20844      2.81687         0.012510      0.004904     -0.024635
      1.17724      1.25398      6.90783         0.000630      0.002525      0.026827
      1.13569      1.19080      0.72557        -0.009539      0.014830      0.007365
      6.43607      8.76100      2.90031         0.000704      0.009905     -0.000385
      6.38645      4.22215      9.39201        -0.006802     -0.017740     -0.007711
      7.68135      4.99073      4.81474        -0.001590      0.005398     -0.001489
     10.32777      6.50741      9.33108         0.015684     -0.001109     -0.008036
     14.26424      7.22593      4.86299         0.021134     -0.023036     -0.014060
     11.66971      5.69639      7.02111         0.001073     -0.024657     -0.008958
      6.41238      5.77464      7.00881        -0.000754     -0.001003     -0.024890
      3.62119      2.56589      4.96023         0.009592      0.004459      0.011695
     10.36091      5.02430      4.85652         0.013116     -0.002904     -0.007040
      3.75671      5.77381      7.16365        -0.005880     -0.020299     -0.002117
     12.96907      7.87977      0.92567        -0.005517     -0.000620      0.003432
      5.16340      7.91719      0.83030         0.012933      0.014499      0.005011
      3.80701      5.74502      0.81381         0.010537     -0.005379     -0.017086
      7.79852      2.03245      2.83251        -0.022590     -0.007463      0.007454
      9.07755      8.73373      2.85743         0.003366      0.000089      0.002543
      2.40002      3.51136      7.13949        -0.003414     -0.002319      0.016060
      2.34409      3.49051      0.82510         0.007387      0.007415     -0.014800
     10.34814      1.96983      2.82249        -0.023439      0.006387      0.000292
     12.96035      4.98587      4.92559        -0.011099     -0.011509     -0.006033
      3.74159      1.06028      7.07107        -0.007726      0.024439      0.000651
      9.02910      5.76585      7.09105         0.014065     -0.009842     -0.017762
      3.74824      1.09182      0.86700        -0.008530      0.001996     -0.017609
      9.09121      5.71867      0.96043        -0.005090      0.019636     -0.023088
      5.12448      3.47045      0.85563         0.001733      0.027965      0.002880
     11.62092      8.68758      2.90590        -0.007670      0.002938      0.019592
     11.65313      7.26450      4.84229         0.000270     -0.019182     -0.008955
     12.86756      6.45280      2.83379         0.016372      0.005765      0.000480
      9.04201      4.20780      2.79628        -0.001313      0.011293     -0.011502
      7.76571      8.00921      6.99487         0.001792     -0.003926      0.003569
      7.81315      7.93922      0.88653        -0.011668      0.004577      0.005763
     10.39144      6.53566      2.82198         0.003832     -0.007150      0.003329
      2.51347      0.25826      5.00083         0.019254      0.013322      0.004338
      7.74264      3.48454      0.76157        -0.002797     -0.007932      0.001575
      5.07835      1.87760      2.91701        -0.002453     -0.010394     -0.007220
      5.16037      6.44715      2.89923        -0.013554      0.001924     -0.011631
      7.70892      0.45986      4.84799        -0.002323      0.007304      0.015374
      9.05518      1.18967      6.97136        -0.001102     -0.007277      0.012061
[...]
     14.29598      8.81469      2.83748        -0.006995      0.002008     -0.008020
      9.07350      2.65252      4.91360         0.006547     -0.017655     -0.020012
      6.37169      2.66558      4.85827        -0.013134      0.016324      0.006677
     11.65891      4.17486      2.81483        -0.021248     -0.000283     -0.023824
      2.44098      1.89237      2.83279        -0.005240      0.010249      0.011379
     11.64953      5.68621      0.88546         0.001513      0.030290     -0.005581
      6.44743      5.71949      0.92597        -0.003680      0.011521     -0.006006
      7.82927      6.50651      2.83621        -0.007899      0.003056     -0.000253
      6.41922      4.13007      2.78290        -0.003406      0.005468     -0.013964
     10.37129      3.46829      7.04709         0.018676      0.004223      0.021620
     10.34410      3.45013      0.86804         0.003913     -0.017063     -0.016894
     10.37063      0.48410      4.87151        -0.008523     -0.004299     -0.001462
      9.04079      7.29017      4.93700         0.007877     -0.018839     -0.004871
      6.46265      7.29503      4.94074         0.010958      0.009666      0.015554
      5.04247      0.27633      4.88406        -0.010566      0.007771      0.002447
    total drift:                                0.014071     -0.029413     -0.014002

  FREE ENERGIE OF THE ION-ELECTRON SYSTEM (eV)
  free  energy   TOTEN  =      -507.43597546 eV

  energy  without entropy=     -507.44747588  energy(sigma->0) =     -507.43980893

 d Force = 0.5194574E-02[ 0.207E-02, 0.832E-02]  d Energy = 0.4543353E-02 0.651E-03
 d Force = 0.2117058E+03[ 0.212E+03, 0.212E+03]  d Ewald  = 0.2117058E+03-0.116E-04

 Conjugate gradient step on ions:
 trial-energy change:   -0.004543  1 .order   -0.005195   -0.008321   -0.002068
  (g-gl).g = 0.445E-02      g.g   = 0.546E-02  gl.gl    = 0.170E-01
 g(Force)  = 0.546E-02   g(Stress)= 0.000E+00 ortho     = 0.967E-03
 gamma     =   0.26191
 trial     =   1.45536
 opt step  =   1.93663  (harmonic =   1.93663) maximal distance =0.00605870
 next E    =  -507.436969   (d E  =  -0.00554)

 reached required accuracy - stopping structural energy minimisation