 vasp.5.4.4.18Apr17-6-g9f103f2a35 (build Oct 25 2019 11:13:22) complex

 executed on             LinuxIFC date 2022.02.13  08:11:49

 INCAR:
 POTCAR:    PAW_PBE Pt 04Feb2005
 POTCAR:    PAW_PBE Fe 06Sep2000
 POTCAR:    PAW_PBE Co 02Aug2007
 POTCAR:    PAW_PBE Ni 02Aug2007
 POTCAR:    PAW_PBE H 15Jun2001

 POTCAR:    PAW_PBE Pt 04Feb2005
   VRHFIN =Pt: s1d9

   TITEL  = PAW_PBE Pt 04Feb2005
   POMASS =  195.080; ZVAL   =   10.000    mass and valenz
   ENMAX  =  230.283; ENMIN  =  172.712 eV

 POTCAR:    PAW_PBE Fe 06Sep2000
   VRHFIN =Fe:  d7 s1

   TITEL  = PAW_PBE Fe 06Sep2000
   POMASS =   55.847; ZVAL   =    8.000    mass and valenz
   ENMAX  =  267.882; ENMIN  =  200.911 eV

 POTCAR:    PAW_PBE Co 02Aug2007
   VRHFIN =Co: d8 s1

   TITEL  = PAW_PBE Co 02Aug2007
   POMASS =   58.933; ZVAL   =    9.000    mass and valenz
   ENMAX  =  267.968; ENMIN  =  200.976 eV

 POTCAR:    PAW_PBE Ni 02Aug2007
   VRHFIN =Ni:

   TITEL  = PAW_PBE Ni 02Aug2007
   POMASS =   58.690; ZVAL   =   10.000    mass and valenz
   ENMAX  =  269.532; ENMIN  =  202.149 eV

 POTCAR:    PAW_PBE H 15Jun2001
   VRHFIN =H: ultrasoft test

   TITEL  = PAW_PBE H 15Jun2001
   POMASS =    1.000; ZVAL   =    1.000    mass and valenz
   ENMAX  =  250.000; ENMIN  =  200.000 eV

 Optimization of the real space projectors (new method)

 maximal supplied QI-value         = 14.36
 optimisation between [QCUT,QGAM] = [ 11.92, 23.98] = [ 39.79,161.09] Ry
 Optimized for a Real-space Cutoff    1.49 Angstroem

   l    n(q)    QCUT    max X(q) W(low)/X(q) W(high)/X(q)  e(spline)
   2     10    11.920    66.195    0.79E-04    0.18E-03    0.24E-06
   2     10    11.920    64.643    0.81E-04    0.19E-03    0.24E-06
   0     11    11.920    95.520    0.28E-04    0.54E-04    0.18E-06
   0     11    11.920    63.403    0.27E-04    0.52E-04    0.17E-06
   1     10    11.920    19.961    0.18E-04    0.11E-03    0.23E-06
   1     10    11.920    13.289    0.25E-04    0.87E-04    0.19E-06
 Optimization of the real space projectors (new method)

[...]

   l    n(q)    QCUT    max X(q) W(low)/X(q) W(high)/X(q)  e(spline)
   2      9    11.864    60.317    0.21E-03    0.51E-03    0.25E-06
   2      9    11.864    55.921    0.21E-03    0.51E-03    0.26E-06
   0      9    11.864    51.690    0.22E-03    0.30E-04    0.17E-06
   0      9    11.864    30.015    0.20E-03    0.28E-04    0.15E-06
   1      9    11.864    18.849    0.76E-04    0.33E-03    0.17E-06
   1      9    11.864    14.624    0.60E-04    0.28E-03    0.15E-06
 Optimization of the real space projectors (new method)

 maximal supplied QI-value         = 34.20
 optimisation between [QCUT,QGAM] = [ 11.97, 23.94] = [ 40.13,160.53] Ry
 Optimized for a Real-space Cutoff    1.18 Angstroem

   l    n(q)    QCUT    max X(q) W(low)/X(q) W(high)/X(q)  e(spline)
   0      8    11.971    19.460    0.15E-03    0.31E-03    0.25E-06
   0      8    11.971    12.209    0.13E-03    0.29E-03    0.25E-06
   1      8    11.971     4.655    0.22E-03    0.24E-03    0.21E-06
  PAW_PBE Pt 04Feb2005                  :
  PAW_PBE Fe 06Sep2000                  :
  PAW_PBE Co 02Aug2007                  :
  PAW_PBE Ni 02Aug2007                  :
  PAW_PBE H 15Jun2001                   :

 POSCAR: 11.26
  positions in cartesian coordinates
 exchange correlation table for  LEXCH =        8
   RHO(1)=    0.500       N(1)  =     2000
   RHO(2)=  100.500       N(2)  =     4000

 ion  position               nearest neighbor table
   1  0.783  0.871  0.304-  52 2.54  59 2.56  28 2.71  19 2.74   2 2.76  61 2.77  29 2.79  33 2.81
                            60 2.81   4 2.83  12 2.85  11 2.86
   2  0.029  0.871  0.300-  79 2.50  77 2.52   1 2.76  33 2.78  30 2.79  28 2.79   4 2.83   6 2.83
                            60 2.86  16 2.87  22 2.96
   3  0.280  0.360  0.311-  64 2.53  68 2.61  31 2.64  43 2.73   5 2.74  39 2.76  13 2.77  30 2.78
                            25 2.79  19 2.84  33 2.86  18 2.93
   4  0.873  0.953  0.408-  81 1.83  60 2.66  16 2.77  12 2.79   9 2.80   1 2.83   2 2.83   6 2.83
                            11 2.83  17 2.86
   5  0.111  0.458  0.410-  39 2.62  33 2.69  12 2.72   3 2.74  16 2.79   7 2.79  10 2.81  25 2.85
                            13 2.89
   6  0.128  0.947  0.402-  55 2.63  14 2.73  22 2.73  16 2.79   8 2.82   2 2.83   4 2.83  10 2.85
                             9 2.86
   7  0.869  0.448  0.411-  39 2.59  75 2.66   9 2.73  29 2.73  15 2.76   5 2.79  10 2.81  27 2.83
                            12 2.90
   8  0.374  0.953  0.416-  55 2.50  43 2.60  61 2.68  11 2.76  13 2.76  27 2.78  10 2.81   6 2.82
                            14 2.87
   9  0.874  0.202  0.408-  81 1.95  75 2.61  60 2.68   7 2.73  22 2.79  10 2.80   4 2.80   6 2.86
                            17 2.86  15 2.87
  10  0.124  0.202  0.411-  39 2.64  43 2.64  22 2.74  13 2.76   9 2.80   5 2.81   8 2.81   7 2.81
                             6 2.85
  11  0.623  0.947  0.413-  61 2.63  19 2.72  27 2.75   8 2.76  12 2.76   4 2.83  13 2.86   1 2.86
                            17 2.89
  12  0.872  0.704  0.411-  29 2.69  33 2.70   5 2.72  16 2.74  11 2.76   4 2.79  27 2.84   1 2.85
                             7 2.90
  13  0.369  0.202  0.415-  43 2.63  10 2.76   8 2.76   3 2.77  19 2.78  25 2.80  17 2.81  11 2.86
                             5 2.89
  14  0.369  0.701  0.405-  44 2.54  55 2.59   6 2.73  15 2.77  25 2.80  16 2.82  27 2.84  30 2.84
                             8 2.87
  15  0.618  0.457  0.408-  44 2.61  75 2.63   7 2.76  14 2.77  18 2.77  27 2.78  17 2.81  25 2.83
                             9 2.87
  16  0.117  0.704  0.407-  33 2.66  30 2.68  12 2.74   4 2.77   5 2.79   6 2.79  14 2.82  25 2.83
                             2 2.87
  17  0.617  0.207  0.413-  81 1.82  60 2.68  25 2.77  19 2.78  18 2.79  15 2.81  13 2.81   9 2.86
                             4 2.86  11 2.89
  18  0.539  0.364  0.308-  67 2.52  68 2.61  60 2.68  26 2.69  15 2.77  25 2.78  17 2.79  75 2.79
                            19 2.84   3 2.93  30 2.93  44 3.01
  19  0.538  0.112  0.313-  68 2.49  80 2.53  59 2.55  43 2.69  61 2.71  11 2.72   1 2.74  60 2.74
                            13 2.78  17 2.78   3 2.84  18 2.84
  20  0.538  0.117  0.053-  47 2.51  37 2.56  51 2.64  63 2.67  50 2.71  62 2.73  34 2.74  46 2.79
                            45 2.87
  21  0.106  0.420  0.118-  40 2.50  36 2.51  50 2.54  70 2.60  47 2.66  42 2.66  64 2.70  69 2.71
                            31 2.79  53 3.03
  22  0.048  0.125  0.306-  77 2.51  65 2.51  58 2.56  39 2.69   6 2.73  10 2.74  43 2.77   9 2.79
                            75 2.84  55 2.93   2 2.96  60 3.05  31 3.27
  23  0.025  0.110  0.043-  40 2.54  41 2.55  70 2.56  35 2.67  62 2.71  24 2.74  56 2.77  76 2.83
                            45 2.93
  24  0.117  0.952  0.146-  79 2.49  35 2.51  70 2.62  77 2.62  58 2.62  56 2.64  48 2.66  73 2.70
                            66 2.72  23 2.74  41 2.84  38 2.93
  25  0.369  0.452  0.409-  17 2.77  30 2.78  18 2.78   3 2.79  14 2.80  13 2.80  16 2.83  15 2.83
                             5 2.85
  26  0.451  0.562  0.222-  73 2.52  74 2.53  54 2.55  79 2.59  30 2.60  44 2.61  32 2.67  78 2.68
                            18 2.69  67 2.98  48 2.99
  27  0.620  0.704  0.412-  44 2.55  61 2.64  11 2.75  15 2.78   8 2.78  29 2.79   7 2.83  12 2.84
                            14 2.84
  28  0.949  0.756  0.207-  48 2.55  53 2.56  66 2.63  42 2.65  33 2.66  64 2.70   1 2.71   2 2.79
                            52 2.85  36 2.90  59 3.15
  29  0.798  0.616  0.313-  42 2.57  52 2.58  32 2.63  39 2.67  33 2.68  12 2.69   7 2.73   1 2.79
                            27 2.79  44 2.81  75 2.86  61 2.89
  30  0.268  0.614  0.306-  79 2.51  33 2.59  26 2.60  16 2.68  64 2.69  25 2.78   3 2.78   2 2.79
                            14 2.84  18 2.93  44 3.17  55 3.29
  31  0.191  0.261  0.224-  70 2.48  58 2.52  47 2.57  43 2.61  39 2.61   3 2.64  65 2.68  64 2.74
                            21 2.79  80 2.81  42 2.83  68 3.00  22 3.27
  32  0.700  0.539  0.222-  69 2.53  54 2.60  44 2.63  29 2.63  57 2.63  75 2.63  65 2.66  26 2.67
                            52 2.68  42 2.70  67 2.73  78 2.76
  33  0.034  0.622  0.311-  64 2.56  30 2.59  16 2.66  28 2.66  29 2.68   5 2.69  12 2.70  42 2.75
                             2 2.78   1 2.81  39 2.83   3 2.86
  34  0.791  0.885  0.059-  51 2.33  66 2.39  53 2.60  62 2.68  35 2.73  20 2.74  36 2.75  63 2.89

  35  0.043  0.865  0.057-  36 2.40  24 2.51  66 2.52  23 2.67  34 2.73  48 2.84  72 2.85  56 2.85
                            62 3.00
  36  0.042  0.658  0.084-  48 2.40  35 2.40  53 2.47  21 2.51  72 2.75  34 2.75  28 2.90
  37  0.624  0.211  0.138-  59 2.38  62 2.40  67 2.45  46 2.46  68 2.48  74 2.55  20 2.56  66 2.66
                            41 2.68  54 2.71  47 2.99  51 3.04
  38  0.377  0.954  0.136-  63 2.36  45 2.39  56 2.40  58 2.42  80 2.45  73 2.50  78 2.54  57 2.61
                            47 2.77  70 2.82  51 2.87  24 2.93
  39  0.028  0.372  0.317-   7 2.59  31 2.61   5 2.62  65 2.62  10 2.64  42 2.65  29 2.67  22 2.69
                            75 2.75   3 2.76  33 2.83  43 3.02
  40  0.983  0.354  0.043-  69 2.31  76 2.42  21 2.50  23 2.54  70 2.62  71 2.63  45 3.12
  41  0.866  0.206  0.135-  77 2.42  76 2.43  67 2.44  62 2.46  65 2.52  23 2.55  69 2.55  66 2.57
                            70 2.65  37 2.68  24 2.84  54 2.87
  42  0.948  0.521  0.217-  53 2.52  69 2.54  64 2.55  65 2.57  29 2.57  39 2.65  28 2.65  21 2.66
                            32 2.70  33 2.75  31 2.83  52 2.97
  43  0.301  0.108  0.320-  58 2.47  55 2.50   8 2.60  80 2.61  31 2.61  13 2.63  10 2.64  61 2.66
                            19 2.69   3 2.73  22 2.77  39 3.02
  44  0.540  0.631  0.318-  14 2.54  78 2.55  27 2.55  15 2.61  26 2.61  32 2.63  55 2.63  61 2.68
                            29 2.81  75 2.87  18 3.01  30 3.17
  45  0.285  0.111  0.053-  38 2.39  70 2.47  47 2.48  56 2.53  63 2.71  20 2.87  23 2.93  40 3.12

  46  0.535  0.367  0.050-  54 2.40  50 2.43  37 2.46  74 2.47  76 2.54  62 2.67  72 2.72  20 2.79
                            49 2.82
  47  0.359  0.209  0.135-  50 2.40  68 2.41  45 2.48  20 2.51  31 2.57  80 2.60  21 2.66  74 2.74
                            38 2.77  70 2.92  37 2.99
  48  0.180  0.691  0.158-  79 2.40  36 2.40  72 2.41  64 2.41  73 2.49  28 2.55  24 2.66  74 2.70
                            35 2.84  26 2.99
  49  0.521  0.625  0.052-  54 2.35  73 2.38  71 2.44  57 2.44  72 2.53  56 2.78  46 2.82  76 2.90
                            63 2.95
  50  0.315  0.374  0.056-  74 2.35  47 2.40  46 2.43  21 2.54  72 2.65  20 2.71
  51  0.642  0.932  0.141-  34 2.33  52 2.34  63 2.45  59 2.53  53 2.55  80 2.56  20 2.64  57 2.67
                            66 2.78  38 2.87  37 3.04
  52  0.683  0.786  0.223-  51 2.34  78 2.41  57 2.48  61 2.52   1 2.54  53 2.55  29 2.58  80 2.65
                            32 2.68  28 2.85  42 2.97  59 3.12
  53  0.830  0.681  0.129-  57 2.36  71 2.40  36 2.47  42 2.52  52 2.55  51 2.55  28 2.56  69 2.59
                            34 2.60  21 3.03
  54  0.609  0.460  0.130-  49 2.35  46 2.40  76 2.41  26 2.55  74 2.58  32 2.60  67 2.61  69 2.68
[...]
      5.63380      3.63292      1.23723         0.069715      0.043903      0.006730
     12.43866      9.06023      3.09611         0.019357     -0.001285     -0.034817
     12.07766      7.63668      4.91324         0.003331     -0.013610      0.004628
     13.13008      6.61689      2.83040        -0.067502     -0.014356     -0.029739
      9.41148      4.47169      2.86934         0.022870     -0.015242      0.031725
      8.50052      8.52408      7.01005         0.020297      0.007339     -0.005587
      8.18243      8.58957      1.16315        -0.001555      0.011738     -0.001462
     10.79405      6.97057      2.90238         0.002797      0.030412      0.056899
      2.82111      0.14512      5.04740        -0.216571     -0.030693      0.000133
      8.14725      0.55026      4.88481         0.016500     -0.005295      0.164069
      9.40775      1.20679      6.91233         0.014218      0.002510     -0.028275
[...]
      9.60048      2.82018      4.87865        -0.048918      0.006742      0.081643
      6.60502      2.54502      4.87077         0.006870     -0.043355      0.066011
     12.08196      4.24602      2.88896         0.008039     -0.005382     -0.052507
      2.28916      1.82528      2.94996        -0.010415     -0.036681      0.045056
     11.76886      5.74999      1.05362         0.008470     -0.005469     -0.006848
      6.84033      5.98705      1.38644        -0.021278     -0.004152      0.026944
      8.30437      7.12497      3.00063        -0.007604      0.048530      0.022191
      6.85459      4.22009      3.15394        -0.060739     -0.020836     -0.012466
     10.88101      3.56860      6.91673        -0.019389     -0.006931     -0.039015
     10.60151      3.45495      1.03917        -0.005422     -0.019743     -0.016639
     10.73179      0.68889      4.99664        -0.026789     -0.000504     -0.035612
      9.67006      7.71157      4.99333         0.044555      0.127639      0.112030
      7.17143      7.81748      5.18228         0.040444     -0.000125     -0.007992
      5.29940      0.29561      4.91544         0.151838     -0.060249     -0.036198
      9.45839      1.12339      9.88671         0.046258     -0.017797      0.030400
    total drift:                                0.009626      0.035381      0.023632

  FREE ENERGIE OF THE ION-ELECTRON SYSTEM (eV)
  free  energy   TOTEN  =      -538.47252055 eV

  energy  without entropy=     -538.47252055  energy(sigma->0) =     -538.47252055

 d Force = 0.9698216E-03[-0.912E-03, 0.285E-02]  d Energy =-0.2691050E-03 0.124E-02
 d Force =-0.9579704E+01[-0.958E+01,-0.958E+01]  d Ewald  =-0.9579942E+01 0.238E-03

 Finite differences progress:
  Degree of freedom:   3/  3
  Displacement:        2/  2
  Total:               6/  6

 SECOND DERIVATIVES (NOT SYMMETRIZED)
              81X         81Y         81Z
 81X    -1.280782    0.599197   -0.853039
 81Y     0.572526   -1.558043   -0.388848
 81Z    -0.844829   -0.410220   -4.181794

 Eigenvectors and eigenvalues of the dynamical matrix

   1 f  =   32.910419 THz   206.782258 2PiTHz 1097.773364 cm-1   136.106599 meV
             X         Y         Z           dx          dy          dz
     13.676698  8.466183  6.697291            0           0           0
      5.208914  8.463725  6.591646            0           0           0
      5.166847  3.499833  6.833815            0           0           0
     15.142568  9.264916  8.980824            0           0           0
      3.821863  4.453372  9.020082            0           0           0
      6.748556  9.199555  8.851366            0           0           0
     12.260524  4.351335  9.052942            0           0           0
      9.551664  9.264709  9.155357            0           0           0
     10.947338  1.964205  8.970912            0           0           0
      2.522557  1.966249  9.036845            0           0           0
     12.310523  9.207346  9.093962            0           0           0
     13.743935  6.846288  9.046082            0           0           0
      5.278692  1.964458  9.134534            0           0           0
      8.072067  6.813248  8.901399            0           0           0
      9.505731  4.443438  8.975724            0           0           0
      5.257467  6.840093  8.963038            0           0           0
      8.090456  2.016114  9.096421            0           0           0
      8.095986  3.542338  6.765055            0           0           0
      6.666693  1.089901  6.895209            0           0           0
      6.688295  1.136239  1.168686            0           0           0
      3.544815  4.079031  2.606324            0           0           0
      1.232399  1.211096  6.742441            0           0           0
      0.891779  1.066852  0.946259            0           0           0
      6.656621  9.256763  3.212249            0           0           0
      6.675237  4.391611  9.000531            0           0           0
      8.211617  5.460551  4.885224            0           0           0
     10.907229  6.837725  9.068916            0           0           0
     14.890523  7.351400  4.544290            0           0           0
     12.411364  5.987882  6.875375            0           0           0
      6.449093  5.967917  6.723638            0           0           0
      3.610252  2.535671  4.929286            0           0           0
     10.876990  5.237100  4.877710            0           0           0
      3.865138  6.041987  6.846890            0           0           0
     13.839530  8.597276  1.298341            0           0           0
      5.335858  8.402881  1.254446            0           0           0
      4.162766  6.390812  1.850956            0           0           0
      8.191068  2.052729  3.033860            0           0           0
      9.581692  9.276024  2.994683            0           0           0
      2.408409  3.617687  6.982097            0           0           0
     13.017728  3.439534  0.942539            0           0           0
     10.870715  1.998388  2.967381            0           0           0
     13.568897  5.068175  4.770577            0           0           0
      3.984064  1.047461  7.035476            0           0           0
      9.602673  6.133991  6.992669            0           0           0
      3.816457  1.075428  1.161363            0           0           0
      8.061037  3.567708  1.100229            0           0           0
      5.203702  2.034191  2.978088            0           0           0
      5.895058  6.720214  3.475283            0           0           0
      9.353912  6.069883  1.148085            0           0           0
      5.633796  3.632923  1.237229            0           0           0
     12.438659  9.060229  3.096115            0           0           0
     12.077659  7.636682  4.913240            0           0           0
     13.130083  6.616886  2.830400            0           0           0
      9.411481  4.471689  2.869342            0           0           0
      8.500521  8.524083  7.010050            0           0           0
      8.182433  8.589571  1.163151            0           0           0
     10.794049  6.970573  2.902376            0           0           0
      2.821111  0.145122  5.047399            0           0           0
      8.147254  0.550263  4.884806            0           0           0
      9.407752  1.206788  6.912326            0           0           0
[...]
      9.600481  2.820176  4.878652            0           0           0
      6.605022  2.545022  4.870770            0           0           0
     12.081964  4.246017  2.888958            0           0           0
      2.289160  1.825282  2.949964            0           0           0
     11.768861  5.749988  1.053620            0           0           0
      6.840329  5.987054  1.386442            0           0           0
      8.304374  7.124975  3.000625            0           0           0
      6.854587  4.220090  3.153943            0           0           0
     10.881009  3.568603  6.916730            0           0           0
     10.601515  3.454949  1.039167            0           0           0
     10.731789  0.688887  4.996638            0           0           0
      9.670061  7.711567  4.993331            0           0           0
      7.171427  7.817478  5.182281            0           0           0
      5.299396  0.295606  4.915438            0           0           0
      9.458389  1.123395  9.901709     0.244554    0.084443    0.965952

[...]

   3 f  =   11.940021 THz    75.021366 2PiTHz  398.276227 cm-1    49.379976 meV
             X         Y         Z           dx          dy          dz
     13.676698  8.466183  6.697291            0           0           0
      5.208914  8.463725  6.591646            0           0           0
      5.166847  3.499833  6.833815            0           0           0
     15.142568  9.264916  8.980824            0           0           0
      3.821863  4.453372  9.020082            0           0           0
      6.748556  9.199555  8.851366            0           0           0
     12.260524  4.351335  9.052942            0           0           0
      9.551664  9.264709  9.155357            0           0           0
     10.947338  1.964205  8.970912            0           0           0
      2.522557  1.966249  9.036845            0           0           0
     12.310523  9.207346  9.093962            0           0           0
     13.743935  6.846288  9.046082            0           0           0
      5.278692  1.964458  9.134534            0           0           0
      8.072067  6.813248  8.901399            0           0           0
      9.505731  4.443438  8.975724            0           0           0
      5.257467  6.840093  8.963038            0           0           0
      8.090456  2.016114  9.096421            0           0           0
      8.095986  3.542338  6.765055            0           0           0
      6.666693  1.089901  6.895209            0           0           0
      6.688295  1.136239  1.168686            0           0           0
      3.544815  4.079031  2.606324            0           0           0
      1.232399  1.211096  6.742441            0           0           0
      0.891779  1.066852  0.946259            0           0           0
      6.656621  9.256763  3.212249            0           0           0
      6.675237  4.391611  9.000531            0           0           0
      8.211617  5.460551  4.885224            0           0           0
     10.907229  6.837725  9.068916            0           0           0
     14.890523  7.351400  4.544290            0           0           0
     12.411364  5.987882  6.875375            0           0           0
      6.449093  5.967917  6.723638            0           0           0
      3.610252  2.535671  4.929286            0           0           0
     10.876990  5.237100  4.877710            0           0           0
      3.865138  6.041987  6.846890            0           0           0
     13.839530  8.597276  1.298341            0           0           0
      5.335858  8.402881  1.254446            0           0           0
      4.162766  6.390812  1.850956            0           0           0
      8.191068  2.052729  3.033860            0           0           0
      9.581692  9.276024  2.994683            0           0           0
      2.408409  3.617687  6.982097            0           0           0
     13.017728  3.439534  0.942539            0           0           0
     10.870715  1.998388  2.967381            0           0           0
     13.568897  5.068175  4.770577            0           0           0
      3.984064  1.047461  7.035476            0           0           0
      9.602673  6.133991  6.992669            0           0           0
      3.816457  1.075428  1.161363            0           0           0
      8.061037  3.567708  1.100229            0           0           0
      5.203702  2.034191  2.978088            0           0           0
      5.895058  6.720214  3.475283            0           0           0
      9.353912  6.069883  1.148085            0           0           0
      5.633796  3.632923  1.237229            0           0           0
     12.438659  9.060229  3.096115            0           0           0
     12.077659  7.636682  4.913240            0           0           0
     13.130083  6.616886  2.830400            0           0           0
      9.411481  4.471689  2.869342            0           0           0
      8.500521  8.524083  7.010050            0           0           0
      8.182433  8.589571  1.163151            0           0           0
     10.794049  6.970573  2.902376            0           0           0
      2.821111  0.145122  5.047399            0           0           0
      8.147254  0.550263  4.884806            0           0           0
      9.407752  1.206788  6.912326            0           0           0
[...]
      9.600481  2.820176  4.878652            0           0           0
      6.605022  2.545022  4.870770            0           0           0
     12.081964  4.246017  2.888958            0           0           0
      2.289160  1.825282  2.949964            0           0           0
     11.768861  5.749988  1.053620            0           0           0
      6.840329  5.987054  1.386442            0           0           0
      8.304374  7.124975  3.000625            0           0           0
      6.854587  4.220090  3.153943            0           0           0
     10.881009  3.568603  6.916730            0           0           0
     10.601515  3.454949  1.039167            0           0           0
     10.731789  0.688887  4.996638            0           0           0
      9.670061  7.711567  4.993331            0           0           0
      7.171427  7.817478  5.182281            0           0           0
      5.299396  0.295606  4.915438            0           0           0
      9.458389  1.123395  9.901709     0.782077    0.571718   -0.247981

 Finite differences POTIM=  1.500000000000000E-002
  LATTYP: Found a hexagonal cell.
 ALAT       =    11.2227001190
 C/A-ratio  =     1.9603125600

  Lattice vectors:

 A1 = (   5.6113500595,  -9.7191434021,   0.0000000000)
 A2 = ( -11.2227001190,   0.0000000000,   0.0000000000)
 A3 = (   0.0000000000,   0.0000000000, -22.0000000000)

Analysis of symmetry for initial positions (statically):
 Subroutine PRICEL returns:
 Original cell was already a primitive cell.

[...]

The static configuration has the point symmetry C_1 .

Analysis of symmetry for dynamics (positions and initial velocities):
 Subroutine PRICEL returns:
 Original cell was already a primitive cell.

[...]

The dynamic configuration has the point symmetry C_1 .

Analysis of constrained symmetry for selective dynamics:
 Subroutine PRICEL returns:
 Original cell was already a primitive cell.

[...]

The constrained configuration has the point symmetry C_1 .

Analysis of structural, dynamic, and magnetic symmetry:
 Subroutine PRICEL returns:
 Original cell was already a primitive cell.

 Routine SETGRP: Setting up the symmetry group for a
 hexagonal supercell.

 Subroutine GETGRP returns: Found  1 space group operations
 (whereof  1 operations were pure point group operations)
 out of a pool of 24 trial point group operations.

The magnetic configuration has the point symmetry C_1 .

 Subroutine INISYM returns: Found  1 space group operations
 (whereof  1 operations are pure point group operations),
 and found     1 'primitive' translations

 KPOINTS: mesh auto

Automatic generation of k-mesh.
Space group operators:
 irot       det(A)        alpha          n_x          n_y          n_z        tau_x        tau_y        tau_z
    1     1.000000     0.000000     1.000000     0.000000     0.000000     0.000000     0.000000     0.000000

 Subroutine IBZKPT returns following result:

 Found      4 irreducible k-points:

 Following reciprocal coordinates:
            Coordinates               Weight
  0.000000  0.000000  0.000000      1.000000
  0.500000  0.000000  0.000000      1.000000
  0.000000  0.500000  0.000000      1.000000
  0.500000  0.500000  0.000000      1.000000

 Following cartesian coordinates:
            Coordinates               Weight
  0.000000  0.000000  0.000000      1.000000
  0.044553 -0.025722  0.000000      1.000000
  0.000000  0.051445  0.000000      1.000000
  0.044553  0.025722  0.000000      1.000000

 TETIRR: Found     12 inequivalent tetrahedra from       24
 BZINTS: Fermi energy:  1.364699;754.000000 electrons
         Band energy:***********;  BLOECHL correction: -0.202154