 vasp.5.4.4.18Apr17-6-g9f103f2a35 (build Oct 25 2019 11:13:22) complex

 executed on             LinuxIFC date 2021.11.04  07:08:22

 INCAR:
 POTCAR:    PAW_PBE Pt 04Feb2005
 POTCAR:    PAW_PBE Fe 06Sep2000
 POTCAR:    PAW_PBE Co 02Aug2007
 POTCAR:    PAW_PBE Cu 22Jun2005
 POTCAR:    PAW_PBE Ni 02Aug2007
 POTCAR:    PAW_PBE H 15Jun2001
 POTCAR:    PAW_PBE Pt 04Feb2005
   VRHFIN =Pt: s1d9

   TITEL  = PAW_PBE Pt 04Feb2005
   POMASS =  195.080; ZVAL   =   10.000    mass and valenz
   ENMAX  =  230.283; ENMIN  =  172.712 eV

 POTCAR:    PAW_PBE Fe 06Sep2000
   VRHFIN =Fe:  d7 s1

   TITEL  = PAW_PBE Fe 06Sep2000
   POMASS =   55.847; ZVAL   =    8.000    mass and valenz
   ENMAX  =  267.882; ENMIN  =  200.911 eV

 POTCAR:    PAW_PBE Co 02Aug2007
   VRHFIN =Co: d8 s1

   TITEL  = PAW_PBE Co 02Aug2007
   POMASS =   58.933; ZVAL   =    9.000    mass and valenz
   ENMAX  =  267.968; ENMIN  =  200.976 eV

 POTCAR:    PAW_PBE Cu 22Jun2005
   VRHFIN =Cu: d10 p1

   TITEL  = PAW_PBE Cu 22Jun2005
   POMASS =   63.546; ZVAL   =   11.000    mass and valenz
   ENMAX  =  295.446; ENMIN  =  221.585 eV

 POTCAR:    PAW_PBE Ni 02Aug2007
   VRHFIN =Ni:

   TITEL  = PAW_PBE Ni 02Aug2007
   POMASS =   58.690; ZVAL   =   10.000    mass and valenz
   ENMAX  =  269.532; ENMIN  =  202.149 eV

 POTCAR:    PAW_PBE H 15Jun2001
   VRHFIN =H: ultrasoft test

   TITEL  = PAW_PBE H 15Jun2001
   POMASS =    1.000; ZVAL   =    1.000    mass and valenz
   ENMAX  =  250.000; ENMIN  =  200.000 eV

 Optimization of the real space projectors (new method)

 maximal supplied QI-value         = 14.36
 optimisation between [QCUT,QGAM] = [ 11.92, 23.98] = [ 39.79,161.09] Ry
 Optimized for a Real-space Cutoff    1.49 Angstroem

   l    n(q)    QCUT    max X(q) W(low)/X(q) W(high)/X(q)  e(spline)
   2     10    11.920    66.195    0.79E-04    0.18E-03    0.24E-06
   2     10    11.920    64.643    0.81E-04    0.19E-03    0.24E-06
   0     11    11.920    95.520    0.28E-04    0.54E-04    0.18E-06
   0     11    11.920    63.403    0.27E-04    0.52E-04    0.17E-06
   1     10    11.920    19.961    0.18E-04    0.11E-03    0.23E-06
   1     10    11.920    13.289    0.25E-04    0.87E-04    0.19E-06
 Optimization of the real space projectors (new method)

[...]

   l    n(q)    QCUT    max X(q) W(low)/X(q) W(high)/X(q)  e(spline)
   2      9    11.864    60.317    0.21E-03    0.51E-03    0.25E-06
   2      9    11.864    55.921    0.21E-03    0.51E-03    0.26E-06
   0      9    11.864    51.690    0.22E-03    0.30E-04    0.17E-06
   0      9    11.864    30.015    0.20E-03    0.28E-04    0.15E-06
   1      9    11.864    18.849    0.76E-04    0.33E-03    0.17E-06
   1      9    11.864    14.624    0.60E-04    0.28E-03    0.15E-06
 Optimization of the real space projectors (new method)

 maximal supplied QI-value         = 34.20
 optimisation between [QCUT,QGAM] = [ 11.97, 23.94] = [ 40.13,160.53] Ry
 Optimized for a Real-space Cutoff    1.18 Angstroem

   l    n(q)    QCUT    max X(q) W(low)/X(q) W(high)/X(q)  e(spline)
   0      8    11.971    19.460    0.15E-03    0.31E-03    0.25E-06
   0      8    11.971    12.209    0.13E-03    0.29E-03    0.25E-06
   1      8    11.971     4.655    0.22E-03    0.24E-03    0.21E-06
  PAW_PBE Pt 04Feb2005                  :
  PAW_PBE Fe 06Sep2000                  :
  PAW_PBE Co 02Aug2007                  :
  PAW_PBE Cu 22Jun2005                  :
  PAW_PBE Ni 02Aug2007                  :
  PAW_PBE H 15Jun2001                   :

 POSCAR: 10.46-high
  positions in direct lattice
  velocities in cartesian coordinates
 exchange correlation table for  LEXCH =        8
   RHO(1)=    0.500       N(1)  =     2000
   RHO(2)=  100.500       N(2)  =     4000

 ion  position               nearest neighbor table
   1  0.777  0.868  0.322-  23 2.58  65 2.60  33 2.61   3 2.64  56 2.67  32 2.67  41 2.71   2 2.75
                            15 2.79   8 2.83  40 2.84  16 2.94
   2  0.040  0.868  0.326-  26 2.57  34 2.59  58 2.62   3 2.64  41 2.67  38 2.68   1 2.75  32 2.76
                             8 2.76  79 2.77  10 2.90  20 3.16
   3  0.033  0.620  0.328-   6 2.63   2 2.64   1 2.64   4 2.65  34 2.69  50 2.71  33 2.72  32 2.73
                            68 2.77   9 2.80  16 2.83  20 3.12
   4  0.030  0.368  0.325-  77 2.57  26 2.60   3 2.65  33 2.66  50 2.66   6 2.68   5 2.72  36 2.73
                            11 2.76  42 2.81   9 2.89  14 2.89
   5  0.289  0.109  0.323-  58 2.54  65 2.55  61 2.60  26 2.60  23 2.62   6 2.71   4 2.72  12 2.72
                            39 2.73  36 2.73  17 2.88  14 2.94
   6  0.286  0.369  0.323-  23 2.61   3 2.63  34 2.67  68 2.68  22 2.68   4 2.68  71 2.70  36 2.70
                             5 2.71  29 2.83  17 2.86   9 2.88
   7  0.865  0.705  0.122-  43 2.51  74 2.52  60 2.55  55 2.56  45 2.63  56 2.63  69 2.65  64 2.66
                            72 2.66  32 2.67  25 2.69  50 2.75
   8  0.868  0.951  0.429-  15 2.61  16 2.61  21 2.62  13 2.63  10 2.64  20 2.67   2 2.76   1 2.83
                            41 2.88
   9  0.119  0.454  0.435-  29 2.61  16 2.61  20 2.61  11 2.62  17 2.63  14 2.64   3 2.80   6 2.88
                             4 2.89
  10  0.119  0.954  0.439-  14 2.59  12 2.62  13 2.62  18 2.64   8 2.64  20 2.66   2 2.90  26 2.96
                            58 3.04
  11  0.870  0.451  0.432-  81 2.06  19 2.60  13 2.60  14 2.61  31 2.62   9 2.62  16 2.63   4 2.76
                            33 2.85  77 2.88
  12  0.370  0.950  0.428-  18 2.58  15 2.61  31 2.61  10 2.62  17 2.62  14 2.63   5 2.72  65 2.76
                            58 2.81
  13  0.868  0.203  0.428-  81 2.14  19 2.60  11 2.60  21 2.62  10 2.62  14 2.63   8 2.63  26 2.79
                            77 2.80  41 2.82
  14  0.120  0.201  0.437-  10 2.59  17 2.61  11 2.61  12 2.63  13 2.63   9 2.64   4 2.89   5 2.94
                            26 2.97
  15  0.619  0.950  0.431-  16 2.60  12 2.61   8 2.61  31 2.61  17 2.62  21 2.64   1 2.79  23 2.85
                            65 2.88
  16  0.868  0.702  0.437-  15 2.60  31 2.61   8 2.61   9 2.61  11 2.63  20 2.65   3 2.83   1 2.94
                            33 2.98
  17  0.370  0.201  0.434-  14 2.61  21 2.61  15 2.62  12 2.62   9 2.63  29 2.64   6 2.86  23 2.87
                             5 2.88
  18  0.371  0.704  0.428-  12 2.58  31 2.59  19 2.62  29 2.63  10 2.64  51 2.68  20 2.69  34 2.73
                            58 2.79
  19  0.621  0.453  0.429-  81 2.07  31 2.59  13 2.60  11 2.60  18 2.62  21 2.63  29 2.64  51 2.73
                            22 2.77  77 2.79
  20  0.120  0.701  0.452-   9 2.61  29 2.63  16 2.65  10 2.66   8 2.67  18 2.69   3 3.12   2 3.16
                            34 3.20
  21  0.618  0.203  0.434-  17 2.61  13 2.62  29 2.62   8 2.62  19 2.63  15 2.64  23 2.89  22 2.91
                            41 2.94
  22  0.539  0.374  0.322-  77 2.53  51 2.57  41 2.60  34 2.61  30 2.64  70 2.67   6 2.68  23 2.70
                            71 2.75  19 2.77  29 2.87  21 2.91
  23  0.534  0.119  0.322-   1 2.58   6 2.61   5 2.62  41 2.64  65 2.69  22 2.70  71 2.71  40 2.77
                            39 2.79  15 2.85  17 2.87  21 2.89
  24  0.539  0.118  0.032-  63 2.57  46 2.57  55 2.58  66 2.61  43 2.64  52 2.64  54 2.65  62 2.68
                            67 2.68
  25  0.123  0.448  0.123-  54 2.50  48 2.52  73 2.58  63 2.59  45 2.60  76 2.63  64 2.63  36 2.65
                            68 2.66  72 2.67   7 2.69  50 2.77
  26  0.037  0.116  0.322-   2 2.57  61 2.60  41 2.60   5 2.60   4 2.60  58 2.65  77 2.67  79 2.69
                            42 2.72  13 2.79  10 2.96  14 2.97
  27  0.033  0.126  0.027-  48 2.58  78 2.61  52 2.61  73 2.61  66 2.61  49 2.62  28 2.64  59 2.70
                            44 2.70
  28  0.114  0.959  0.126-  79 2.57  73 2.59  44 2.60  69 2.61  59 2.62  49 2.63  47 2.63  38 2.64
                            27 2.64  61 2.66  64 2.67  35 2.74
  29  0.368  0.453  0.432-   9 2.61  21 2.62  18 2.63  20 2.63  17 2.64  19 2.64   6 2.83  34 2.83
                            22 2.87
  30  0.454  0.529  0.220-  71 2.56  70 2.57  76 2.60  68 2.61  57 2.62  22 2.64  35 2.65  37 2.65
                            80 2.66  38 2.69  34 2.72  51 2.81
  31  0.619  0.701  0.436-  18 2.59  19 2.59  16 2.61  15 2.61  12 2.61  11 2.62  51 2.84  33 2.85
                            65 2.90
  32  0.949  0.783  0.224-  50 2.58  56 2.60  68 2.62  64 2.65  79 2.66   7 2.67   1 2.67  40 2.69
                            38 2.70   3 2.73  69 2.74   2 2.76
  33  0.773  0.620  0.323-  51 2.50  65 2.54  77 2.55   1 2.61  50 2.65   4 2.66  37 2.66  56 2.71
                             3 2.72  31 2.85  11 2.85  16 2.98
  34  0.289  0.622  0.324-  58 2.55  51 2.55   2 2.59  22 2.61   6 2.67  38 2.68   3 2.69  30 2.72
                            68 2.72  18 2.73  29 2.83  20 3.20
  35  0.378  0.700  0.123-  53 2.48  59 2.53  75 2.54  60 2.57  57 2.59  47 2.60  30 2.65  64 2.68
                            76 2.68  80 2.70  38 2.73  28 2.74
  36  0.199  0.285  0.223-  73 2.61  71 2.61  61 2.62  50 2.63  63 2.63  68 2.63  25 2.65  42 2.65
                            39 2.69   6 2.70   4 2.73   5 2.73
  37  0.699  0.545  0.219-  56 2.52  80 2.54  60 2.55  50 2.57  72 2.60  57 2.61  30 2.65  33 2.66
                            42 2.68  70 2.69  77 2.73  51 2.80
  38  0.202  0.792  0.224-  61 2.52  58 2.57  80 2.58  79 2.62  28 2.64  64 2.66   2 2.68  34 2.68
                            68 2.69  30 2.69  32 2.70  35 2.73
  39  0.451  0.023  0.219-  80 2.50  61 2.53  47 2.53  56 2.54  55 2.55  63 2.60  40 2.68  36 2.69
                            65 2.70   5 2.73  71 2.75  23 2.79
  40  0.696  0.043  0.215-  46 2.54  69 2.56  70 2.57  71 2.59  55 2.59  79 2.61  56 2.68  39 2.68
                            32 2.69  41 2.75  23 2.77   1 2.84
  41  0.785  0.123  0.319-  77 2.60  22 2.60  26 2.60  70 2.62  79 2.63  23 2.64   2 2.67   1 2.71
                            40 2.75  13 2.82   8 2.88  21 2.94
  42  0.947  0.281  0.218-  49 2.52  79 2.55  70 2.55  72 2.57  73 2.62  36 2.65  61 2.67  50 2.68
                            37 2.68  77 2.71  26 2.72   4 2.81
  43  0.789  0.864  0.029-   7 2.51  69 2.56  45 2.62  67 2.63  24 2.64  55 2.64  74 2.65  66 2.67
                            44 2.67
  44  0.045  0.863  0.030-  75 2.54  45 2.58  64 2.58  28 2.60  59 2.60  69 2.61  43 2.67  66 2.70
                            27 2.70
  45  0.042  0.618  0.028-  75 2.52  54 2.57  44 2.58  25 2.60  64 2.61  43 2.62  48 2.62   7 2.63
                            74 2.72
  46  0.618  0.214  0.124-  76 2.47  57 2.50  40 2.54  49 2.54  62 2.55  70 2.55  24 2.57  71 2.62
                            66 2.63  69 2.64  63 2.64  55 2.85
  47  0.369  0.952  0.123-  52 2.46  59 2.49  55 2.52  39 2.53  67 2.56  73 2.60  35 2.60  60 2.60
                            63 2.62  28 2.63  61 2.71  80 2.74
  48  0.025  0.377  0.032-  72 2.47  74 2.50  25 2.52  78 2.55  73 2.57  27 2.58  45 2.62  52 2.75
                            54 2.76
  49  0.863  0.211  0.123-  78 2.46  57 2.51  72 2.52  42 2.52  46 2.54  66 2.59  70 2.60  27 2.62
                            28 2.63  69 2.63  79 2.65  73 2.68
[...]

 FORCES acting on ions
    electron-ion (+dipol)            ewald-force                    non-local-force                 convergence-correction
   -.557E+02 0.105E+02 -.146E+04   0.547E+02 -.107E+02 0.146E+04   0.990E+00 0.149E+00 0.139E+01   -.416E-02 -.196E-02 -.422E-01
   0.366E+02 0.256E+02 -.152E+04   -.357E+02 -.256E+02 0.152E+04   -.865E+00 0.108E-01 0.144E+01   -.313E-01 0.161E-01 -.361E-01
   0.710E+01 -.109E+02 -.153E+04   -.719E+01 0.106E+02 0.153E+04   0.166E+00 0.290E+00 0.176E+01   -.140E-01 0.885E-02 -.210E-01
   -.245E+02 -.872E+01 -.150E+04   0.236E+02 0.917E+01 0.150E+04   0.877E+00 -.465E+00 0.143E+01   0.437E-02 0.440E-02 -.234E-01
   0.153E+02 -.788E+02 -.149E+04   -.159E+02 0.775E+02 0.149E+04   0.557E+00 0.124E+01 0.186E+01   0.109E-01 0.114E-01 -.288E-01
   0.350E+02 -.541E+01 -.151E+04   -.346E+02 0.536E+01 0.151E+04   -.338E+00 0.533E-01 0.157E+01   -.524E-02 -.365E-02 -.171E-01
   -.402E+02 0.238E+02 0.156E+04   0.392E+02 -.231E+02 -.156E+04   0.102E+01 -.745E+00 0.955E+00   -.423E-01 0.912E-02 0.327E-01
   0.252E+01 -.548E+01 -.284E+04   -.231E+01 0.521E+01 0.284E+04   -.213E+00 0.247E+00 0.828E-01   -.684E-02 -.473E-03 -.212E-01
   -.103E+02 0.813E+01 -.284E+04   0.101E+02 -.771E+01 0.284E+04   0.217E+00 -.441E+00 -.323E-01   -.652E-02 0.277E-02 -.172E-01
   0.190E+01 -.294E+01 -.284E+04   -.202E+01 0.278E+01 0.284E+04   0.199E+00 0.125E+00 0.488E+00   -.148E-01 0.812E-02 -.988E-02
   -.256E+02 -.645E+01 -.288E+04   0.260E+02 0.645E+01 0.288E+04   -.474E+00 -.304E-01 -.366E+00   0.110E-01 0.276E-02 -.779E-02
   0.118E+02 -.177E+02 -.287E+04   -.120E+02 0.176E+02 0.287E+04   0.198E+00 0.206E-02 0.888E+00   0.171E-01 0.121E-01 -.368E-02
   0.869E-01 0.274E+02 -.282E+04   -.179E+00 -.284E+02 0.282E+04   0.944E-01 0.993E+00 0.261E+00   -.917E-03 -.778E-02 -.146E-01
   -.347E+01 0.439E+01 -.291E+04   0.373E+01 -.446E+01 0.291E+04   -.267E+00 0.660E-01 0.397E+00   0.136E-02 0.739E-02 -.106E-01
   -.138E+02 -.166E+02 -.287E+04   0.141E+02 0.163E+02 0.287E+04   -.319E+00 0.292E+00 0.258E+00   0.623E-02 0.433E-02 -.224E-01
   -.108E+02 -.398E+01 -.286E+04   0.108E+02 0.399E+01 0.286E+04   0.339E-01 0.729E-02 -.120E+00   0.200E-02 0.571E-03 -.244E-01
   -.565E+00 -.102E+02 -.287E+04   0.661E+00 0.101E+02 0.287E+04   -.121E+00 0.213E+00 -.139E-01   0.445E-02 -.509E-02 -.184E-01
   0.185E+02 -.719E+00 -.285E+04   -.182E+02 0.777E+00 0.285E+04   -.370E+00 -.193E-01 0.741E+00   -.417E-02 -.817E-02 0.102E-01
   0.255E+02 -.242E+01 -.286E+04   -.259E+02 0.286E+01 0.286E+04   0.406E+00 -.437E+00 0.225E+00   -.133E-02 -.564E-02 0.429E-04
   -.216E+01 -.169E+01 -.297E+04   0.207E+01 0.169E+01 0.297E+04   0.115E+00 -.368E-02 0.695E+00   -.102E-01 -.541E-03 -.185E-01
   0.300E+01 0.764E+01 -.287E+04   -.325E+01 -.768E+01 0.287E+04   0.266E+00 0.399E-01 0.564E+00   -.405E-02 -.121E-01 -.138E-01
   0.278E+02 -.276E+01 -.152E+04   -.264E+02 0.382E+01 0.151E+04   -.139E+01 -.111E+01 0.145E+01   -.108E-01 -.187E-01 -.230E-01
   -.129E+02 -.511E+01 -.147E+04   0.128E+02 0.500E+01 0.146E+04   0.108E+00 0.129E+00 0.120E+01   0.323E-02 -.158E-01 -.215E-01
   0.402E+02 0.375E+02 0.301E+04   -.403E+02 -.377E+02 -.301E+04   0.960E-01 0.236E+00 -.199E+01   0.516E-02 -.370E-01 0.604E-02
   0.826E+02 -.359E+02 0.158E+04   -.827E+02 0.356E+02 -.158E+04   0.113E+00 0.275E+00 0.125E+01   -.252E-01 0.183E-01 0.398E-01
   -.179E+02 -.863E+01 -.146E+04   0.179E+02 0.854E+01 0.146E+04   0.701E-01 0.512E-01 0.182E+01   -.161E-01 0.277E-02 -.459E-01
   -.623E+02 0.450E+02 0.305E+04   0.630E+02 -.446E+02 -.305E+04   -.656E+00 -.427E+00 -.191E+01   0.719E-02 -.172E-01 0.102E-01
   -.374E+02 -.643E+01 0.156E+04   0.372E+02 0.678E+01 -.156E+04   0.172E+00 -.339E+00 -.138E+00   0.365E-02 -.105E-01 0.272E-01
   0.811E+01 0.746E+01 -.285E+04   -.832E+01 -.725E+01 0.285E+04   0.189E+00 -.218E+00 0.189E+00   -.455E-02 -.347E-02 -.101E-01
   -.264E+02 -.707E+02 0.624E+01   0.266E+02 0.698E+02 -.736E+01   -.175E+00 0.791E+00 0.120E+01   0.155E-01 0.820E-02 -.326E-01
   -.643E+01 0.420E+01 -.290E+04   0.622E+01 -.408E+01 0.290E+04   0.225E+00 -.922E-01 0.116E+01   0.151E-01 0.366E-02 -.529E-02
   0.309E+02 0.688E+01 -.265E+02   -.317E+02 -.798E+01 0.260E+02   0.896E+00 0.108E+01 0.392E+00   -.219E-01 0.209E-01 0.185E-03
   -.635E+02 0.281E+02 -.147E+04   0.622E+02 -.283E+02 0.147E+04   0.131E+01 0.242E+00 0.229E+01   0.246E-01 0.200E-01 -.429E-01
   0.409E+02 -.515E+01 -.152E+04   -.397E+02 0.583E+01 0.152E+04   -.125E+01 -.604E+00 0.153E+01   -.261E-01 -.139E-01 -.228E-01
   0.574E+01 -.782E+02 0.154E+04   -.442E+01 0.779E+02 -.154E+04   -.137E+01 0.282E+00 0.128E+01   0.446E-01 -.727E-02 -.684E-02
   0.751E+02 -.148E+02 -.292E+02   -.753E+02 0.152E+02 0.283E+02   0.228E+00 -.457E+00 0.935E+00   -.102E-01 -.983E-02 0.708E-02
   -.394E+02 0.281E+01 0.317E+02   0.401E+02 -.174E+01 -.326E+02   -.747E+00 -.118E+01 0.106E+01   0.104E-01 0.376E-01 -.457E-01
   0.172E+02 -.394E+01 0.152E+01   -.165E+02 0.515E+01 -.153E+01   -.709E+00 -.120E+01 0.435E-01   -.844E-02 0.206E-01 -.268E-01
   -.601E+01 -.154E+02 0.701E+02   0.518E+01 0.139E+02 -.721E+02   0.906E+00 0.161E+01 0.204E+01   0.938E-02 -.369E-01 0.356E-02
   0.157E+02 0.730E+02 0.920E+02   -.157E+02 -.722E+02 -.943E+02   0.614E-01 -.799E+00 0.230E+01   0.617E-02 -.373E-01 0.191E-01
   0.164E+02 0.527E+02 -.147E+04   -.159E+02 -.520E+02 0.147E+04   -.426E+00 -.626E+00 0.153E+01   0.260E-02 -.232E-01 -.363E-01
   -.737E+02 -.265E+02 0.554E+02   0.732E+02 0.262E+02 -.571E+02   0.545E+00 0.192E+00 0.186E+01   -.479E-02 -.148E-01 0.948E-03
   -.357E+02 0.208E+02 0.245E+04   0.361E+02 -.215E+02 -.244E+04   -.447E+00 0.710E+00 -.280E+01   -.955E-02 -.138E-01 0.160E-01
   0.916E+01 -.290E+01 0.244E+04   -.914E+01 0.194E+01 -.244E+04   -.168E-02 0.102E+01 -.191E+01   0.131E-01 -.272E-02 0.124E-01
   0.396E+02 -.105E+02 0.246E+04   -.392E+02 0.107E+02 -.246E+04   -.368E+00 -.175E+00 -.240E+01   -.151E-01 0.257E-01 0.115E-01
   -.361E+01 0.705E+02 0.125E+04   0.441E+01 -.700E+02 -.125E+04   -.827E+00 -.449E+00 -.397E+00   0.117E-01 0.571E-02 0.216E-01
   0.431E+02 -.736E+01 0.125E+04   -.428E+02 0.751E+01 -.125E+04   -.281E+00 -.172E+00 0.167E+00   0.215E-02 -.346E-01 0.119E-01
   -.819E+02 0.229E+02 0.244E+04   0.816E+02 -.226E+02 -.244E+04   0.255E+00 -.286E+00 -.229E+01   -.257E-01 0.827E-02 0.125E-01
   -.357E+02 0.529E+02 0.125E+04   0.354E+02 -.520E+02 -.125E+04   0.289E+00 -.983E+00 -.295E+00   0.737E-02 0.439E-02 0.257E-01
   -.401E+01 0.281E+01 -.285E+02   0.352E+01 -.273E+01 0.284E+02   0.446E+00 -.187E+00 -.360E-01   -.170E-01 0.228E-01 -.343E-02
   0.102E+02 0.302E+02 -.122E+04   -.101E+02 -.302E+02 0.122E+04   -.663E-01 -.389E-01 0.503E+00   0.130E-01 -.312E-02 -.280E-01
   0.183E+02 -.393E+02 0.243E+04   -.190E+02 0.386E+02 -.243E+04   0.759E+00 0.825E+00 -.268E+01   -.179E-01 -.336E-01 0.765E-02
   0.503E+02 -.598E+02 0.271E+04   -.499E+02 0.596E+02 -.271E+04   -.507E+00 0.200E+00 -.208E+01   0.994E-02 0.172E-01 0.377E-01
   0.117E+03 0.413E+02 0.277E+04   -.117E+03 -.404E+02 -.277E+04   0.335E+00 -.845E+00 -.191E+01   0.171E-02 0.107E-01 0.125E-01
   -.352E+02 -.139E+02 0.140E+04   0.350E+02 0.133E+02 -.140E+04   0.263E+00 0.710E+00 -.490E+00   -.113E-01 -.522E-01 0.354E-01
   -.608E+02 0.198E+02 0.357E+02   0.606E+02 -.200E+02 -.363E+02   0.237E+00 0.167E+00 0.527E+00   -.884E-02 -.329E-02 -.168E-01
   -.131E+02 -.186E+02 0.135E+04   0.133E+02 0.181E+02 -.135E+04   -.279E+00 0.460E+00 0.227E+00   0.166E-01 0.545E-01 0.101E-02
   0.537E+02 0.124E+01 -.132E+04   -.533E+02 -.150E+01 0.132E+04   -.482E+00 0.264E+00 0.106E+01   -.420E-02 0.193E-01 -.409E-01
   0.396E+02 -.315E+02 0.272E+04   -.394E+02 0.320E+02 -.272E+04   -.258E+00 -.392E+00 -.238E+01   0.140E-01 -.253E-01 0.128E-01
   0.215E+01 -.216E+02 0.134E+04   -.209E+01 0.216E+02 -.134E+04   -.344E-01 -.585E-01 -.185E+00   -.746E-02 -.123E-01 0.122E-01
[...]
   0.766E+02 -.451E+02 -.335E+02   -.767E+02 0.447E+02 0.330E+02   0.151E+00 0.394E+00 0.523E+00   -.379E-02 0.108E-01 0.863E-03
   0.812E+01 0.352E+02 0.177E+04   -.813E+01 -.344E+02 -.177E+04   -.501E-01 -.787E+00 -.148E+00   0.670E-02 -.219E-01 0.425E-01
   -.319E+02 -.188E+01 0.320E+02   0.323E+02 0.147E+01 -.330E+02   -.369E+00 0.516E+00 0.962E+00   0.165E-01 -.724E-02 -.895E-03
   0.158E+02 0.456E+02 -.141E+02   -.156E+02 -.451E+02 0.131E+02   -.185E+00 -.573E+00 0.101E+01   0.288E-03 -.514E-02 0.146E-01
   -.871E+02 -.112E+02 0.149E+04   0.866E+02 0.109E+02 -.149E+04   0.521E+00 0.291E+00 0.610E-01   -.299E-01 0.406E-01 0.171E-01
   0.114E+02 0.295E+02 0.157E+04   -.112E+02 -.297E+02 -.157E+04   -.275E+00 0.182E+00 -.588E-01   -.123E-01 -.116E-01 0.278E-01
   -.112E+03 -.218E+02 0.304E+04   0.112E+03 0.214E+02 -.304E+04   -.127E+00 0.404E+00 -.802E+00   -.441E-01 0.165E-01 0.371E-01
   0.162E+02 -.820E+02 0.305E+04   -.170E+02 0.823E+02 -.305E+04   0.789E+00 -.360E+00 -.269E+00   0.466E-01 0.424E-01 0.187E-01
   0.180E+02 -.353E+02 0.155E+04   -.178E+02 0.351E+02 -.155E+04   -.244E+00 0.213E+00 0.184E+00   0.365E-01 0.358E-01 0.367E-01
   -.355E+02 -.171E+02 -.148E+04   0.352E+02 0.174E+02 0.148E+04   0.341E+00 -.325E+00 0.670E+00   0.121E-01 -.121E-01 -.306E-01
   -.635E+02 0.376E+02 0.302E+04   0.640E+02 -.369E+02 -.302E+04   -.395E+00 -.684E+00 -.129E+01   -.147E-01 0.471E-01 0.234E-01
   -.182E+02 0.412E+02 0.391E+02   0.183E+02 -.408E+02 -.397E+02   -.653E-01 -.435E+00 0.620E+00   0.107E-02 -.907E-02 0.794E-02
   0.201E+02 0.210E+02 0.155E+02   -.198E+02 -.208E+02 -.152E+02   -.366E+00 -.285E+00 -.371E+00   0.391E-01 -.116E-02 -.522E-01
   0.367E+01 0.545E+01 -.346E+03   -.389E+01 -.583E+01 0.347E+03   0.227E+00 0.399E+00 -.173E+01   0.444E-03 -.332E-03 0.472E-03
   -.111E+01 -.913E+00 -.111E+02   0.356E-12 0.281E-12 0.148E-11   0.108E+01 0.863E+00 0.113E+02   0.292E-01 0.314E-01 -.179E+00

 POSITION                                       TOTAL-FORCE (eV/Angst)
     12.67055      7.86137      7.10755        -0.005657      0.002082     -0.005048
      4.94133      7.86426      7.15687         0.014485     -0.031730      0.006680
      3.58763      5.60168      7.18332         0.012705      0.016660      0.001329
      2.22706      3.33567      7.17984        -0.007032     -0.010160     -0.007535
      3.58319      0.98565      7.11480        -0.023425      0.007152     -0.003228
      4.92434      3.34525      7.10753        -0.009877     -0.001714      0.001262
     12.73151      6.38620      2.69060         0.023661     -0.015412      0.019282
     14.07051      8.60813      9.51782        -0.006680     -0.009143     -0.010208
      3.60931      4.10436      9.54674         0.015383     -0.011627      0.003472
      6.22556      8.61423      9.47074         0.037709     -0.015266      0.010246
     11.46655      4.09647      9.65074         0.011187     -0.019560      0.020633
      8.83462      8.60196      9.43123        -0.015998     -0.021333      0.009611
     10.14595      1.81600      9.46822        -0.009844     -0.012175     -0.020914
      2.31255      1.81041      9.65344        -0.006540     -0.002690     -0.010185
     11.45045      8.60896      9.48371         0.021546     -0.026683     -0.000263
     12.75790      6.36140      9.59250        -0.007506      0.031176     -0.016271
      4.91599      1.81423      9.51432        -0.011296      0.018800     -0.000790
      7.54215      6.36554      9.47858         0.004557      0.043832      0.001092
      8.83328      4.09784      9.54100        -0.010530     -0.014943      0.001129
      4.92526      6.36392      9.88852         0.006088      0.000593     -0.041558
      7.51879      1.82152      9.52751         0.035186     -0.000915      0.006085
      7.60970      3.39713      7.10396         0.013997     -0.021628      0.004091
      6.20801      1.07430      7.07378         0.011896      0.002894      0.001013
      6.25215      1.06912      0.71248        -0.003412      0.006097      0.005807
      3.62995      4.06053      2.70395        -0.010753      0.030183      0.012042
      0.97366      1.06727      7.04816         0.019999      0.009951     -0.006927
      1.00999      1.14415      0.59539        -0.002912      0.005505     -0.027156
      6.20949      8.68938      2.76365         0.006059     -0.022263      0.004435
      6.21677      4.10362      9.51729        -0.009070     -0.005196      0.006347
      7.51345      4.79616      4.84878         0.044602     -0.037250      0.017857
     10.13617      6.36547      9.55440        -0.001440      0.005418      0.001328
     14.02017      7.09055      4.91945         0.003479      0.002796     -0.051689
     11.33295      5.60776      7.11360        -0.006383      0.002404      0.000880
      6.28924      5.63873      7.14266        -0.017694      0.032138      0.002439
      7.60837      6.33811      2.70162        -0.013514      0.001874      0.021085
      3.57079      2.57920      4.90176        -0.017135     -0.029070     -0.063517
     10.15643      4.93617      4.82230         0.036539     -0.024898      0.068084
      6.25559      7.17282      4.92567         0.008055      0.030979     -0.023635
      4.83572      0.20639      4.81548         0.022104      0.020282      0.007439
      7.50713      0.38627      4.73942         0.013667      0.006765     -0.006715
      8.84115      1.10819      7.04431        -0.021936      0.019942     -0.004120
     11.38068      2.54817      4.80374        -0.001006     -0.009290      0.083826
     12.77049      7.83053      0.63332        -0.013287      0.004615     -0.007539
      4.98263      7.81422      0.65034        -0.014735      0.004286     -0.022451
      3.66965      5.59621      0.61225        -0.004452      0.005561     -0.003055
      7.57969      1.93887      2.73530        -0.000679      0.002139     -0.002986
      8.83875      8.62369      2.69559        -0.009026      0.009128     -0.010969
      2.23060      3.41188      0.70877        -0.002599      0.015902     -0.024493
     10.12389      1.90840      2.71235        -0.001199     -0.013109      0.021830
     12.71905      4.86079      4.97755        -0.019166     -0.038024      0.008246
      8.83451      5.63762      7.19879        -0.004984      0.004054     -0.013091
      3.61116      1.03011      0.71575         0.009749      0.013682     -0.010885
      8.96244      5.55017      0.78359         0.000863     -0.003033     -0.034506
      4.99011      3.39374      0.70946         0.006146      0.002142     -0.004961
     11.35685      8.54256      2.74103         0.005925     -0.023828      0.004710
     11.41974      7.11664      4.85312        -0.011854      0.008307     -0.048549
      8.87054      4.07764      2.72515        -0.015865      0.000588      0.027210
      7.56524      7.84157      7.05305        -0.009377     -0.007409     -0.005973
      7.58345      7.86427      0.68786         0.004550      0.007218     -0.003736
     10.17979      6.39732      2.73108         0.001415      0.006051      0.033797
[...]
     10.14167      7.81097      0.64587         0.002652     -0.007236      0.004537
      4.90924      4.84723      4.90184        -0.010432      0.001637     -0.027557
     14.05673      8.67588      2.68456         0.008561      0.001414      0.003485
      8.83290      2.58989      4.85900        -0.013928      0.003593      0.045016
      6.18453      2.60592      4.85170         0.029784      0.019219     -0.005681
     11.42400      4.06434      2.72845         0.000499      0.011094      0.009365
      2.34232      1.83008      2.72921         0.001882      0.006130      0.008410
     11.41431      5.56039      0.71047        -0.019747      0.006089      0.013580
      6.18959      5.58046      0.74095        -0.007276     -0.008660     -0.002271
      6.25827      4.02492      2.70387        -0.010554     -0.007602      0.005768
     10.12486      3.37188      7.09610        -0.006232      0.005371     -0.025041
     10.13694      3.37925      0.73892        -0.009237     -0.008716      0.000932
     10.11248      0.34012      4.85224         0.008051      0.028910      0.040895
      8.83182      7.10221      4.97875         0.009106      0.007752      0.003691
     10.15076      3.41437     10.64083         0.002503      0.017547      0.018824
    total drift:                               -0.002982     -0.018578      0.013352

  FREE ENERGIE OF THE ION-ELECTRON SYSTEM (eV)
  free  energy   TOTEN  =      -515.41881483 eV

  energy  without entropy=     -515.42066849  energy(sigma->0) =     -515.41943272

 d Force =-0.6857428E-05[-0.315E-04, 0.178E-04]  d Energy = 0.3950782E-05-0.108E-04
 d Force =-0.3519360E+01[-0.352E+01,-0.352E+01]  d Ewald  =-0.3519362E+01 0.231E-05

 reached required accuracy - stopping structural energy minimisation