 vasp.5.4.4.18Apr17-6-g9f103f2a35 (build Oct 25 2019 11:13:22) complex

 executed on             LinuxIFC date 2021.10.12  16:58:40

 INCAR:
 POTCAR:    PAW_PBE Pt 04Feb2005
 POTCAR:    PAW_PBE Fe 06Sep2000
 POTCAR:    PAW_PBE Co 02Aug2007
 POTCAR:    PAW_PBE Cu 22Jun2005
 POTCAR:    PAW_PBE Ni 02Aug2007
 POTCAR:    PAW_PBE H 15Jun2001
 POTCAR:    PAW_PBE Pt 04Feb2005
   VRHFIN =Pt: s1d9

   TITEL  = PAW_PBE Pt 04Feb2005
   POMASS =  195.080; ZVAL   =   10.000    mass and valenz
   ENMAX  =  230.283; ENMIN  =  172.712 eV

 POTCAR:    PAW_PBE Fe 06Sep2000
   VRHFIN =Fe:  d7 s1

   TITEL  = PAW_PBE Fe 06Sep2000
   POMASS =   55.847; ZVAL   =    8.000    mass and valenz
   ENMAX  =  267.882; ENMIN  =  200.911 eV

 POTCAR:    PAW_PBE Co 02Aug2007
   VRHFIN =Co: d8 s1

   TITEL  = PAW_PBE Co 02Aug2007
   POMASS =   58.933; ZVAL   =    9.000    mass and valenz
   ENMAX  =  267.968; ENMIN  =  200.976 eV

 POTCAR:    PAW_PBE Cu 22Jun2005
   VRHFIN =Cu: d10 p1

   TITEL  = PAW_PBE Cu 22Jun2005
   POMASS =   63.546; ZVAL   =   11.000    mass and valenz
   ENMAX  =  295.446; ENMIN  =  221.585 eV

 POTCAR:    PAW_PBE Ni 02Aug2007
   VRHFIN =Ni:

   TITEL  = PAW_PBE Ni 02Aug2007
   POMASS =   58.690; ZVAL   =   10.000    mass and valenz
   ENMAX  =  269.532; ENMIN  =  202.149 eV

 POTCAR:    PAW_PBE H 15Jun2001
   VRHFIN =H: ultrasoft test

   TITEL  = PAW_PBE H 15Jun2001
   POMASS =    1.000; ZVAL   =    1.000    mass and valenz
   ENMAX  =  250.000; ENMIN  =  200.000 eV

 Optimization of the real space projectors (new method)

 maximal supplied QI-value         = 14.36
 optimisation between [QCUT,QGAM] = [ 11.92, 23.98] = [ 39.79,161.09] Ry
 Optimized for a Real-space Cutoff    1.49 Angstroem

   l    n(q)    QCUT    max X(q) W(low)/X(q) W(high)/X(q)  e(spline)
   2     10    11.920    66.195    0.79E-04    0.18E-03    0.24E-06
   2     10    11.920    64.643    0.81E-04    0.19E-03    0.24E-06
   0     11    11.920    95.520    0.28E-04    0.54E-04    0.18E-06
   0     11    11.920    63.403    0.27E-04    0.52E-04    0.17E-06
   1     10    11.920    19.961    0.18E-04    0.11E-03    0.23E-06
   1     10    11.920    13.289    0.25E-04    0.87E-04    0.19E-06
 Optimization of the real space projectors (new method)

[...]

   l    n(q)    QCUT    max X(q) W(low)/X(q) W(high)/X(q)  e(spline)
   2      9    11.864    60.317    0.21E-03    0.51E-03    0.25E-06
   2      9    11.864    55.921    0.21E-03    0.51E-03    0.26E-06
   0      9    11.864    51.690    0.22E-03    0.30E-04    0.17E-06
   0      9    11.864    30.015    0.20E-03    0.28E-04    0.15E-06
   1      9    11.864    18.849    0.76E-04    0.33E-03    0.17E-06
   1      9    11.864    14.624    0.60E-04    0.28E-03    0.15E-06
 Optimization of the real space projectors (new method)

 maximal supplied QI-value         = 34.20
 optimisation between [QCUT,QGAM] = [ 11.97, 23.94] = [ 40.13,160.53] Ry
 Optimized for a Real-space Cutoff    1.18 Angstroem

   l    n(q)    QCUT    max X(q) W(low)/X(q) W(high)/X(q)  e(spline)
   0      8    11.971    19.460    0.15E-03    0.31E-03    0.25E-06
   0      8    11.971    12.209    0.13E-03    0.29E-03    0.25E-06
   1      8    11.971     4.655    0.22E-03    0.24E-03    0.21E-06
  PAW_PBE Pt 04Feb2005                  :
  PAW_PBE Fe 06Sep2000                  :
  PAW_PBE Co 02Aug2007                  :
  PAW_PBE Cu 22Jun2005                  :
  PAW_PBE Ni 02Aug2007                  :
  PAW_PBE H 15Jun2001                   :

 POSCAR: 10.36
  positions in direct lattice
  velocities in cartesian coordinates
 exchange correlation table for  LEXCH =        8
   RHO(1)=    0.500       N(1)  =     2000
   RHO(2)=  100.500       N(2)  =     4000

 ion  position               nearest neighbor table
   1  0.788  0.878  0.319-  19 2.59  33 2.60  61 2.61  29 2.62  28 2.63  60 2.64  49 2.65   2 2.66
                            59 2.66  11 2.80   4 2.85  12 2.86
   2  0.042  0.883  0.318-  79 2.55  60 2.57  30 2.60  77 2.61  52 2.63  33 2.64  22 2.64  28 2.65
                             1 2.66   6 2.78   4 2.86  16 2.95
   3  0.279  0.381  0.322-  39 2.51  33 2.53  64 2.59  31 2.63  43 2.65  19 2.66  30 2.66  68 2.75
                            13 2.78  18 2.79  25 2.86   5 2.86
   4  0.876  0.960  0.429-  17 2.58   9 2.58   6 2.59  16 2.59  12 2.60  11 2.60   1 2.85   2 2.86
                            60 2.89
   5  0.125  0.460  0.436-   7 2.58  12 2.58  16 2.59  25 2.59  10 2.59  13 2.62  33 2.81  39 2.81
                             3 2.86
   6  0.126  0.960  0.426-  14 2.58  10 2.59   9 2.59   4 2.59   8 2.59  16 2.60   2 2.78  52 2.84
                            22 2.92
   7  0.878  0.457  0.428-   5 2.58  10 2.58   9 2.59  12 2.60  15 2.60  27 2.63  39 2.64  75 2.78
                            29 2.79
   8  0.377  0.958  0.421-  14 2.57  13 2.58  11 2.59   6 2.59  10 2.59  27 2.60  43 2.60  52 2.70
                            61 2.71
   9  0.876  0.209  0.421-  17 2.58   4 2.58   7 2.59   6 2.59  15 2.60  10 2.61  75 2.68  60 2.70
                            22 2.78
  10  0.127  0.209  0.427-  13 2.58   7 2.58   6 2.59   8 2.59   5 2.59   9 2.61  39 2.70  43 2.75
                            22 2.84
  11  0.626  0.958  0.428-  27 2.58  12 2.59   8 2.59  13 2.59   4 2.60  17 2.60   1 2.80  61 2.88
                            19 2.89
  12  0.877  0.709  0.430-   5 2.58  11 2.59  16 2.59   4 2.60   7 2.60  27 2.61  33 2.67  29 2.85
                             1 2.86
  13  0.377  0.207  0.426-  10 2.58   8 2.58  11 2.59  17 2.60  25 2.60   5 2.62  43 2.76   3 2.78
                            19 2.83
  14  0.376  0.711  0.425-   8 2.57   6 2.58  16 2.60  27 2.60  25 2.61  15 2.62  44 2.66  30 2.74
                            52 2.79
  15  0.627  0.457  0.436-  81 1.73  17 2.59  25 2.60   9 2.60   7 2.60  27 2.62  14 2.62  44 2.89
                            18 2.90  75 2.95
  16  0.126  0.709  0.432-  25 2.58  12 2.59   5 2.59   4 2.59   6 2.60  14 2.60  33 2.71  30 2.89
                             2 2.95
  17  0.627  0.209  0.425-   4 2.58   9 2.58  15 2.59  13 2.60  11 2.60  25 2.61  18 2.75  60 2.79
                            19 2.86
  18  0.550  0.378  0.320-  75 2.52  60 2.54  44 2.57  67 2.60  30 2.64  26 2.70  19 2.70  68 2.73
                            17 2.75   3 2.79  25 2.89  15 2.90
  19  0.536  0.125  0.316-  43 2.54  80 2.56  68 2.57   1 2.59  59 2.59  61 2.60   3 2.66  60 2.68
                            18 2.70  13 2.83  17 2.86  11 2.89
  20  0.546  0.123  0.036-  37 2.55  57 2.56  48 2.59  62 2.59  45 2.61  63 2.63  47 2.64  56 2.65
                            34 2.66
  21  0.122  0.461  0.126-  40 2.52  47 2.53  36 2.54  69 2.58  70 2.59  50 2.60  58 2.60  42 2.61
                            64 2.63  57 2.66  74 2.66  31 2.71
  22  0.043  0.137  0.314-  65 2.51  55 2.52  43 2.53  39 2.53  75 2.55  77 2.57  60 2.63   2 2.64
                            52 2.68   9 2.78  10 2.84   6 2.92  31 3.37
  23  0.043  0.130  0.030-  45 2.57  40 2.58  62 2.59  70 2.59  76 2.59  41 2.62  35 2.66  24 2.68
                            53 2.72
  24  0.130  0.959  0.131-  79 2.52  77 2.53  53 2.57  70 2.58  55 2.58  35 2.59  58 2.60  38 2.60
                            73 2.61  66 2.65  41 2.68  23 2.68
  25  0.375  0.459  0.431-  16 2.58   5 2.59  15 2.60  13 2.60  17 2.61  14 2.61   3 2.86  30 2.89
                            18 2.89
  26  0.454  0.545  0.219-  73 2.49  74 2.54  51 2.56  79 2.57  64 2.57  68 2.62  78 2.63  32 2.65
                            30 2.65  67 2.67  18 2.70  44 2.81
  27  0.625  0.711  0.440-  81 1.78  11 2.58  14 2.60   8 2.60  12 2.61  15 2.62   7 2.63  44 2.93
                            29 3.02  61 3.06
  28  0.957  0.791  0.222-  42 2.56  58 2.57  49 2.57  66 2.58  64 2.59  50 2.59   1 2.63  59 2.64
                             2 2.65  79 2.68  77 2.69  33 2.76
  29  0.791  0.623  0.321-  39 2.52  75 2.52  44 2.54  42 2.60  61 2.60   1 2.62  32 2.63  33 2.63
                            49 2.71   7 2.79  12 2.85  27 3.02
  30  0.293  0.631  0.319-  52 2.57  79 2.57  44 2.58   2 2.60  64 2.61  33 2.62  18 2.64  26 2.65
                             3 2.66  14 2.74  16 2.89  25 2.89
  31  0.203  0.283  0.225-  55 2.53  65 2.54  70 2.54  43 2.60  57 2.62   3 2.63  42 2.64  80 2.64
                            68 2.67  39 2.69  64 2.70  21 2.71  22 3.37
  32  0.708  0.548  0.220-  54 2.53  42 2.55  49 2.56  69 2.56  51 2.58  65 2.58  78 2.59  29 2.63
                            26 2.65  67 2.66  75 2.67  44 2.74
  33  0.041  0.630  0.328-   3 2.53  39 2.58   1 2.60  30 2.62  29 2.63   2 2.64  12 2.67  16 2.71
                            64 2.73  28 2.76  42 2.77   5 2.81
  34  0.798  0.862  0.039-  50 2.40  66 2.50  71 2.50  36 2.52  48 2.55  63 2.58  20 2.66  35 2.69
                            62 2.69
  35  0.055  0.867  0.034-  72 2.51  36 2.54  58 2.55  53 2.58  24 2.59  66 2.63  23 2.66  62 2.67
                            34 2.69
  36  0.047  0.626  0.033-  34 2.52  21 2.54  35 2.54  47 2.55  72 2.59  40 2.60  58 2.60  50 2.63
                            71 2.66
  37  0.626  0.219  0.127-  74 2.47  51 2.51  41 2.52  67 2.53  20 2.55  56 2.55  68 2.56  59 2.56
                            66 2.60  62 2.60  57 2.64  48 2.76
  38  0.383  0.955  0.129-  80 2.48  53 2.49  48 2.50  54 2.52  78 2.53  73 2.53  45 2.53  63 2.55
                            57 2.57  55 2.60  24 2.60  70 2.63
  39  0.036  0.383  0.327-   3 2.51  29 2.52  22 2.53  75 2.54  33 2.58   7 2.64  31 2.69  10 2.70
                            42 2.70  43 2.73  65 2.81   5 2.81
  40  0.033  0.383  0.034-  69 2.47  71 2.49  21 2.52  76 2.54  23 2.58  70 2.59  36 2.60  47 2.68
                            45 2.71
  41  0.871  0.216  0.127-  76 2.46  37 2.52  65 2.52  69 2.52  51 2.54  67 2.54  77 2.55  62 2.58
                            23 2.62  66 2.62  70 2.63  24 2.68
  42  0.955  0.545  0.223-  32 2.55  28 2.56  50 2.57  49 2.59  64 2.59  29 2.60  65 2.61  21 2.61
                            69 2.63  31 2.64  39 2.70  33 2.77
  43  0.296  0.117  0.322-  52 2.48  61 2.52  22 2.53  19 2.54  55 2.55  31 2.60   8 2.60   3 2.65
                            80 2.67  39 2.73  10 2.75  13 2.76
  44  0.542  0.630  0.325-  61 2.51  52 2.54  29 2.54  18 2.57  30 2.58  75 2.60  14 2.66  78 2.68
                            32 2.74  26 2.81  15 2.89  27 2.93
  45  0.295  0.121  0.035-  70 2.52  38 2.53  23 2.57  57 2.58  53 2.58  63 2.60  20 2.61  47 2.69
                            40 2.71
  46  0.547  0.626  0.041-  51 2.38  73 2.40  54 2.43  53 2.51  63 2.53  71 2.54  76 2.55  56 2.57
                            72 2.59
  47  0.294  0.381  0.035-  74 2.44  21 2.53  36 2.55  72 2.55  56 2.59  57 2.63  20 2.64  40 2.68
                            45 2.69
  48  0.626  0.953  0.131-  49 2.40  54 2.47  80 2.48  38 2.50  50 2.52  59 2.53  34 2.55  63 2.59
                            57 2.59  20 2.59  66 2.60  37 2.76
  49  0.706  0.796  0.219-  48 2.40  80 2.49  50 2.49  54 2.49  32 2.56  78 2.57  28 2.57  42 2.59
                            59 2.63  61 2.64   1 2.65  29 2.71
  50  0.867  0.708  0.127-  34 2.40  71 2.43  54 2.46  49 2.49  48 2.52  69 2.56  42 2.57  28 2.59
[...]
   0.342E+02 -.176E+02 -.160E+04   -.360E+02 0.179E+02 0.159E+04   0.181E+01 -.292E+00 0.217E+01   0.205E-01 -.103E-01 0.280E-01
   -.580E+01 0.156E+02 -.300E+04   0.585E+01 -.155E+02 0.300E+04   -.564E-01 -.237E-02 0.313E+00   0.158E-01 0.162E-01 0.154E-01
   -.658E+01 0.925E+01 -.301E+04   0.631E+01 -.892E+01 0.301E+04   0.241E+00 -.327E+00 0.119E+01   0.828E-02 0.568E-02 0.201E-01
   -.380E+01 -.536E+00 -.297E+04   0.361E+01 0.255E+00 0.297E+04   0.208E+00 0.242E+00 0.536E+00   0.502E-03 -.263E-02 -.150E-02
   -.185E+02 -.151E+01 -.296E+04   0.194E+02 0.776E+00 0.296E+04   -.918E+00 0.730E+00 0.137E+01   -.972E-02 0.232E-02 0.266E-01
   0.144E+02 -.166E+02 -.295E+04   -.146E+02 0.169E+02 0.294E+04   0.225E+00 -.301E+00 0.149E+01   -.112E-01 -.140E-01 0.482E-02
   -.240E+02 0.139E+02 -.295E+04   0.239E+02 -.138E+02 0.295E+04   0.829E-01 -.642E-01 0.498E+00   -.447E-02 -.190E-01 0.132E-01
   -.838E+01 0.511E+01 -.297E+04   0.869E+01 -.477E+01 0.297E+04   -.285E+00 -.277E+00 0.122E+01   0.561E-02 -.196E-01 0.359E-01
   -.587E+01 -.126E+02 -.299E+04   0.598E+01 0.122E+02 0.299E+04   -.131E+00 0.440E+00 0.261E+00   -.103E-01 0.743E-03 0.225E-01
   -.923E+01 0.211E+01 -.295E+04   0.964E+01 -.230E+01 0.295E+04   -.386E+00 0.181E+00 0.570E+00   -.441E-02 -.142E-02 0.352E-01
   0.384E+01 -.125E+02 -.296E+04   -.404E+01 0.123E+02 0.296E+04   0.180E+00 0.234E+00 0.415E+00   0.605E-02 -.928E-02 0.134E-01
   0.212E+02 0.403E+00 -.293E+04   -.213E+02 0.196E-02 0.293E+04   0.167E+00 -.460E+00 0.126E+01   0.522E-03 0.101E-01 0.130E-01
   0.218E+02 0.151E+02 -.300E+04   -.216E+02 -.148E+02 0.301E+04   -.148E+00 -.287E+00 -.810E+00   -.141E-01 0.965E-02 0.165E-01
   -.467E+01 -.412E+01 -.299E+04   0.425E+01 0.382E+01 0.299E+04   0.402E+00 0.279E+00 0.715E+00   0.148E-01 0.424E-02 0.773E-02
   0.290E+02 0.197E+01 -.297E+04   -.287E+02 -.168E+01 0.297E+04   -.259E+00 -.328E+00 0.669E+00   0.594E-02 0.297E-02 0.208E-01
   0.677E+02 -.832E+02 -.160E+04   -.661E+02 0.837E+02 0.159E+04   -.158E+01 -.526E+00 0.151E+01   0.544E-02 0.712E-02 0.269E-01
   0.358E+02 -.433E+02 -.156E+04   -.368E+02 0.429E+02 0.156E+04   0.969E+00 0.388E+00 0.245E+01   -.399E-02 0.918E-02 0.361E-01
   0.374E+02 0.344E+02 0.312E+04   -.376E+02 -.346E+02 -.312E+04   0.151E+00 0.214E+00 -.221E+01   0.111E-01 -.183E-02 -.476E-01
   0.436E+02 -.761E+01 0.163E+04   -.445E+02 0.828E+01 -.163E+04   0.807E+00 -.625E+00 0.989E+00   0.495E-02 -.110E-02 -.518E-01
   -.765E+02 0.820E+01 -.152E+04   0.774E+02 -.747E+01 0.151E+04   -.865E+00 -.658E+00 0.267E+01   -.122E-01 -.502E-01 0.630E-02
   -.605E+02 0.456E+02 0.315E+04   0.611E+02 -.449E+02 -.315E+04   -.634E+00 -.690E+00 -.170E+01   -.117E-01 -.564E-03 -.251E-01
   -.954E+01 -.534E+02 0.162E+04   0.981E+01 0.530E+02 -.162E+04   -.329E+00 0.371E+00 -.729E+00   0.214E-02 -.105E-01 -.266E-01
   0.106E+02 0.225E+01 -.297E+04   -.110E+02 -.231E+01 0.297E+04   0.325E+00 0.392E-01 0.228E+00   0.234E-01 0.791E-02 0.441E-01
   -.314E+02 -.110E+02 -.402E+01   0.312E+02 0.111E+02 0.263E+01   0.193E+00 -.310E+00 0.150E+01   0.182E-01 0.201E-01 -.302E-01
   -.145E+02 -.208E+02 -.303E+04   0.145E+02 0.209E+02 0.303E+04   0.963E-01 -.453E-01 -.210E+00   -.225E-01 0.131E-02 0.347E-01
   0.259E+02 0.785E+02 -.224E+02   -.269E+02 -.797E+02 0.218E+02   0.988E+00 0.107E+01 0.520E+00   0.609E-01 0.380E-01 0.522E-02
   -.573E+02 0.449E+01 -.154E+04   0.571E+02 -.560E+01 0.154E+04   0.201E+00 0.120E+01 0.268E+01   -.233E-01 0.109E-01 0.647E-01
   0.255E+02 0.301E+02 -.158E+04   -.252E+02 -.294E+02 0.158E+04   -.361E+00 -.662E+00 0.222E+01   0.352E-01 0.287E-01 0.265E-01
   0.303E+02 -.645E+02 -.907E+02   -.311E+02 0.641E+02 0.910E+02   0.936E+00 0.424E+00 -.254E+00   0.103E-02 -.299E-01 -.406E-02
   -.226E+02 -.304E+02 -.520E+01   0.235E+02 0.310E+02 0.447E+01   -.938E+00 -.620E+00 0.824E+00   -.649E-01 -.175E-01 -.348E-01
   0.205E+02 0.182E+02 -.130E+04   -.207E+02 -.186E+02 0.130E+04   0.166E+00 0.470E+00 0.688E+00   0.202E-01 0.199E-01 0.398E-01
   -.540E+02 0.131E+00 0.250E+04   0.544E+02 -.134E+01 -.250E+04   -.443E+00 0.126E+01 -.243E+01   0.128E-01 -.156E-01 -.531E-01
   0.275E+02 -.116E+02 0.253E+04   -.274E+02 0.102E+02 -.253E+04   -.895E-01 0.135E+01 -.193E+01   0.115E-01 -.193E-02 -.210E-01
   0.246E+02 -.110E+02 0.254E+04   -.248E+02 0.114E+02 -.254E+04   0.188E+00 -.459E+00 -.261E+01   -.519E-02 0.165E-01 -.355E-01
   -.267E+01 0.409E+02 0.132E+04   0.341E+01 -.404E+02 -.132E+04   -.820E+00 -.542E+00 -.151E+00   0.333E-01 0.292E-01 -.246E-01
   0.372E+02 -.488E+02 0.130E+04   -.371E+02 0.486E+02 -.130E+04   -.139E+00 0.220E+00 -.403E+00   -.422E-01 -.283E-01 -.286E-01
   -.551E+02 -.299E+02 -.128E+04   0.552E+02 0.302E+02 0.128E+04   -.886E-01 -.283E+00 0.975E+00   -.434E-02 -.230E-01 0.357E-01
   -.778E+02 0.263E+02 0.254E+04   0.778E+02 -.260E+02 -.254E+04   -.150E-01 -.324E+00 -.238E+01   -.345E-01 0.109E-01 -.314E-01
   -.336E+02 0.426E+02 0.133E+04   0.329E+02 -.421E+02 -.133E+04   0.789E+00 -.531E+00 -.369E+00   -.687E-02 0.861E-02 -.273E-01
   -.336E+02 -.783E+00 -.542E+02   0.335E+02 0.113E+01 0.541E+02   0.929E-01 -.331E+00 0.111E+00   0.341E-02 -.178E-01 -.917E-02
   0.139E+02 -.822E+02 -.128E+04   -.141E+02 0.821E+02 0.128E+04   0.210E+00 0.223E+00 0.131E+01   -.159E-01 -.350E-01 0.230E-01
   0.961E+00 0.329E+02 -.130E+04   -.102E+01 -.330E+02 0.130E+04   0.747E-01 0.350E-01 0.104E+01   -.243E-01 0.219E-01 0.190E-01
   0.221E+02 -.390E+02 0.251E+04   -.227E+02 0.385E+02 -.251E+04   0.600E+00 0.562E+00 -.250E+01   -.200E-01 -.193E-01 -.282E-01
   -.657E+00 -.225E+02 0.282E+04   0.524E+00 0.227E+02 -.282E+04   0.139E+00 -.209E+00 -.202E+01   0.549E-02 -.138E-01 -.203E-01
   0.113E+03 0.335E+02 0.286E+04   -.113E+03 -.328E+02 -.286E+04   0.545E+00 -.708E+00 -.201E+01   0.399E-03 0.138E-01 -.286E-01
   -.241E+02 -.139E+02 0.146E+04   0.238E+02 0.130E+02 -.146E+04   0.351E+00 0.959E+00 -.489E+00   -.991E-02 0.104E-01 -.543E-01
   -.544E+02 0.823E+02 0.209E+02   0.544E+02 -.821E+02 -.219E+02   0.301E-01 -.266E+00 0.100E+01   -.363E-01 0.264E-02 0.144E-01
   -.728E+02 0.274E+02 0.144E+04   0.723E+02 -.269E+02 -.144E+04   0.504E+00 -.494E+00 -.121E-01   0.903E-02 -.174E-01 -.847E-01
   -.211E+02 0.159E+02 0.142E+04   0.212E+02 -.161E+02 -.142E+04   -.148E+00 0.228E+00 0.737E-01   0.397E-02 0.242E-01 -.652E-01
   0.453E+02 0.137E+02 -.142E+04   -.450E+02 -.139E+02 0.141E+04   -.401E+00 0.225E+00 0.166E+01   -.186E-02 0.447E-02 0.976E-02
   0.464E+02 -.861E+02 0.282E+04   -.462E+02 0.860E+02 -.282E+04   -.259E+00 0.226E+00 -.203E+01   0.634E-02 -.344E-01 -.168E-01
   -.144E+02 -.263E+01 0.140E+04   0.146E+02 0.286E+01 -.140E+04   -.104E+00 -.194E+00 -.326E+00   -.769E-01 -.466E-01 -.797E-01
   0.995E+01 -.632E+02 -.160E+02   -.917E+01 0.626E+02 0.162E+02   -.739E+00 0.587E+00 -.296E+00   -.203E-01 -.385E-01 0.172E-01
   0.292E+02 0.309E+02 0.352E+04   -.294E+02 -.301E+02 -.352E+04   0.880E-01 -.807E+00 -.306E+01   0.688E-01 0.496E-01 -.173E-01
   0.687E+02 0.793E+01 0.179E+04   -.688E+02 -.865E+01 -.179E+04   0.121E+00 0.752E+00 -.165E+00   -.115E-01 0.944E-02 -.330E-01
   0.901E+02 -.249E+02 0.176E+04   -.900E+02 0.249E+02 -.176E+04   -.131E+00 0.356E-01 0.259E+00   0.437E-01 0.196E-01 -.547E-01
   0.141E+02 0.773E+02 0.680E+02   -.148E+02 -.771E+02 -.690E+02   0.599E+00 -.361E+00 0.862E+00   0.586E-01 0.408E-01 0.118E-01
   0.148E+02 0.514E+02 -.174E+04   -.144E+02 -.509E+02 0.174E+04   -.471E+00 -.563E+00 0.172E+01   0.281E-01 -.348E-02 0.170E-01
[...]
   0.523E+02 -.536E+02 -.505E+01   -.518E+02 0.531E+02 0.422E+01   -.421E+00 0.546E+00 0.907E+00   0.224E-01 0.199E-01 -.563E-02
   -.755E+02 0.302E+01 0.159E+04   0.752E+02 -.286E+01 -.159E+04   0.382E+00 -.757E-01 0.747E-01   -.566E-01 -.165E-01 -.863E-01
   -.870E+01 0.211E+02 0.165E+04   0.907E+01 -.212E+02 -.165E+04   -.347E+00 0.164E+00 -.365E+00   -.238E-01 -.203E-01 -.391E-01
   -.958E+02 -.969E+00 0.315E+04   0.964E+02 0.104E+01 -.315E+04   -.551E+00 -.571E-01 -.937E+00   -.519E-01 -.259E-01 -.572E-01
   0.685E+02 -.574E+02 0.316E+04   -.687E+02 0.579E+02 -.316E+04   0.259E+00 -.551E+00 -.510E+00   0.490E-01 0.314E-01 -.205E-01
   0.953E+01 -.474E+02 0.158E+04   -.921E+01 0.472E+02 -.158E+04   -.359E+00 0.234E+00 0.107E+00   0.265E-01 -.111E-01 -.546E-01
   0.482E+02 0.264E+01 0.163E+04   -.478E+02 -.256E+01 -.163E+04   -.479E+00 -.702E-01 0.266E-01   0.472E-01 0.295E-01 -.259E-01
   -.330E+02 -.924E+02 -.158E+04   0.328E+02 0.927E+02 0.158E+04   0.287E+00 -.252E+00 0.865E+00   -.235E-01 -.246E-01 0.273E-01
   -.630E+02 0.273E+02 0.314E+04   0.634E+02 -.268E+02 -.314E+04   -.347E+00 -.511E+00 -.167E+01   -.180E-01 0.438E-01 -.215E-01
   -.495E+02 0.699E+02 0.729E+02   0.498E+02 -.697E+02 -.733E+02   -.298E+00 -.324E+00 0.300E+00   0.164E-01 0.477E-02 0.568E-03
   -.352E+01 0.706E+02 -.469E+01   0.356E+01 -.698E+02 0.458E+01   0.845E-01 -.862E+00 0.130E-01   -.604E-01 0.515E-03 0.618E-03
   0.382E+02 0.159E+02 -.384E+02   -.379E+02 -.153E+02 0.381E+02   -.374E+00 -.613E+00 0.184E+00   0.393E-01 0.258E-01 0.276E-02
   0.355E+02 -.388E+02 0.270E+02   -.358E+02 0.383E+02 -.274E+02   0.316E+00 0.477E+00 0.361E+00   -.530E-01 -.161E-02 0.194E-01
   0.932E+00 0.450E-01 -.356E+03   -.886E+00 0.724E-01 0.358E+03   -.529E-01 -.129E+00 -.203E+01   -.119E-02 0.103E-02 -.674E-03
   -.214E+01 -.632E+00 -.915E+01   -.197E-12 -.104E-12 0.404E-11   0.212E+01 0.636E+00 0.973E+01   0.957E-03 0.112E-01 -.552E+00

 POSITION                                       TOTAL-FORCE (eV/Angst)
     12.71099      7.87738      7.02205         0.011908     -0.004704     -0.006493
      5.01462      7.92146      6.99166         0.001861      0.005625      0.006048
      4.86772      3.41976      7.08101        -0.001990     -0.013759      0.008427
     14.04960      8.61193      9.42827         0.012855      0.010036      0.003303
      3.67583      4.12355      9.58513        -0.021444     -0.006975      0.030247
      6.28003      8.61052      9.36364        -0.009651     -0.005664      0.012744
     11.45937      4.10373      9.41796         0.005267      0.015490      0.016535
      8.86714      8.59875      9.27279         0.010143      0.001405      0.000354
     10.15620      1.87575      9.25479        -0.010932     -0.010394      0.010890
      2.39854      1.87301      9.38432        -0.011495      0.009007     -0.023057
     11.45173      8.59326      9.41627        -0.001955      0.020482      0.011176
     12.75472      6.36183      9.44922         0.009139     -0.008372     -0.013205
      4.97636      1.86135      9.38366        -0.018627     -0.001921      0.020501
      7.57744      6.37852      9.34656         0.014363     -0.017506      0.007402
      8.86148      4.10427      9.58577        -0.002667      0.017023      0.034120
      4.97971      6.36261      9.49860         0.003417     -0.001173      0.034479
      7.57671      1.87280      9.33992        -0.005111     -0.002794      0.017396
      7.65827      3.39286      7.04556         0.000326      0.000481     -0.001948
      6.20287      1.12260      6.94560        -0.002944      0.004917      0.014319
      6.29400      1.10764      0.79068        -0.001908      0.003922     -0.020848
      3.65004      4.13398      2.77525        -0.026914     -0.021236      0.013490
      1.15875      1.23261      6.91521        -0.000628      0.001353      0.002556
      1.11378      1.16439      0.67080         0.007406      0.004889     -0.010967
      6.31034      8.59992      2.87196        -0.011287      0.013333      0.009493
      6.26582      4.12252      9.46943        -0.006316     -0.000922     -0.035134
      7.52296      4.89048      4.80818         0.097805     -0.117249      0.074396
     10.15967      6.37580      9.67934         0.001553     -0.003738     -0.019853
     14.00841      7.09500      4.87387        -0.002465     -0.016728     -0.001473
     11.42444      5.59327      7.05193         0.000388     -0.001378     -0.008307
      6.29826      5.66402      7.02849        -0.003591     -0.010608     -0.000878
      3.57395      2.54049      4.96059         0.005240      0.029871     -0.052208
     10.17167      4.91356      4.84694        -0.004074      0.036692      0.048749
      3.68825      5.65376      7.22627        -0.006675     -0.003844      0.000680
     12.73525      7.73778      0.84735        -0.003253      0.007576      0.004349
      5.06566      7.78194      0.75573        -0.006597      0.005520     -0.000038
      3.73576      5.61982      0.72142        -0.001317      0.013385     -0.009755
      7.62197      1.96046      2.79100        -0.019238     -0.015550     -0.001056
      8.91338      8.56683      2.82917        -0.011966      0.000962     -0.013350
      2.36142      3.44172      7.19156         0.001785      0.013700     -0.001504
      2.32948      3.43705      0.74571        -0.003483     -0.005420     -0.004484
     10.13761      1.93438      2.78336         0.011714     -0.001514      0.005713
     12.72077      4.88799      4.91496        -0.018867      0.014905      0.068376
      3.67083      1.04856      7.09084         0.002792     -0.009483     -0.004376
      8.88137      5.65522      7.14742        -0.012821      0.010485     -0.006973
      3.68125      1.08298      0.78051        -0.018077      0.007422      0.030141
      8.90555      5.61235      0.89674        -0.004860     -0.014416      0.001898
      5.01391      3.41391      0.76793         0.008431     -0.007713     -0.019002
     11.41625      8.54700      2.87597         0.003822     -0.014681     -0.025572
     11.43467      7.13824      4.82312        -0.026290     -0.011869     -0.001437
     12.65127      6.34989      2.79984        -0.004957      0.010234     -0.003371
      8.87160      4.13770      2.76040        -0.013709      0.020736      0.023948
      7.63871      7.86165      6.98464        -0.001185      0.008164      0.004284
      7.64756      7.78286      0.83193         0.001265      0.009016     -0.021475
     10.19596      6.39733      2.79401         0.006108      0.009446     -0.009714
      2.46132      0.27079      4.99030         0.022007     -0.021221     -0.080001
      7.59979      3.40826      0.69254        -0.001025      0.002986      0.004878
      4.98399      1.84013      2.86898        -0.015076      0.010948     -0.008573
      5.04005      6.33256      2.85174         0.011372      0.015435      0.005835
      7.56278      0.44456      4.84968         0.011680     -0.009655     -0.072913
      8.88534      1.16676      6.97743         0.009781     -0.010762      0.007404
[...]
      8.88211      2.58954      4.89496        -0.055898      0.054508      0.034046
      6.24489      2.60662      4.84516         0.031597      0.021507      0.000565
     11.43072      4.10037      2.76797         0.013594      0.003926      0.007297
      2.40166      1.86689      2.80451         0.008491      0.001996      0.001630
     11.43984      5.59403      0.82836         0.006253     -0.011708     -0.001520
      6.31908      5.60619      0.85172         0.011394      0.000243     -0.000472
      7.66345      6.36823      2.80344         0.009695     -0.012616      0.012948
      6.30411      4.05442      2.73718        -0.003436      0.000761      0.000502
     10.18214      3.39948      7.04479         0.003045     -0.011973     -0.026141
     10.14679      3.38743      0.79938        -0.010033      0.018674      0.003561
     10.16785      0.45876      4.86421         0.009401     -0.004323     -0.021197
      8.87048      7.15023      4.92249         0.036839     -0.001774      0.005442
      6.32776      7.16359      4.93700        -0.014500      0.010178     -0.044469
      4.95506      0.28698      4.87252         0.014995      0.003857      0.049270
      9.46798      5.17082     10.80086        -0.008802     -0.012900      0.013966
    total drift:                               -0.017036      0.015307      0.019996

  FREE ENERGIE OF THE ION-ELECTRON SYSTEM (eV)
  free  energy   TOTEN  =      -511.33044869 eV

  energy  without entropy=     -511.34056459  energy(sigma->0) =     -511.33382065

 d Force = 0.9667611E-03[ 0.554E-03, 0.138E-02]  d Energy = 0.1345974E-02-0.379E-03
 d Force = 0.1483575E+02[ 0.148E+02, 0.148E+02]  d Ewald  = 0.1483574E+02 0.349E-05

 Steepest descent step on ions:
 trial-energy change:   -0.001346  1 .order   -0.000967   -0.001379   -0.000554
  (g-gl).g = 0.138E-02      g.g   = 0.138E-02  gl.gl    = 0.000E+00
 g(Force)  = 0.138E-02   g(Stress)= 0.000E+00 ortho     = 0.000E+00
 gamma     =   0.00000
 trial     =   1.00000
 opt step  =   1.15994  (harmonic =   1.67140) maximal distance =0.00187811
 next E    =  -511.330495   (d E  =  -0.00139)

 reached required accuracy - stopping structural energy minimisation