 vasp.5.4.4.18Apr17-6-g9f103f2a35 (build Oct 25 2019 11:13:22) complex

 executed on             LinuxIFC date 2021.10.16  21:08:19

 INCAR:
 POTCAR:    PAW_PBE Pt 04Feb2005
 POTCAR:    PAW_PBE Fe 06Sep2000
 POTCAR:    PAW_PBE Co 02Aug2007
 POTCAR:    PAW_PBE Cu 22Jun2005
 POTCAR:    PAW_PBE Ni 02Aug2007
 POTCAR:    PAW_PBE H 15Jun2001
 POTCAR:    PAW_PBE Pt 04Feb2005
   VRHFIN =Pt: s1d9

   TITEL  = PAW_PBE Pt 04Feb2005
   POMASS =  195.080; ZVAL   =   10.000    mass and valenz
   ENMAX  =  230.283; ENMIN  =  172.712 eV

 POTCAR:    PAW_PBE Fe 06Sep2000
   VRHFIN =Fe:  d7 s1

   TITEL  = PAW_PBE Fe 06Sep2000
   POMASS =   55.847; ZVAL   =    8.000    mass and valenz
   ENMAX  =  267.882; ENMIN  =  200.911 eV

 POTCAR:    PAW_PBE Co 02Aug2007
   VRHFIN =Co: d8 s1

   TITEL  = PAW_PBE Co 02Aug2007
   POMASS =   58.933; ZVAL   =    9.000    mass and valenz
   ENMAX  =  267.968; ENMIN  =  200.976 eV

 POTCAR:    PAW_PBE Cu 22Jun2005
   VRHFIN =Cu: d10 p1

   TITEL  = PAW_PBE Cu 22Jun2005
   POMASS =   63.546; ZVAL   =   11.000    mass and valenz
   ENMAX  =  295.446; ENMIN  =  221.585 eV

 POTCAR:    PAW_PBE Ni 02Aug2007
   VRHFIN =Ni:

   TITEL  = PAW_PBE Ni 02Aug2007
   POMASS =   58.690; ZVAL   =   10.000    mass and valenz
   ENMAX  =  269.532; ENMIN  =  202.149 eV

 POTCAR:    PAW_PBE H 15Jun2001
   VRHFIN =H: ultrasoft test

   TITEL  = PAW_PBE H 15Jun2001
   POMASS =    1.000; ZVAL   =    1.000    mass and valenz
   ENMAX  =  250.000; ENMIN  =  200.000 eV

 Optimization of the real space projectors (new method)

 maximal supplied QI-value         = 14.36
 optimisation between [QCUT,QGAM] = [ 11.92, 23.98] = [ 39.79,161.09] Ry
 Optimized for a Real-space Cutoff    1.49 Angstroem

   l    n(q)    QCUT    max X(q) W(low)/X(q) W(high)/X(q)  e(spline)
   2     10    11.920    66.195    0.79E-04    0.18E-03    0.24E-06
   2     10    11.920    64.643    0.81E-04    0.19E-03    0.24E-06
   0     11    11.920    95.520    0.28E-04    0.54E-04    0.18E-06
   0     11    11.920    63.403    0.27E-04    0.52E-04    0.17E-06
   1     10    11.920    19.961    0.18E-04    0.11E-03    0.23E-06
   1     10    11.920    13.289    0.25E-04    0.87E-04    0.19E-06
 Optimization of the real space projectors (new method)

[...]

   l    n(q)    QCUT    max X(q) W(low)/X(q) W(high)/X(q)  e(spline)
   2      9    11.864    60.317    0.21E-03    0.51E-03    0.25E-06
   2      9    11.864    55.921    0.21E-03    0.51E-03    0.26E-06
   0      9    11.864    51.690    0.22E-03    0.30E-04    0.17E-06
   0      9    11.864    30.015    0.20E-03    0.28E-04    0.15E-06
   1      9    11.864    18.849    0.76E-04    0.33E-03    0.17E-06
   1      9    11.864    14.624    0.60E-04    0.28E-03    0.15E-06
 Optimization of the real space projectors (new method)

 maximal supplied QI-value         = 34.20
 optimisation between [QCUT,QGAM] = [ 11.97, 23.94] = [ 40.13,160.53] Ry
 Optimized for a Real-space Cutoff    1.18 Angstroem

   l    n(q)    QCUT    max X(q) W(low)/X(q) W(high)/X(q)  e(spline)
   0      8    11.971    19.460    0.15E-03    0.31E-03    0.25E-06
   0      8    11.971    12.209    0.13E-03    0.29E-03    0.25E-06
   1      8    11.971     4.655    0.22E-03    0.24E-03    0.21E-06
  PAW_PBE Pt 04Feb2005                  :
  PAW_PBE Fe 06Sep2000                  :
  PAW_PBE Co 02Aug2007                  :
  PAW_PBE Cu 22Jun2005                  :
  PAW_PBE Ni 02Aug2007                  :
  PAW_PBE H 15Jun2001                   :

 POSCAR: 11.06
  positions in direct lattice
  velocities in cartesian coordinates
 exchange correlation table for  LEXCH =        8
   RHO(1)=    0.500       N(1)  =     2000
   RHO(2)=  100.500       N(2)  =     4000

 ion  position               nearest neighbor table
   1  0.788  0.880  0.311-  49 2.57  59 2.62  28 2.65  11 2.76  19 2.76  33 2.76  61 2.77  29 2.78
                            60 2.78   4 2.79   2 2.83  12 2.85
   2  0.044  0.880  0.308-  79 2.55  77 2.60  28 2.73  30 2.73  33 2.75  60 2.76  52 2.79   6 2.82
                             1 2.83  22 2.84   4 2.88  16 2.95
   3  0.280  0.378  0.315-  64 2.55  68 2.65  31 2.66  39 2.67   5 2.74  33 2.75  13 2.77  25 2.80
                            43 2.81  19 2.81  30 2.84  18 2.96
   4  0.871  0.965  0.415-  17 2.71  60 2.72  11 2.75   9 2.76   1 2.79  12 2.80   6 2.83  16 2.85
                             2 2.88
   5  0.118  0.466  0.417-  39 2.64  33 2.70  12 2.71   7 2.71  16 2.71   3 2.74  10 2.74  25 2.80
                            13 2.87
   6  0.128  0.962  0.414-  52 2.67   8 2.71  10 2.77  22 2.79  14 2.79   9 2.81   2 2.82   4 2.83
                            16 2.84
   7  0.878  0.457  0.418-  39 2.63  75 2.66   5 2.71   9 2.72  15 2.72  10 2.74  29 2.75  12 2.79
                            27 2.82
   8  0.375  0.959  0.414-  43 2.56  52 2.63  61 2.68   6 2.71  14 2.74  27 2.74  13 2.75  10 2.77
                            11 2.77
   9  0.872  0.214  0.412-  75 2.63  60 2.67   7 2.72  15 2.72  17 2.74   4 2.76  22 2.78   6 2.81
                            10 2.83
  10  0.128  0.212  0.415-  39 2.64  43 2.68  13 2.72  22 2.73   7 2.74   5 2.74   8 2.77   6 2.77
                             9 2.83
  11  0.626  0.958  0.414-  61 2.71  12 2.74  27 2.75  13 2.75   4 2.75   1 2.76   8 2.77  17 2.78
                            19 2.78
  12  0.874  0.711  0.417-  33 2.69  29 2.70   5 2.71  11 2.74  27 2.77  16 2.78   7 2.79   4 2.80
                             1 2.85
  13  0.378  0.206  0.416-  43 2.68  10 2.72   8 2.75  11 2.75  19 2.76  17 2.77   3 2.77  25 2.78
                             5 2.87
  14  0.380  0.710  0.415-  44 2.61  52 2.65  27 2.70   8 2.74  15 2.74  30 2.76   6 2.79  25 2.80
                            16 2.81
  15  0.629  0.462  0.415-  81 1.61  44 2.62  75 2.64   9 2.72  27 2.72   7 2.72  18 2.73  14 2.74
                            17 2.81  25 2.83
  16  0.128  0.706  0.418-  33 2.66   5 2.71  25 2.72  30 2.76  12 2.78  14 2.81   6 2.84   4 2.85
                             2 2.95
  17  0.626  0.210  0.413-   4 2.71  18 2.71  60 2.73   9 2.74  13 2.77  25 2.78  11 2.78  19 2.81
                            15 2.81
  18  0.547  0.378  0.315-  67 2.54  68 2.61  26 2.67  17 2.71  44 2.73  15 2.73  60 2.74  75 2.76
                            25 2.79  30 2.83  19 2.86   3 2.96
  19  0.535  0.125  0.311-  80 2.53  68 2.56  59 2.57  43 2.66  13 2.76   1 2.76  61 2.77  11 2.78
                             3 2.81  17 2.81  18 2.86  60 2.89
  20  0.552  0.124  0.052-  37 2.54  57 2.54  48 2.56  62 2.67  63 2.77  47 2.79  34 2.81  56 2.83
                            45 2.95
  21  0.117  0.448  0.127-  47 2.51  36 2.52  40 2.52  42 2.62  70 2.69  69 2.70  64 2.70  31 2.74
                            50 2.78  57 2.79  74 3.04  58 3.09
  22  0.048  0.135  0.312-  65 2.53  77 2.54  55 2.56  43 2.69  39 2.70  10 2.73   9 2.78   6 2.79
                            75 2.81   2 2.84  52 2.84  60 2.84  31 3.35
  23  0.032  0.132  0.039-  70 2.56  41 2.58  40 2.58  62 2.69  76 2.70  24 2.71  45 2.77  35 2.89
                            53 2.93
  24  0.132  0.957  0.136-  79 2.51  35 2.56  77 2.57  53 2.57  55 2.59  70 2.65  58 2.68  23 2.71
                            73 2.74  38 2.74  66 2.81  41 2.91
  25  0.374  0.460  0.417-  16 2.72  17 2.78  13 2.78  30 2.78  18 2.79   5 2.80  14 2.80   3 2.80
                            15 2.83
  26  0.458  0.551  0.220-  74 2.50  73 2.52  51 2.55  79 2.63  30 2.64  18 2.67  44 2.68  32 2.73
                            78 2.74  68 2.81  67 2.84  64 2.85
  27  0.623  0.712  0.416-  81 1.61  44 2.64  61 2.68  14 2.70  15 2.72   8 2.74  11 2.75  29 2.77
                            12 2.77   7 2.82
  28  0.955  0.779  0.215-  58 2.56  50 2.56  66 2.61   1 2.65  42 2.65  33 2.67  49 2.68   2 2.73
                            64 2.75  59 2.94  77 3.16  79 3.16
  29  0.800  0.624  0.317-  42 2.55  32 2.63  39 2.63  49 2.64  75 2.68  12 2.70  33 2.73   7 2.75
                            27 2.77   1 2.78  61 2.79  44 2.83
  30  0.288  0.630  0.314-  79 2.53  64 2.63  26 2.64  33 2.71   2 2.73  52 2.75  16 2.76  14 2.76
                            25 2.78  44 2.80  18 2.83   3 2.84
  31  0.197  0.274  0.226-  70 2.49  43 2.57  57 2.57  55 2.61  39 2.62  65 2.63   3 2.66  21 2.74
                            42 2.80  80 2.84  64 2.96  68 3.01  22 3.35
  32  0.704  0.554  0.222-  54 2.55  69 2.55  51 2.59  49 2.63  29 2.63  44 2.66  78 2.67  75 2.67
                            65 2.72  42 2.73  26 2.73  67 2.77
  33  0.041  0.635  0.319-  16 2.66  28 2.67  64 2.68  12 2.69   5 2.70  30 2.71  42 2.71  29 2.73
                             2 2.75   3 2.75   1 2.76  39 2.80
  34  0.794  0.860  0.055-  50 2.37  48 2.43  66 2.54  36 2.60  63 2.69  71 2.72  20 2.81  35 2.85

  35  0.050  0.863  0.048-  36 2.43  58 2.54  24 2.56  66 2.58  72 2.69  34 2.85  23 2.89  53 2.90
                            62 2.92
  36  0.046  0.646  0.053-  35 2.43  21 2.52  58 2.52  50 2.58  34 2.60  72 2.68  47 2.90  71 3.06

  37  0.627  0.234  0.134-  67 2.50  56 2.50  51 2.50  20 2.54  59 2.54  74 2.55  68 2.55  62 2.57
                            41 2.59  66 2.76
  38  0.383  0.952  0.134-  45 2.42  53 2.43  80 2.46  55 2.52  78 2.52  63 2.54  73 2.58  54 2.59
                            48 2.62  24 2.74  57 2.75  70 2.83
  39  0.035  0.384  0.321-  42 2.60  31 2.62   7 2.63  29 2.63  10 2.64   5 2.64   3 2.67  65 2.68
                            75 2.68  22 2.70  33 2.80  43 2.96
  40  0.009  0.376  0.044-  69 2.35  76 2.47  21 2.52  23 2.58  70 2.59  71 2.60  45 3.03
  41  0.868  0.220  0.132-  76 2.44  77 2.46  67 2.52  65 2.54  62 2.56  23 2.58  37 2.59  69 2.60
                            51 2.66  66 2.68  70 2.71  24 2.91
  42  0.958  0.538  0.223-  50 2.48  29 2.55  39 2.60  21 2.62  69 2.62  28 2.65  65 2.66  33 2.71
                            32 2.73  64 2.76  49 2.77  31 2.80
  43  0.301  0.114  0.319-  55 2.51   8 2.56  31 2.57  80 2.58  19 2.66  10 2.68  52 2.68  13 2.68
                            61 2.68  22 2.69   3 2.81  39 2.96
  44  0.543  0.626  0.320-  14 2.61  78 2.62  15 2.62  27 2.64  32 2.66  26 2.68  61 2.71  75 2.71
                            52 2.71  18 2.73  30 2.80  29 2.83
  45  0.291  0.112  0.049-  38 2.42  70 2.44  53 2.53  57 2.59  63 2.71  23 2.77  20 2.95  40 3.03
                            47 3.10
  46  0.550  0.626  0.049-  54 2.38  51 2.39  73 2.40  71 2.55  76 2.70  56 2.73  53 2.75  63 2.76
                            72 2.80
  47  0.309  0.384  0.051-  74 2.30  21 2.51  56 2.59  57 2.60  72 2.60  20 2.79  36 2.90  45 3.10

  48  0.625  0.943  0.137-  49 2.35  34 2.43  80 2.48  54 2.52  63 2.52  20 2.56  59 2.58  38 2.62
                            50 2.70  57 2.82  66 2.91
  49  0.707  0.789  0.221-  48 2.35  50 2.43  54 2.50   1 2.57  61 2.62  32 2.63  29 2.64  80 2.66
                            78 2.67  28 2.68  42 2.77  59 2.93
  50  0.857  0.689  0.133-  71 2.36  34 2.37  49 2.43  42 2.48  54 2.49  69 2.53  28 2.56  36 2.58
                            48 2.70  21 2.78
  51  0.628  0.460  0.130-  46 2.39  76 2.43  37 2.50  56 2.51  26 2.55  32 2.59  67 2.62  69 2.64
                            41 2.66  74 2.68  73 2.76  54 2.82
[...]
   0.386E+02 -.148E+02 -.144E+04   -.402E+02 0.150E+02 0.144E+04   0.158E+01 -.110E+00 0.198E+01   0.132E-01 -.183E-01 0.308E-01
   -.627E+01 0.429E+02 -.276E+04   0.663E+01 -.424E+02 0.276E+04   -.387E+00 -.480E+00 0.147E+01   0.251E-02 0.933E-02 -.110E-01
   -.254E+02 0.742E+01 -.277E+04   0.246E+02 -.654E+01 0.276E+04   0.784E+00 -.890E+00 0.212E+01   -.349E-02 0.445E-02 0.242E-01
   0.270E+02 -.482E+01 -.276E+04   -.268E+02 0.424E+01 0.275E+04   -.170E+00 0.579E+00 0.180E+01   -.161E-01 0.763E-03 -.756E-02
   -.275E+02 -.137E+02 -.281E+04   0.285E+02 0.122E+02 0.281E+04   -.102E+01 0.157E+01 0.273E+01   0.109E-01 -.122E-01 0.206E-02
   0.170E+02 -.272E+02 -.282E+04   -.176E+02 0.277E+02 0.281E+04   0.560E+00 -.505E+00 0.260E+01   0.282E-01 0.740E-02 0.297E-02
   -.279E+02 0.290E+02 -.279E+04   0.275E+02 -.290E+02 0.279E+04   0.340E+00 -.668E-02 0.185E+01   -.126E-02 0.396E-02 0.258E-02
   -.442E+01 0.268E+01 -.277E+04   0.507E+01 -.228E+01 0.277E+04   -.615E+00 -.383E+00 0.241E+01   -.323E-02 0.408E-02 0.164E-01
   -.357E+02 -.191E+02 -.279E+04   0.358E+02 0.185E+02 0.279E+04   -.111E+00 0.628E+00 0.154E+01   -.138E-01 -.567E-02 -.127E-01
   -.255E+02 -.409E+01 -.277E+04   0.258E+02 0.399E+01 0.276E+04   -.265E+00 0.889E-01 0.192E+01   -.858E-02 0.614E-02 0.473E-02
   -.138E+01 -.376E+02 -.278E+04   0.120E+01 0.369E+02 0.278E+04   0.180E+00 0.709E+00 0.183E+01   0.281E-02 0.767E-02 -.161E-01
   0.455E+02 0.218E+02 -.278E+04   -.453E+02 -.210E+02 0.277E+04   -.144E+00 -.813E+00 0.257E+01   -.265E-02 -.193E-01 0.205E-01
   0.436E+02 0.194E+02 -.280E+04   -.429E+02 -.184E+02 0.280E+04   -.684E+00 -.101E+01 0.198E+00   -.131E-01 0.639E-02 -.185E-01
   0.176E+01 -.109E+02 -.276E+04   -.219E+01 0.103E+02 0.275E+04   0.411E+00 0.727E+00 0.182E+01   0.204E-01 -.290E-01 -.668E-03
   0.336E+02 0.899E+00 -.279E+04   -.334E+02 -.608E+00 0.279E+04   -.227E+00 -.301E+00 0.195E+01   0.631E-02 -.977E-02 0.658E-02
   0.791E+02 -.566E+02 -.147E+04   -.774E+02 0.569E+02 0.147E+04   -.161E+01 -.387E+00 0.115E+01   0.144E-02 -.199E-03 0.184E-01
   0.189E+02 -.381E+02 -.142E+04   -.200E+02 0.378E+02 0.142E+04   0.112E+01 0.296E+00 0.239E+01   -.186E-01 0.206E-01 0.527E-01
   0.595E+02 0.338E+02 0.281E+04   -.592E+02 -.339E+02 -.281E+04   -.353E+00 0.110E+00 -.280E+01   -.447E-02 0.187E-02 0.598E-02
   -.139E+02 -.317E+02 0.164E+04   0.128E+02 0.322E+02 -.164E+04   0.117E+01 -.482E+00 0.130E+01   0.962E-02 -.108E-01 0.101E-01
   -.501E+02 0.192E+02 -.141E+04   0.510E+02 -.187E+02 0.140E+04   -.831E+00 -.440E+00 0.236E+01   -.589E-02 -.121E-01 0.483E-01
   -.708E+02 0.942E+02 0.293E+04   0.714E+02 -.926E+02 -.293E+04   -.490E+00 -.165E+01 -.268E+01   0.809E-03 0.112E-01 -.281E-02
   0.401E+02 -.474E+02 0.151E+04   -.397E+02 0.467E+02 -.151E+04   -.344E+00 0.582E+00 -.717E+00   -.135E-01 0.176E-01 0.178E-01
   0.154E+02 -.229E+01 -.277E+04   -.159E+02 0.205E+01 0.277E+04   0.482E+00 0.236E+00 0.181E+01   -.164E-02 0.640E-02 0.489E-02
   0.954E+01 0.106E+02 -.907E+01   -.949E+01 -.103E+02 0.814E+01   -.113E+00 -.350E+00 0.945E+00   0.427E-02 -.285E-01 0.345E-01
   -.297E+02 0.222E+01 -.281E+04   0.293E+02 -.191E+01 0.280E+04   0.423E+00 -.309E+00 0.114E+01   -.357E-02 0.210E-01 0.580E-04
   -.922E+01 0.301E+02 0.147E+03   0.809E+01 -.317E+02 -.147E+03   0.123E+01 0.161E+01 -.275E+00   -.786E-02 0.540E-02 0.311E-01
   -.735E+02 -.137E+01 -.143E+04   0.740E+02 0.268E+00 0.143E+04   -.476E+00 0.116E+01 0.255E+01   -.470E-02 0.843E-02 0.916E-02
   0.437E+02 0.277E+02 -.144E+04   -.437E+02 -.269E+02 0.144E+04   -.215E-01 -.757E+00 0.206E+01   -.125E-01 -.327E-01 0.435E-01
   -.214E+02 -.757E+02 -.485E+02   0.205E+02 0.752E+02 0.488E+02   0.105E+01 0.477E+00 -.297E+00   0.157E-01 0.795E-02 0.239E-01
   -.325E+02 -.229E+02 -.762E+01   0.330E+02 0.236E+02 0.715E+01   -.583E+00 -.733E+00 0.439E+00   -.445E-02 -.118E-02 0.284E-01
   0.148E+02 0.546E+01 -.113E+04   -.148E+02 -.564E+01 0.113E+04   -.129E-01 0.283E+00 0.202E+00   0.351E-02 -.397E-02 0.211E-01
   -.851E+02 0.572E+01 0.225E+04   0.855E+02 -.694E+01 -.224E+04   -.429E+00 0.125E+01 -.285E+01   -.594E-02 0.115E-01 0.462E-02
   0.367E+02 -.118E+02 0.231E+04   -.371E+02 0.998E+01 -.230E+04   0.531E+00 0.195E+01 -.305E+01   -.142E-01 0.566E-02 -.142E-02
   0.596E+02 0.347E+02 0.225E+04   -.590E+02 -.331E+02 -.225E+04   -.628E+00 -.170E+01 -.290E+01   -.303E-02 -.810E-02 -.355E-03
   0.478E+02 0.804E+02 0.119E+04   -.469E+02 -.797E+02 -.119E+04   -.943E+00 -.805E+00 -.815E-01   -.464E-02 0.263E-02 0.130E-01
   0.211E+02 -.877E+02 0.121E+04   -.210E+02 0.872E+02 -.121E+04   -.129E+00 0.440E+00 -.541E+00   0.201E-01 0.134E-01 0.745E-02
   -.653E+02 -.217E+02 -.117E+04   0.654E+02 0.219E+02 0.117E+04   -.131E+00 -.236E+00 0.245E+00   0.888E-02 0.224E-02 0.302E-01
   -.200E+03 -.372E+01 0.236E+04   0.197E+03 0.335E+01 -.236E+04   0.213E+01 0.350E+00 -.378E+01   0.942E-02 -.606E-02 0.773E-04
   -.437E+02 0.697E+02 0.123E+04   0.429E+02 -.692E+02 -.123E+04   0.920E+00 -.610E+00 -.547E+00   -.678E-02 0.357E-02 0.125E-01
   -.812E+02 -.898E+01 -.160E+02   0.810E+02 0.930E+01 0.161E+02   0.197E+00 -.360E+00 -.199E+00   -.104E-03 0.511E-02 0.226E-01
   0.139E+02 -.851E+02 -.119E+04   -.140E+02 0.849E+02 0.119E+04   0.154E+00 0.156E+00 0.602E+00   0.207E-01 0.166E-01 0.351E-01
   0.172E+02 0.195E+02 -.120E+04   -.174E+02 -.198E+02 0.120E+04   0.141E+00 0.211E+00 -.373E-01   0.264E-02 -.187E-01 0.252E-01
   -.221E+02 -.106E+03 0.230E+04   0.209E+02 0.104E+03 -.230E+04   0.121E+01 0.214E+01 -.323E+01   0.115E-01 0.163E-01 0.943E-04
   0.304E+02 -.368E+02 0.263E+04   -.302E+02 0.370E+02 -.263E+04   -.202E+00 -.110E+00 -.297E+01   0.908E-02 -.152E-01 0.227E-02
   0.202E+03 0.428E+02 0.261E+04   -.201E+03 -.419E+02 -.261E+04   -.810E+00 -.911E+00 -.314E+01   -.237E-02 -.124E-01 0.297E-02
   -.781E+02 -.579E+02 0.132E+04   0.774E+02 0.568E+02 -.132E+04   0.691E+00 0.109E+01 -.150E+00   0.591E-02 0.457E-02 0.121E-01
   -.978E+02 0.333E+02 0.201E+02   0.978E+02 -.332E+02 -.205E+02   -.599E-01 -.125E+00 0.310E+00   0.620E-02 0.275E-02 0.231E-01
   -.169E+03 -.406E+01 0.135E+04   0.169E+03 0.462E+01 -.135E+04   0.551E-01 -.609E+00 -.138E+00   -.289E-02 0.949E-02 0.219E-01
   -.560E+01 -.127E+02 0.133E+04   0.580E+01 0.124E+02 -.132E+04   -.198E+00 0.457E+00 -.245E+00   -.226E-02 -.705E-02 0.207E-01
   0.523E+02 0.350E+01 -.136E+04   -.523E+02 -.357E+01 0.136E+04   -.151E+00 0.962E-01 0.714E+00   -.391E-02 0.420E-02 0.335E-01
   0.825E+02 -.597E+02 0.264E+04   -.817E+02 0.599E+02 -.264E+04   -.874E+00 -.283E+00 -.333E+01   0.901E-02 0.132E-01 -.812E-02
   -.298E+02 -.180E+01 0.134E+04   0.299E+02 0.213E+01 -.134E+04   -.998E-01 -.361E+00 -.558E+00   0.113E-01 0.748E-03 0.194E-01
   0.457E+02 -.905E+02 -.213E+02   -.448E+02 0.901E+02 0.217E+02   -.855E+00 0.500E+00 -.466E+00   0.107E-02 0.192E-01 0.175E-01
   0.685E+02 0.357E+02 0.328E+04   -.686E+02 -.348E+02 -.328E+04   0.110E+00 -.869E+00 -.426E+01   -.601E-02 -.118E-01 0.474E-02
   0.641E+02 -.124E+02 0.163E+04   -.645E+02 0.118E+02 -.163E+04   0.326E+00 0.623E+00 0.424E-01   0.777E-02 0.709E-02 0.550E-02
   0.185E+03 -.413E+02 0.154E+04   -.185E+03 0.417E+02 -.154E+04   -.178E+00 -.509E+00 -.246E-01   -.191E-01 -.122E-01 0.267E-01
   0.313E+02 0.882E+02 0.123E+03   -.319E+02 -.879E+02 -.123E+03   0.584E+00 -.391E+00 -.125E+00   -.314E-02 0.269E-03 0.281E-01
   0.109E+02 0.717E+02 -.160E+04   -.104E+02 -.717E+02 0.160E+04   -.463E+00 -.738E-01 0.788E+00   -.121E-01 0.536E-02 0.308E-01
[...]
   0.733E+02 -.367E+01 0.207E+01   -.727E+02 0.354E+01 -.186E+01   -.611E+00 0.130E+00 -.221E+00   0.260E-02 0.331E-02 0.376E-01
   -.118E+03 -.106E+02 0.148E+04   0.117E+03 0.108E+02 -.148E+04   0.574E+00 -.211E+00 -.568E+00   -.513E-02 -.306E-02 0.187E-01
   -.549E+02 0.472E+01 0.155E+04   0.554E+02 -.506E+01 -.155E+04   -.475E+00 0.351E+00 -.574E+00   0.896E-02 0.941E-02 0.617E-02
   -.164E+03 -.285E+02 0.296E+04   0.164E+03 0.283E+02 -.296E+04   0.493E-01 0.863E-01 -.264E+01   -.848E-03 0.203E-02 0.631E-03
   0.937E+02 -.662E+02 0.294E+04   -.944E+02 0.666E+02 -.293E+04   0.820E+00 -.332E+00 -.163E+01   -.101E-01 -.260E-01 -.191E-02
   0.277E+02 -.297E+02 0.153E+04   -.273E+02 0.296E+02 -.153E+04   -.379E+00 0.150E+00 -.145E-01   0.107E-01 -.225E-01 0.237E-01
   0.100E+03 0.972E+01 0.148E+04   -.996E+02 -.968E+01 -.148E+04   -.837E+00 0.421E-01 -.594E+00   -.220E-02 -.197E-01 0.186E-01
   -.307E+02 -.457E+02 -.151E+04   0.306E+02 0.459E+02 0.151E+04   0.143E+00 -.204E+00 0.177E+00   -.188E-01 0.431E-02 0.314E-01
   -.474E+02 0.194E+02 0.294E+04   0.477E+02 -.188E+02 -.293E+04   -.366E+00 -.555E+00 -.201E+01   -.727E-02 -.321E-02 0.511E-02
   -.487E+02 0.132E+03 0.800E+02   0.491E+02 -.132E+03 -.797E+02   -.417E+00 -.347E+00 -.479E+00   -.177E-01 0.827E-03 0.299E-01
   -.469E+01 0.562E+02 -.419E+02   0.459E+01 -.554E+02 0.418E+02   0.100E+00 -.839E+00 0.578E-03   0.246E-01 -.186E-01 0.242E-01
   0.116E+03 -.118E+02 -.504E+02   -.116E+03 0.125E+02 0.506E+02   -.427E+00 -.720E+00 -.351E+00   -.218E-01 -.105E-01 0.292E-01
   -.247E+02 -.930E+02 0.173E+02   0.242E+02 0.925E+02 -.173E+02   0.437E+00 0.471E+00 -.372E-01   0.227E-01 0.976E-02 0.217E-01
   -.171E+01 -.165E+01 -.333E+03   0.196E+01 0.192E+01 0.335E+03   -.229E+00 -.287E+00 -.182E+01   -.723E-03 0.350E-03 -.854E-03
   -.140E+01 0.888E+00 0.425E+01   -.218E-12 0.210E-12 -.121E-10   0.139E+01 -.871E+00 -.547E+01   -.733E-02 -.148E-01 0.124E+01

 POSITION                                       TOTAL-FORCE (eV/Angst)
     13.57398      8.43164      6.82787        -0.006309     -0.010217      0.008446
      5.35134      8.43250      6.73480         0.001687      0.005681      0.020848
      5.18597      3.62056      6.93019         0.007449     -0.007732     -0.008858
     15.02627      9.23103      9.05069        -0.010935      0.015607      0.028481
      3.88940      4.48021      9.18569        -0.001554     -0.009950     -0.009138
      6.70691      9.18184      9.04613         0.000027      0.022791      0.014619
     12.25006      4.35031      9.18661         0.014850     -0.007099      0.012433
      9.44468      9.21076      9.10962         0.015609     -0.007095      0.000836
     10.84115      2.00549      9.04450        -0.002918     -0.006901     -0.000192
      2.60043      2.03704      9.12263         0.005716      0.008742     -0.016373
     12.22770      9.18060      9.10850        -0.011474     -0.004245      0.002392
     13.62761      6.83939      9.16499         0.003162     -0.000648      0.019219
      5.32127      1.97741      9.15465         0.005102     -0.017364     -0.006337
      8.08302      6.84380      9.11344        -0.005314     -0.004802      0.009826
      9.47080      4.41505      9.20242        -0.017312     -0.035949     -0.007926
      5.29633      6.80402      9.13756         0.000100      0.008391      0.012721
      8.09899      2.00189      9.09212        -0.012526      0.007839      0.011573
      8.15735      3.61948      6.92922        -0.001616      0.013598     -0.012260
      6.61104      1.21051      6.84346         0.002015     -0.004541      0.001060
      6.78710      1.18523      1.14924         0.006712      0.003880     -0.009939
      3.76654      4.28943      2.79191        -0.024184     -0.015971      0.017460
      1.28923      1.29422      6.84423        -0.008605      0.002874      0.020006
      1.08322      1.26580      0.86116        -0.006167     -0.008346     -0.008803
      6.75769      9.17044      2.98650         0.007283     -0.007371      0.013752
      6.66472      4.39877      9.16479        -0.002375      0.011830      0.001415
      8.11381      5.27353      4.83171         0.050925     -0.002381      0.068833
     10.83730      6.84721      9.21895         0.014317      0.021952     -0.008428
     14.86749      7.46195      4.73691         0.007161     -0.016182     -0.051389
     12.27552      5.97726      6.97160        -0.003190      0.001145     -0.011348
      6.67447      6.03000      6.90125        -0.001026      0.009567      0.014880
      3.69611      2.62221      4.96528         0.010613      0.035536     -0.030116
     10.84750      5.30333      4.87795        -0.042150      0.002801     -0.011152
      3.95762      6.06377      6.99839         0.004490      0.011697      0.004356
     13.54014      8.23685      1.21769        -0.003504     -0.007747      0.015552
      5.32877      8.26421      1.06683         0.008323     -0.015194     -0.014591
      4.07872      6.18644      1.16963         0.001888     -0.000125      0.004220
      8.23293      2.23943      2.94956        -0.004205     -0.015044     -0.001971
      9.50197      9.12028      2.95366         0.001363     -0.001212     -0.007627
      2.52361      3.68523      7.05756        -0.014429      0.007498     -0.002081
      2.17813      3.60438      0.95905        -0.008655     -0.003483     -0.000158
     10.81855      2.10616      2.90557        -0.011152     -0.007833      0.003519
     13.56981      5.15767      4.91632        -0.027451      0.004172      0.013215
      3.96612      1.09920      7.01352         0.009499     -0.005979      0.007146
      9.47622      5.99303      7.06153         0.003926     -0.005666      0.009076
      3.84082      1.07508      1.08740        -0.005799      0.002054      0.001814
      9.54360      5.99174      1.07418        -0.020726      0.028131      0.007423
      5.53326      3.67383      1.11237         0.002583      0.012835     -0.001266
     12.12391      9.03535      3.02482         0.000159      0.007903     -0.003934
     12.19001      7.56078      4.85800        -0.019168     -0.003144     -0.003030
     13.29175      6.60251      2.91585        -0.000105      0.008094     -0.007529
      9.48696      4.40599      2.86728        -0.001673      0.039811      0.011644
      8.14280      8.37832      6.97294         0.009289     -0.011120      0.014533
      8.22572      8.40044      1.02038         0.014093     -0.012458      0.007862
     10.81470      6.88846      2.87925        -0.006704     -0.002972     -0.002879
      2.70342      0.21102      5.02247         0.025746     -0.007278     -0.031563
      8.11520      3.66906      0.89878        -0.009597     -0.005991     -0.016933
      5.28377      1.95964      3.04932        -0.006344      0.005592     -0.002245
      5.61899      6.74656      3.08047         0.002844     -0.011599      0.006448
      8.07791      0.54162      4.83808         0.002705      0.008327     -0.018314
      9.49184      1.24040      6.87622         0.005428     -0.002916      0.006757
[...]
      9.57359      2.84462      4.96726        -0.011480      0.013569     -0.012286
      6.69370      2.85116      4.88285         0.004282     -0.001264     -0.017074
     12.12773      4.35211      2.88488        -0.000405      0.008230      0.010485
      2.46536      1.93297      2.91282         0.014361     -0.002692      0.000812
     12.08907      5.94123      0.99380        -0.010368     -0.014430     -0.012170
      6.74616      5.97802      1.08730         0.015656      0.000842      0.007631
      8.23740      6.87147      2.88707         0.014313     -0.017297     -0.021177
      6.80581      4.34717      2.90754         0.008816      0.006314      0.025151
     10.88780      3.69885      7.01272        -0.001652      0.006572      0.000188
     10.76626      3.58716      0.97095        -0.012462     -0.009427     -0.004796
     10.88657      0.63149      4.87040         0.009063     -0.004610     -0.034846
      9.52479      7.61651      4.98098         0.000069     -0.016083      0.012050
      6.95958      7.62760      4.96170         0.006358     -0.000202     -0.023621
      5.23455      0.23107      4.94671         0.026445      0.014785      0.018029
     10.17095      5.54268     10.28128         0.022698     -0.013337      0.018376
    total drift:                               -0.010780      0.002234      0.017990

  FREE ENERGIE OF THE ION-ELECTRON SYSTEM (eV)
  free  energy   TOTEN  =      -504.62710680 eV

  energy  without entropy=     -504.63641348  energy(sigma->0) =     -504.63020902

 d Force = 0.2316203E-02[ 0.469E-03, 0.416E-02]  d Energy = 0.2337549E-02-0.213E-04
 d Force = 0.5244759E+02[ 0.524E+02, 0.525E+02]  d Ewald  = 0.5244758E+02 0.112E-04

 Conjugate gradient step on ions:
 trial-energy change:   -0.002338  1 .order   -0.002316   -0.004163   -0.000469
  (g-gl).g =-0.613E-04      g.g   = 0.216E-02  gl.gl    = 0.706E-02
 g(Force)  = 0.216E-02   g(Stress)= 0.000E+00 ortho     = 0.397E-03
 gamma     =  -0.00868
 trial     =   1.93267
 opt step  =   2.17833  (harmonic =   2.17833) maximal distance =0.00562489
 next E    =  -504.627115   (d E  =  -0.00235)

 reached required accuracy - stopping structural energy minimisation