 vasp.5.4.4.18Apr17-6-g9f103f2a35 (build Oct 25 2019 11:13:22) complex

 executed on             LinuxIFC date 2021.10.30  01:39:30

 INCAR:
 POTCAR:    PAW_PBE Pt 04Feb2005
 POTCAR:    PAW_PBE Fe 06Sep2000
 POTCAR:    PAW_PBE Co 02Aug2007
 POTCAR:    PAW_PBE Cu 22Jun2005
 POTCAR:    PAW_PBE Ni 02Aug2007
 POTCAR:    PAW_PBE H 15Jun2001
 POTCAR:    PAW_PBE Pt 04Feb2005
   VRHFIN =Pt: s1d9

   TITEL  = PAW_PBE Pt 04Feb2005
   POMASS =  195.080; ZVAL   =   10.000    mass and valenz
   ENMAX  =  230.283; ENMIN  =  172.712 eV

 POTCAR:    PAW_PBE Fe 06Sep2000
   VRHFIN =Fe:  d7 s1

   TITEL  = PAW_PBE Fe 06Sep2000
   POMASS =   55.847; ZVAL   =    8.000    mass and valenz
   ENMAX  =  267.882; ENMIN  =  200.911 eV

 POTCAR:    PAW_PBE Co 02Aug2007
   VRHFIN =Co: d8 s1

   TITEL  = PAW_PBE Co 02Aug2007
   POMASS =   58.933; ZVAL   =    9.000    mass and valenz
   ENMAX  =  267.968; ENMIN  =  200.976 eV

 POTCAR:    PAW_PBE Cu 22Jun2005
   VRHFIN =Cu: d10 p1

   TITEL  = PAW_PBE Cu 22Jun2005
   POMASS =   63.546; ZVAL   =   11.000    mass and valenz
   ENMAX  =  295.446; ENMIN  =  221.585 eV

 POTCAR:    PAW_PBE Ni 02Aug2007
   VRHFIN =Ni:

   TITEL  = PAW_PBE Ni 02Aug2007
   POMASS =   58.690; ZVAL   =   10.000    mass and valenz
   ENMAX  =  269.532; ENMIN  =  202.149 eV

 POTCAR:    PAW_PBE H 15Jun2001
   VRHFIN =H: ultrasoft test

   TITEL  = PAW_PBE H 15Jun2001
   POMASS =    1.000; ZVAL   =    1.000    mass and valenz
   ENMAX  =  250.000; ENMIN  =  200.000 eV

 Optimization of the real space projectors (new method)

 maximal supplied QI-value         = 14.36
 optimisation between [QCUT,QGAM] = [ 11.92, 23.98] = [ 39.79,161.09] Ry
 Optimized for a Real-space Cutoff    1.49 Angstroem

   l    n(q)    QCUT    max X(q) W(low)/X(q) W(high)/X(q)  e(spline)
   2     10    11.920    66.195    0.79E-04    0.18E-03    0.24E-06
   2     10    11.920    64.643    0.81E-04    0.19E-03    0.24E-06
   0     11    11.920    95.520    0.28E-04    0.54E-04    0.18E-06
   0     11    11.920    63.403    0.27E-04    0.52E-04    0.17E-06
   1     10    11.920    19.961    0.18E-04    0.11E-03    0.23E-06
   1     10    11.920    13.289    0.25E-04    0.87E-04    0.19E-06
 Optimization of the real space projectors (new method)

[...]

   l    n(q)    QCUT    max X(q) W(low)/X(q) W(high)/X(q)  e(spline)
   2      9    11.864    60.317    0.21E-03    0.51E-03    0.25E-06
   2      9    11.864    55.921    0.21E-03    0.51E-03    0.26E-06
   0      9    11.864    51.690    0.22E-03    0.30E-04    0.17E-06
   0      9    11.864    30.015    0.20E-03    0.28E-04    0.15E-06
   1      9    11.864    18.849    0.76E-04    0.33E-03    0.17E-06
   1      9    11.864    14.624    0.60E-04    0.28E-03    0.15E-06
 Optimization of the real space projectors (new method)

 maximal supplied QI-value         = 34.20
 optimisation between [QCUT,QGAM] = [ 11.97, 23.94] = [ 40.13,160.53] Ry
 Optimized for a Real-space Cutoff    1.18 Angstroem

   l    n(q)    QCUT    max X(q) W(low)/X(q) W(high)/X(q)  e(spline)
   0      8    11.971    19.460    0.15E-03    0.31E-03    0.25E-06
   0      8    11.971    12.209    0.13E-03    0.29E-03    0.25E-06
   1      8    11.971     4.655    0.22E-03    0.24E-03    0.21E-06
  PAW_PBE Pt 04Feb2005                  :
  PAW_PBE Fe 06Sep2000                  :
  PAW_PBE Co 02Aug2007                  :
  PAW_PBE Cu 22Jun2005                  :
  PAW_PBE Ni 02Aug2007                  :
  PAW_PBE H 15Jun2001                   :

 POSCAR: 11.26-high
  positions in direct lattice
  velocities in cartesian coordinates
 exchange correlation table for  LEXCH =        8
   RHO(1)=    0.500       N(1)  =     2000
   RHO(2)=  100.500       N(2)  =     4000

 ion  position               nearest neighbor table
   1  0.776  0.870  0.315-  56 2.59  32 2.67  15 2.74  33 2.75  65 2.77  23 2.78   8 2.78  40 2.79
                            16 2.83  41 2.87   3 2.88   2 2.93
   2  0.037  0.869  0.316-  38 2.65  79 2.66  32 2.76  26 2.76   8 2.79  34 2.81  58 2.81  10 2.81
                            41 2.83   3 2.83  20 2.84   1 2.93
   3  0.036  0.617  0.313-  50 2.60  68 2.63  32 2.69   6 2.81   9 2.81   4 2.81   2 2.83  20 2.84
                            33 2.85  34 2.86  16 2.87   1 2.88
   4  0.028  0.371  0.319-  50 2.61  36 2.68  42 2.70  11 2.72  77 2.76   9 2.77  14 2.77  33 2.80
                             3 2.81  26 2.83   6 2.88   5 2.96
   5  0.290  0.106  0.318-  61 2.55  36 2.68  12 2.69  39 2.69  58 2.70  26 2.77  65 2.77  14 2.78
                            17 2.79  23 2.80   6 2.92   4 2.96
   6  0.287  0.368  0.317-  68 2.59  71 2.62  36 2.71  23 2.75  29 2.76   9 2.80  17 2.81   3 2.81
                            34 2.86   4 2.88  22 2.90   5 2.92
   7  0.860  0.689  0.125-  74 2.52  43 2.54  45 2.59  55 2.63  60 2.65  50 2.65  56 2.66  32 2.70
                            72 2.71  25 2.83  64 3.07
   8  0.861  0.955  0.416-  15 2.76  21 2.77   1 2.78  41 2.78   2 2.79  16 2.80  13 2.83  20 2.87
                            10 2.94
   9  0.115  0.456  0.419-  20 2.72   4 2.77  16 2.78  11 2.79   6 2.80  29 2.81   3 2.81  14 2.84
                            17 2.90
  10  0.124  0.953  0.420-  58 2.71  14 2.76  26 2.76  12 2.78   2 2.81  18 2.83  13 2.87  20 2.90
                             8 2.94
  11  0.870  0.449  0.421-   4 2.72  77 2.72  19 2.74  13 2.76  14 2.79   9 2.79  33 2.82  31 2.82
                            16 2.83
  12  0.375  0.947  0.418-   5 2.69  65 2.70  58 2.70  18 2.72  15 2.74  31 2.75  10 2.78  17 2.79
                            14 2.86
  13  0.866  0.205  0.416-  77 2.72  11 2.76  21 2.77  26 2.77  41 2.77  19 2.78  14 2.83   8 2.83
                            10 2.87
  14  0.120  0.201  0.420-  10 2.76   4 2.77   5 2.78  11 2.79  26 2.81  17 2.81  13 2.83   9 2.84
                            12 2.86
  15  0.619  0.946  0.418-   1 2.74  12 2.74  16 2.75  65 2.75  31 2.76   8 2.76  17 2.79  23 2.81
                            21 2.92
  16  0.867  0.703  0.420-  15 2.75  20 2.76  33 2.77   9 2.78  31 2.79   8 2.80   1 2.83  11 2.83
                             3 2.87
  17  0.372  0.197  0.420-  81 1.74  23 2.75  12 2.79   5 2.79  15 2.79   6 2.81  14 2.81  21 2.82
                            29 2.83   9 2.90
  18  0.378  0.703  0.417-  51 2.60  58 2.67  31 2.69  12 2.72  34 2.74  19 2.75  10 2.83  29 2.89
                            20 2.98
  19  0.622  0.456  0.419-  51 2.65  77 2.66  31 2.72  22 2.73  11 2.74  18 2.75  13 2.78  21 2.82
                            29 2.88
  20  0.115  0.699  0.421-   9 2.72  16 2.76  29 2.81  34 2.82   3 2.84   2 2.84   8 2.87  10 2.90
                            18 2.98
  21  0.619  0.206  0.417-  22 2.75  13 2.77   8 2.77  23 2.77  29 2.78  41 2.80  17 2.82  19 2.82
                            15 2.92
  22  0.541  0.377  0.317-  70 2.59  30 2.64  71 2.64  77 2.68  51 2.70  19 2.73  21 2.75  34 2.79
                            41 2.80  29 2.80   6 2.90  23 2.92
  23  0.532  0.121  0.317-  71 2.65  40 2.70  39 2.75  17 2.75   6 2.75  21 2.77   1 2.78   5 2.80
                            15 2.81  41 2.84  22 2.92  65 2.94
  24  0.544  0.120  0.050-  46 2.53  63 2.54  55 2.60  43 2.70  66 2.73  54 2.84  62 2.84  52 2.87
                            67 2.92
  25  0.114  0.439  0.123-  54 2.49  48 2.53  45 2.58  36 2.70  73 2.70  63 2.75  50 2.75  68 2.78
                             7 2.83  72 2.85  64 2.94  76 3.11
  26  0.039  0.114  0.316-  79 2.55  61 2.63  42 2.67   2 2.76  10 2.76  13 2.77   5 2.77  58 2.79
                            14 2.81  41 2.82   4 2.83  77 2.96
  27  0.024  0.132  0.037-  48 2.54  49 2.59  73 2.61  28 2.65  78 2.71  59 2.73  66 2.74  52 2.92
                            44 3.11
  28  0.115  0.958  0.130-  59 2.54  79 2.58  44 2.59  38 2.63  27 2.65  61 2.66  69 2.68  73 2.69
                            47 2.79  49 2.84  35 2.87  64 2.93
  29  0.368  0.451  0.419-  81 1.69   6 2.76  34 2.77  21 2.78  22 2.80   9 2.81  20 2.81  17 2.83
                            19 2.88  18 2.89
  30  0.456  0.540  0.221-  76 2.51  57 2.56  22 2.64  34 2.68  51 2.72  37 2.72  35 2.73  80 2.74
                            71 2.76  38 2.79  70 2.79  68 2.85
  31  0.619  0.700  0.421-  51 2.68  18 2.69  65 2.72  19 2.72  33 2.75  12 2.75  15 2.76  16 2.79
                            11 2.82
  32  0.941  0.791  0.218-  64 2.57  69 2.60   1 2.67   3 2.69   7 2.70   2 2.76  56 2.78  40 2.87
                            50 2.87  79 2.91  68 3.02  38 3.04
  33  0.780  0.622  0.318-  56 2.60  37 2.62  50 2.62  65 2.69  77 2.73  31 2.75  51 2.75   1 2.75
                            16 2.77   4 2.80  11 2.82   3 2.85
  34  0.289  0.621  0.318-  38 2.67  30 2.68  68 2.74  18 2.74  58 2.75  29 2.77  51 2.77  22 2.79
                             2 2.81  20 2.82   6 2.86   3 2.86
  35  0.377  0.709  0.122-  53 2.48  75 2.55  59 2.60  47 2.62  60 2.68  30 2.73  80 2.74  38 2.75
                            57 2.85  76 2.87  28 2.87  64 2.87
  36  0.198  0.277  0.223-  73 2.54  63 2.54   4 2.68   5 2.68  25 2.70   6 2.71  61 2.76  42 2.81
                            68 2.83  50 2.84  39 2.91  71 2.97
  37  0.694  0.548  0.222-  72 2.55  60 2.56  57 2.60  33 2.62  56 2.63  80 2.66  51 2.69  77 2.70
                            30 2.72  50 2.75  70 2.82  42 2.88
  38  0.211  0.792  0.224-  64 2.58  58 2.59  61 2.62  28 2.63   2 2.65  34 2.67  80 2.70  35 2.75
                            30 2.79  79 2.85  68 3.02  32 3.04
  39  0.456  0.016  0.221-  47 2.49  55 2.60  80 2.62  63 2.64  65 2.65  61 2.65   5 2.69  56 2.69
                            23 2.75  40 2.78  36 2.91  71 3.11
  40  0.686  0.047  0.215-  46 2.52  69 2.55  55 2.59  23 2.70  71 2.71  41 2.74  39 2.78   1 2.79
                            70 2.86  32 2.87  56 2.93  79 2.99
  41  0.785  0.121  0.313-  70 2.55  79 2.58  40 2.74  13 2.77   8 2.78  21 2.80  22 2.80  26 2.82
                             2 2.83  23 2.84  77 2.87   1 2.87
  42  0.943  0.286  0.222-  49 2.49  72 2.55  70 2.65  26 2.67  79 2.67  73 2.68  77 2.70   4 2.70
                            50 2.78  36 2.81  37 2.88  61 3.01
  43  0.787  0.882  0.049-  55 2.41  69 2.50   7 2.54  44 2.64  24 2.70  66 2.72  45 2.88  67 2.95

  44  0.036  0.851  0.047-  45 2.41  69 2.53  64 2.55  28 2.59  43 2.64  75 2.68  59 3.07  27 3.11

  45  0.048  0.630  0.044-  44 2.41  75 2.46  64 2.49  25 2.58   7 2.59  54 2.82  43 2.88
  46  0.621  0.226  0.132-  70 2.50  62 2.51  57 2.51  40 2.52  24 2.53  66 2.58  76 2.58  71 2.59
                            49 2.65  69 2.81  63 2.90
  47  0.371  0.944  0.131-  59 2.38  52 2.40  39 2.49  67 2.54  61 2.56  35 2.62  80 2.62  60 2.68
                            73 2.76  55 2.77  28 2.79
  48  0.994  0.372  0.045-  72 2.33  78 2.48  74 2.51  25 2.53  27 2.54  73 2.62
  49  0.863  0.212  0.131-  78 2.43  42 2.49  66 2.56  70 2.57  27 2.59  79 2.61  72 2.63  69 2.64
                            46 2.65  57 2.68  28 2.84  73 2.86
  50  0.946  0.532  0.224-   3 2.60   4 2.61  33 2.62  72 2.64   7 2.65  37 2.75  25 2.75  56 2.78
                            42 2.78  36 2.84  32 2.87  68 2.92
  51  0.537  0.619  0.323-  18 2.60  80 2.64  19 2.65  65 2.67  31 2.68  37 2.69  77 2.69  22 2.70
[...]
   0.948E+01 -.240E+02 -.128E+04   -.962E+01 0.232E+02 0.128E+04   0.147E+00 0.731E+00 0.223E+01   0.121E-01 0.681E-01 0.155E+00
   -.447E+02 0.111E+01 -.135E+04   0.440E+02 -.554E+00 0.135E+04   0.602E+00 -.638E+00 0.163E+01   0.515E-01 0.749E-01 0.181E+00
   -.262E+01 -.808E+02 -.137E+04   0.219E+01 0.797E+02 0.137E+04   0.358E+00 0.105E+01 0.152E+01   0.536E-01 -.106E-01 0.211E+00
   0.481E+02 0.332E+01 -.142E+04   -.477E+02 -.352E+01 0.142E+04   -.382E+00 0.147E+00 0.172E+01   0.159E-01 0.543E-01 0.160E+00
   -.122E+03 -.411E+01 0.154E+04   0.121E+03 0.478E+01 -.154E+04   0.987E+00 -.723E+00 0.696E+00   -.141E+00 0.464E-01 0.187E+00
   -.120E+02 0.214E+00 -.265E+04   0.119E+02 -.311E+00 0.265E+04   0.915E-01 0.182E+00 0.156E+01   0.804E-02 -.713E-01 -.126E-01
   -.210E+02 0.139E+02 -.265E+04   0.198E+02 -.128E+02 0.265E+04   0.118E+01 -.121E+01 0.186E+01   0.105E-01 0.624E-01 0.231E-01
   0.452E+02 -.112E+02 -.268E+04   -.446E+02 0.108E+02 0.268E+04   -.621E+00 0.460E+00 0.225E+01   -.119E-01 -.720E-01 0.808E-04
   -.353E+02 -.254E+01 -.271E+04   0.351E+02 0.182E+01 0.270E+04   0.118E+00 0.684E+00 0.178E+01   0.654E-01 0.569E-01 0.523E-01
   0.179E+02 -.390E+02 -.271E+04   -.179E+02 0.390E+02 0.271E+04   0.888E-02 0.482E-01 0.209E+01   -.218E-01 -.167E-01 0.201E-01
   -.336E+01 0.456E+02 -.267E+04   0.308E+01 -.452E+02 0.267E+04   0.293E+00 -.347E+00 0.157E+01   -.521E-02 -.563E-01 0.512E-01
   -.101E+02 -.670E+01 -.268E+04   0.973E+01 0.669E+01 0.268E+04   0.323E+00 0.111E-01 0.166E+01   0.328E-01 -.822E-02 0.550E-01
   -.468E+02 -.408E+02 -.268E+04   0.467E+02 0.398E+02 0.268E+04   0.102E+00 0.104E+01 0.162E+01   0.343E-01 -.162E-01 0.118E-01
   -.312E+02 0.108E+01 -.267E+04   0.310E+02 -.816E+00 0.266E+04   0.183E+00 -.289E+00 0.130E+01   0.515E-01 0.240E-01 -.157E-01
   0.516E+01 -.165E+02 -.267E+04   -.484E+01 0.162E+02 0.267E+04   -.312E+00 0.319E+00 0.259E+00   0.107E-03 0.174E-02 0.372E-01
   0.524E+02 0.120E+02 -.269E+04   -.516E+02 -.118E+02 0.269E+04   -.778E+00 -.228E+00 0.213E+01   -.423E-01 0.135E-01 -.226E-01
   0.356E+02 0.255E+02 -.272E+04   -.346E+02 -.248E+02 0.271E+04   -.973E+00 -.844E+00 0.217E+01   -.412E-01 0.306E-01 0.401E-01
   0.799E+01 -.664E+01 -.266E+04   -.810E+01 0.668E+01 0.265E+04   0.135E+00 -.736E-01 0.146E+01   -.197E-01 0.747E-02 -.252E-01
   0.197E+02 0.198E+02 -.266E+04   -.183E+02 -.198E+02 0.266E+04   -.136E+01 0.259E-01 0.236E+01   -.301E-01 -.391E-01 0.318E-01
   0.535E+02 0.321E+01 -.143E+04   -.522E+02 -.241E+01 0.143E+04   -.125E+01 -.875E+00 0.133E+01   -.581E-01 0.305E-01 0.125E+00
   -.290E+01 0.870E+01 -.136E+04   0.249E+01 -.840E+01 0.136E+04   0.341E+00 -.304E+00 0.105E+01   0.311E-01 -.389E-01 0.133E+00
   0.821E+02 0.605E+02 0.270E+04   -.819E+02 -.605E+02 -.270E+04   -.281E+00 0.102E+00 -.265E+01   -.225E-01 -.314E-01 0.524E-01
   0.516E+02 -.334E+02 0.159E+04   -.522E+02 0.332E+02 -.160E+04   0.642E+00 0.147E+00 0.142E+01   0.310E-02 0.271E-01 0.136E+00
   -.133E+02 -.154E+02 -.135E+04   0.134E+02 0.151E+02 0.135E+04   -.977E-01 0.379E+00 0.186E+01   -.251E-01 -.716E-01 0.215E+00
   -.789E+02 0.858E+02 0.283E+04   0.796E+02 -.844E+02 -.283E+04   -.655E+00 -.134E+01 -.294E+01   0.628E-02 -.124E-01 -.468E-01
   -.151E+02 0.280E+02 0.149E+04   0.147E+02 -.278E+02 -.149E+04   0.328E+00 -.121E+00 -.285E+00   0.116E-01 -.632E-01 0.647E-01
   0.861E+01 -.772E+01 -.267E+04   -.920E+01 0.738E+01 0.267E+04   0.614E+00 0.266E+00 0.297E+00   -.324E-01 0.200E-01 0.795E-02
   0.126E+02 -.779E+02 0.504E+01   -.123E+02 0.771E+02 -.575E+01   -.393E+00 0.676E+00 0.566E+00   0.242E-01 0.416E-01 0.152E+00
   -.304E+02 0.122E+02 -.273E+04   0.297E+02 -.124E+02 0.273E+04   0.670E+00 0.201E+00 0.195E+01   0.875E-02 0.307E-01 -.124E-02
   0.228E+02 0.313E+02 0.978E+02   -.234E+02 -.320E+02 -.981E+02   0.763E+00 0.776E+00 0.108E+00   -.678E-01 -.715E-02 0.222E+00
   -.817E+02 0.237E+02 -.136E+04   0.808E+02 -.236E+02 0.136E+04   0.903E+00 -.258E+00 0.233E+01   0.401E-01 0.960E-01 0.926E-01
   0.485E+02 -.977E+01 -.138E+04   -.474E+02 0.101E+02 0.138E+04   -.111E+01 -.367E+00 0.109E+01   -.210E-01 0.396E-01 0.132E+00
   0.412E+02 -.780E+02 0.159E+04   -.399E+02 0.779E+02 -.159E+04   -.139E+01 -.903E-02 0.134E+01   0.126E+00 -.107E-01 0.143E+00
   0.360E+02 -.314E+02 -.115E-01   -.365E+02 0.312E+02 -.796E+00   0.548E+00 0.119E+00 0.693E+00   0.708E-01 0.832E-01 0.171E+00
   -.494E+02 -.599E+01 0.572E+01   0.498E+02 0.709E+01 -.648E+01   -.402E+00 -.129E+01 0.694E+00   -.191E-01 0.132E+00 0.776E-01
   0.510E+02 -.580E+00 0.265E+02   -.502E+02 0.192E+01 -.266E+02   -.903E+00 -.118E+01 -.215E+00   -.156E-01 -.102E+00 0.225E+00
   -.313E+02 -.619E+02 0.860E+02   0.302E+02 0.604E+02 -.876E+02   0.106E+01 0.169E+01 0.156E+01   0.142E+00 -.111E+00 0.107E+00
   0.175E+02 0.754E+02 0.137E+03   -.177E+02 -.744E+02 -.139E+03   0.320E+00 -.800E+00 0.169E+01   -.560E-01 -.927E-01 0.150E+00
   0.206E+02 0.723E+02 -.134E+04   -.202E+02 -.719E+02 0.134E+04   -.291E+00 -.344E+00 0.147E+01   -.601E-01 -.856E-01 0.147E+00
   -.107E+03 0.118E+01 0.284E+02   0.106E+03 -.138E+01 -.297E+02   0.913E+00 0.657E-01 0.124E+01   -.245E-01 0.821E-01 0.150E+00
   -.593E+00 0.745E+02 0.220E+04   0.187E+01 -.740E+02 -.220E+04   -.121E+01 -.499E+00 -.365E+01   -.109E+00 0.821E-02 0.723E-01
   -.189E+02 -.162E+02 0.222E+04   0.172E+02 0.143E+02 -.222E+04   0.177E+01 0.197E+01 -.302E+01   0.265E-01 0.475E-01 0.206E-01
   0.122E+03 0.275E+02 0.225E+04   -.120E+03 -.261E+02 -.224E+04   -.203E+01 -.133E+01 -.399E+01   -.729E-01 -.376E-01 0.265E-01
   0.430E+02 0.106E+03 0.112E+04   -.424E+02 -.106E+03 -.112E+04   -.582E+00 -.249E+00 -.632E+00   -.269E-01 0.675E-02 0.907E-01
   0.896E+01 -.402E+02 0.114E+04   -.890E+01 0.401E+02 -.114E+04   -.214E+00 0.161E+00 -.532E+00   0.980E-01 -.109E+00 0.360E-01
   -.212E+03 0.616E+01 0.225E+04   0.209E+03 -.642E+01 -.224E+04   0.270E+01 0.178E+00 -.344E+01   -.303E-01 0.399E-01 -.105E-01
   -.615E+02 0.686E+02 0.113E+04   0.613E+02 -.676E+02 -.113E+04   0.329E+00 -.108E+01 -.667E+00   -.416E-01 0.408E-01 0.652E-01
   -.554E+02 -.101E+02 0.343E+02   0.548E+02 0.997E+01 -.338E+02   0.571E+00 -.939E-02 -.704E+00   -.119E-01 0.888E-01 0.134E+00
   0.253E+02 0.769E+01 -.113E+04   -.252E+02 -.793E+01 0.113E+04   -.371E-01 0.128E+00 -.231E+00   -.395E-01 0.549E-01 0.665E-01
   -.291E+02 -.104E+03 0.220E+04   0.284E+02 0.102E+03 -.220E+04   0.708E+00 0.260E+01 -.314E+01   0.334E-01 -.534E-01 -.120E-01
   0.105E+03 -.140E+03 0.252E+04   -.104E+03 0.139E+03 -.252E+04   -.127E+01 0.102E+01 -.308E+01   0.685E-01 0.281E-01 0.794E-01
   0.201E+03 0.810E+02 0.252E+04   -.200E+03 -.797E+02 -.252E+04   -.117E+01 -.137E+01 -.300E+01   0.137E-01 -.691E-01 0.234E-01
   -.501E+02 -.588E+02 0.131E+04   0.499E+02 0.583E+02 -.131E+04   0.212E+00 0.648E+00 -.556E+00   -.430E-01 -.684E-01 0.160E+00
   -.995E+02 -.199E+01 0.401E+02   0.993E+02 0.175E+01 -.404E+02   0.255E+00 0.246E+00 0.114E+00   -.886E-02 0.147E-01 0.856E-01
   -.123E+01 -.464E+02 0.122E+04   0.143E+01 0.456E+02 -.122E+04   -.248E+00 0.782E+00 -.440E+00   0.112E-01 0.818E-01 0.101E+00
   0.486E+02 0.370E+01 -.125E+04   -.484E+02 -.368E+01 0.125E+04   -.236E+00 0.919E-01 0.309E+00   -.665E-02 -.969E-01 0.159E+00
   0.708E+02 0.479E+02 0.255E+04   -.702E+02 -.460E+02 -.254E+04   -.728E+00 -.188E+01 -.404E+01   0.588E-01 -.284E-01 -.250E-02
   -.579E+01 -.356E+02 0.127E+04   0.595E+01 0.359E+02 -.127E+04   -.234E+00 -.370E+00 -.393E+00   0.325E-01 0.236E-01 0.121E+00
[...]
   0.121E+03 -.472E+02 0.243E+02   -.121E+03 0.465E+02 -.239E+02   -.249E-01 0.660E+00 -.607E+00   0.184E-01 0.430E-01 0.224E+00
   0.400E+02 0.113E+03 0.157E+04   -.397E+02 -.113E+03 -.157E+04   -.299E+00 -.685E+00 -.130E+01   -.942E-01 -.164E-01 0.206E+00
   -.107E+02 0.402E+02 -.206E+02   0.114E+02 -.406E+02 0.204E+02   -.657E+00 0.484E+00 -.305E-01   -.689E-01 0.452E-01 0.130E+00
   0.525E+02 0.739E+02 -.386E+02   -.521E+02 -.733E+02 0.385E+02   -.492E+00 -.650E+00 -.277E-01   0.159E-01 0.107E-01 0.176E+00
   -.149E+03 -.676E+01 0.134E+04   0.149E+03 0.654E+01 -.134E+04   0.763E+00 0.118E+00 -.920E+00   -.704E-01 0.136E+00 0.990E-01
   -.226E+02 -.114E+02 0.146E+04   0.230E+02 0.113E+02 -.146E+04   -.492E+00 0.250E+00 -.762E+00   0.203E-01 0.256E-01 0.459E-01
   -.204E+03 -.116E+03 0.285E+04   0.204E+03 0.114E+03 -.285E+04   0.525E+00 0.134E+01 -.258E+01   -.704E-01 0.557E-01 0.635E-01
   -.195E+02 -.126E+03 0.282E+04   0.176E+02 0.126E+03 -.282E+04   0.197E+01 0.236E+00 -.164E+01   0.863E-01 -.294E-01 0.424E-01
   0.628E+02 -.389E+02 0.140E+04   -.620E+02 0.387E+02 -.140E+04   -.833E+00 0.302E+00 -.581E+00   0.556E-01 -.200E-01 0.170E+00
   -.526E+02 0.156E+02 -.140E+04   0.522E+02 -.153E+02 0.140E+04   0.428E+00 -.356E+00 0.239E-01   -.325E-01 0.564E-01 0.115E+00
   -.595E+02 0.501E+02 0.281E+04   0.599E+02 -.496E+02 -.281E+04   -.311E+00 -.594E+00 -.127E+01   -.314E-01 0.798E-01 0.189E-01
   -.110E+02 0.600E+02 0.198E+02   0.114E+02 -.596E+02 -.197E+02   -.298E+00 -.441E+00 -.362E+00   -.947E-01 -.730E-01 0.207E+00
   0.407E+02 0.613E+01 0.738E+01   -.405E+02 -.579E+01 -.737E+01   -.345E+00 -.308E+00 -.298E+00   0.870E-01 -.998E-01 0.128E+00
   -.105E+00 0.514E+00 -.317E+03   0.128E+00 -.565E+00 0.318E+03   -.142E-01 0.406E-01 -.166E+01   -.199E-02 0.370E-03 -.700E-02
   -.731E+00 0.395E+00 -.177E+01   -.150E-14 -.308E-12 0.915E-11   0.763E+00 -.353E+00 -.573E+01   -.236E-01 -.927E-02 0.749E+01

 POSITION                                       TOTAL-FORCE (eV/Angst)
     13.58539      8.46162      6.92336        -0.009703      0.004452     -0.004733
      5.28078      8.45393      6.93025         0.009687     -0.003279      0.028546
      3.86806      5.98667      6.87583        -0.003686      0.006819     -0.006199
      2.39735      3.60396      7.00784        -0.002459      0.005027      0.011748
      3.85458      1.04473      7.01236        -0.003404      0.002532     -0.008683
      5.29025      3.56581      7.00084        -0.007907     -0.011939     -0.018594
     13.51950      6.69208      2.75694        -0.021557     -0.009898      0.019407
     15.07442      9.25467      9.16709         0.023087      0.003346     -0.019922
      3.80757      4.46628      9.21051         0.003726      0.012740      0.006951
      6.72425      9.21124      9.17290         0.002940     -0.013102     -0.014265
     12.27593      4.35736      9.26346        -0.002023      0.009983     -0.006746
      9.49454      9.19498      9.20228        -0.016835     -0.007682     -0.000689
     10.88293      1.98088      9.14878         0.002220      0.003426     -0.004468
      2.44423      1.94972      9.24523         0.006393     -0.008470      0.003803
     12.25861      9.18174      9.19277         0.000656      0.005361      0.016342
     13.69541      6.84906      9.23213        -0.000441      0.018872     -0.021335
      5.25092      1.88225      9.28964         0.006673      0.004353      0.008304
      8.13545      6.83376      9.19649         0.003332     -0.007475     -0.005908
      9.55361      4.44097      9.22249        -0.000227     -0.016726      0.016269
      5.24825      6.83713      9.20817         0.006503     -0.015140     -0.005060
      8.14555      1.97279      9.15937        -0.007175     -0.007093      0.020623
      8.17898      3.66050      6.99036         0.000341     -0.013189     -0.002832
      6.64402      1.18243      6.97228         0.003566     -0.002982     -0.001860
      6.78185      1.16816      1.10976        -0.017184      0.002666     -0.001058
      3.74327      4.26289      2.71491         0.022802      0.002377      0.005579
      1.08507      1.10772      6.94503         0.007472     -0.011546      0.000406
      1.01575      1.28649      0.81183         0.009376     -0.013748      0.034335
      6.67142      9.31568      2.85544         0.007833      0.017987     -0.025607
      6.67970      4.43061      9.27881        -0.002471     -0.038548      0.019914
      8.14285      5.24496      4.86976        -0.041415      0.020586      0.004605
     10.86699      6.81059      9.25313        -0.014740      0.007120      0.002022
     14.99686      7.68362      4.79411        -0.002817      0.006198     -0.006498
     12.24552      6.05141      7.00002        -0.001986     -0.001760     -0.001283
      6.73016      6.03205      6.99746        -0.012464      0.002811     -0.008125
      8.20780      6.89173      2.69128        -0.021560      0.013041      0.004578
      3.77766      2.69345      4.90572         0.058262      0.022713     -0.000047
     10.86552      5.33036      4.88657        -0.004802      0.001405      0.001221
      6.80891      7.69639      4.91949         0.022744      0.053222     -0.061756
      5.20720      0.16029      4.85410         0.003969      0.019565      0.027112
      7.96508      0.45571      4.72390         0.004792      0.027811     -0.017744
      9.48570      1.18082      6.88578        -0.010455      0.015033     -0.005925
     12.19222      2.77766      4.87496         0.016604      0.007915     -0.000123
     13.78001      8.57392      1.07376        -0.001800     -0.018408     -0.020343
      5.17612      8.26819      1.02395         0.013853      0.006151     -0.012099
      4.07688      6.12594      0.96722         0.008419      0.003839      0.009626
      8.23477      2.19285      2.91186         0.010212     -0.002182      0.014453
      9.46232      9.17873      2.88867        -0.015856     -0.006926     -0.015611
     13.23829      3.61532      0.98546         0.003365     -0.000316      0.001246
     10.87798      2.06279      2.87872        -0.013091     -0.002014     -0.004051
     13.60649      5.17210      4.92826         0.004614     -0.000441     -0.006823
      9.49762      6.02123      7.10595        -0.010293      0.003199     -0.004932
      3.91652      1.06390      1.10530         0.016936      0.000823      0.036979
      9.69052      5.79723      1.02825        -0.001889     -0.001916     -0.001270
      5.55996      3.72993      1.09992        -0.011308     -0.035601     -0.009043
     12.22782      8.97667      2.86865        -0.006412      0.000898      0.012393
     12.22062      7.58099      4.89646        -0.012525     -0.004345     -0.004534
      9.50033      4.35926      2.89266        -0.007513      0.001189     -0.010188
      8.09551      8.42921      7.03747         0.018034     -0.008632     -0.008323
      8.20297      8.78072      0.90411         0.020531      0.017095     -0.006201
     10.87946      6.90186      2.86164        -0.028847     -0.002540     -0.003647
[...]
     10.84088      8.41789      0.89812        -0.022256      0.012862     -0.005079
      5.29878      5.08233      4.87221         0.023653     -0.036468      0.033595
     15.21969      9.46320      2.91158         0.003095      0.012642      0.020436
      9.54798      2.83243      4.93973        -0.001708      0.003938     -0.031805
      6.74099      2.86414      4.91726        -0.004367     -0.001202      0.039661
     12.12718      4.37157      2.88927         0.003236     -0.015391     -0.006799
      2.50652      1.86558      2.87455        -0.005595      0.016368      0.003133
     12.02738      5.81407      0.92547        -0.020261     -0.001867      0.003909
      6.52756      5.95530      1.01982         0.000868     -0.038406     -0.004517
      6.84854      4.37406      2.90086        -0.011836     -0.014484      0.006276
     10.85559      3.69419      7.03112        -0.013245     -0.002306      0.000387
     10.75754      3.55271      0.95995         0.002663     -0.004035      0.000779
     10.94499      0.41654      4.90182         0.003333     -0.005232     -0.010425
      9.50574      7.61774      4.99769        -0.019424      0.008901      0.003194
      5.99757      3.14871     10.25120         0.006909     -0.011698      0.041432
    total drift:                                0.008281      0.032698      0.000326

  FREE ENERGIE OF THE ION-ELECTRON SYSTEM (eV)
  free  energy   TOTEN  =      -507.88810238 eV

  energy  without entropy=     -507.89182256  energy(sigma->0) =     -507.88934244

 d Force = 0.1801751E-02[ 0.118E-02, 0.243E-02]  d Energy = 0.1831442E-02-0.297E-04
 d Force = 0.4380320E+01[ 0.437E+01, 0.439E+01]  d Ewald  = 0.4380319E+01 0.115E-05

 Conjugate gradient step on ions:
 trial-energy change:   -0.001831  1 .order   -0.001802   -0.002428   -0.001175
  (g-gl).g = 0.153E-02      g.g   = 0.163E-02  gl.gl    = 0.891E-02
 g(Force)  = 0.163E-02   g(Stress)= 0.000E+00 ortho     = 0.913E-04
 gamma     =   0.17176
 trial     =   1.47106
 opt step  =   2.85162  (harmonic =   2.85162) maximal distance =0.00928227
 next E    =  -507.888624   (d E  =  -0.00235)

 reached required accuracy - stopping structural energy minimisation