 vasp.5.4.4.18Apr17-6-g9f103f2a35 (build Oct 25 2019 11:13:22) complex

 executed on             LinuxIFC date 2021.10.14  16:00:23

 INCAR:
 POTCAR:    PAW_PBE Pt 04Feb2005
 POTCAR:    PAW_PBE Fe 06Sep2000
 POTCAR:    PAW_PBE Co 02Aug2007
 POTCAR:    PAW_PBE Cu 22Jun2005
 POTCAR:    PAW_PBE Ni 02Aug2007
 POTCAR:    PAW_PBE H 15Jun2001
 POTCAR:    PAW_PBE Pt 04Feb2005
   VRHFIN =Pt: s1d9

   TITEL  = PAW_PBE Pt 04Feb2005
   POMASS =  195.080; ZVAL   =   10.000    mass and valenz
   ENMAX  =  230.283; ENMIN  =  172.712 eV

 POTCAR:    PAW_PBE Fe 06Sep2000
   VRHFIN =Fe:  d7 s1

   TITEL  = PAW_PBE Fe 06Sep2000
   POMASS =   55.847; ZVAL   =    8.000    mass and valenz
   ENMAX  =  267.882; ENMIN  =  200.911 eV

 POTCAR:    PAW_PBE Co 02Aug2007
   VRHFIN =Co: d8 s1

   TITEL  = PAW_PBE Co 02Aug2007
   POMASS =   58.933; ZVAL   =    9.000    mass and valenz
   ENMAX  =  267.968; ENMIN  =  200.976 eV

 POTCAR:    PAW_PBE Cu 22Jun2005
   VRHFIN =Cu: d10 p1

   TITEL  = PAW_PBE Cu 22Jun2005
   POMASS =   63.546; ZVAL   =   11.000    mass and valenz
   ENMAX  =  295.446; ENMIN  =  221.585 eV

 POTCAR:    PAW_PBE Ni 02Aug2007
   VRHFIN =Ni:

   TITEL  = PAW_PBE Ni 02Aug2007
   POMASS =   58.690; ZVAL   =   10.000    mass and valenz
   ENMAX  =  269.532; ENMIN  =  202.149 eV

 POTCAR:    PAW_PBE H 15Jun2001
   VRHFIN =H: ultrasoft test

   TITEL  = PAW_PBE H 15Jun2001
   POMASS =    1.000; ZVAL   =    1.000    mass and valenz
   ENMAX  =  250.000; ENMIN  =  200.000 eV

 Optimization of the real space projectors (new method)

 maximal supplied QI-value         = 14.36
 optimisation between [QCUT,QGAM] = [ 11.92, 23.98] = [ 39.79,161.09] Ry
 Optimized for a Real-space Cutoff    1.49 Angstroem

   l    n(q)    QCUT    max X(q) W(low)/X(q) W(high)/X(q)  e(spline)
   2     10    11.920    66.195    0.79E-04    0.18E-03    0.24E-06
   2     10    11.920    64.643    0.81E-04    0.19E-03    0.24E-06
   0     11    11.920    95.520    0.28E-04    0.54E-04    0.18E-06
   0     11    11.920    63.403    0.27E-04    0.52E-04    0.17E-06
   1     10    11.920    19.961    0.18E-04    0.11E-03    0.23E-06
   1     10    11.920    13.289    0.25E-04    0.87E-04    0.19E-06
 Optimization of the real space projectors (new method)

[...]

   l    n(q)    QCUT    max X(q) W(low)/X(q) W(high)/X(q)  e(spline)
   2      9    11.864    60.317    0.21E-03    0.51E-03    0.25E-06
   2      9    11.864    55.921    0.21E-03    0.51E-03    0.26E-06
   0      9    11.864    51.690    0.22E-03    0.30E-04    0.17E-06
   0      9    11.864    30.015    0.20E-03    0.28E-04    0.15E-06
   1      9    11.864    18.849    0.76E-04    0.33E-03    0.17E-06
   1      9    11.864    14.624    0.60E-04    0.28E-03    0.15E-06
 Optimization of the real space projectors (new method)

 maximal supplied QI-value         = 34.20
 optimisation between [QCUT,QGAM] = [ 11.97, 23.94] = [ 40.13,160.53] Ry
 Optimized for a Real-space Cutoff    1.18 Angstroem

   l    n(q)    QCUT    max X(q) W(low)/X(q) W(high)/X(q)  e(spline)
   0      8    11.971    19.460    0.15E-03    0.31E-03    0.25E-06
   0      8    11.971    12.209    0.13E-03    0.29E-03    0.25E-06
   1      8    11.971     4.655    0.22E-03    0.24E-03    0.21E-06
  PAW_PBE Pt 04Feb2005                  :
  PAW_PBE Fe 06Sep2000                  :
  PAW_PBE Co 02Aug2007                  :
  PAW_PBE Cu 22Jun2005                  :
  PAW_PBE Ni 02Aug2007                  :
  PAW_PBE H 15Jun2001                   :

 POSCAR: 10.56
  positions in direct lattice
  velocities in cartesian coordinates
 exchange correlation table for  LEXCH =        8
   RHO(1)=    0.500       N(1)  =     2000
   RHO(2)=  100.500       N(2)  =     4000

 ion  position               nearest neighbor table
   1  0.788  0.879  0.318-  28 2.62  49 2.63  19 2.64  33 2.65  59 2.65  61 2.66  60 2.67  29 2.68
                             2 2.71  11 2.77  12 2.84   4 2.86
   2  0.042  0.883  0.317-  79 2.56  77 2.61  60 2.62  30 2.64  28 2.66  52 2.67  33 2.67  22 2.68
                             1 2.71   6 2.80   4 2.89  16 2.96
   3  0.279  0.381  0.320-  39 2.56  64 2.57  33 2.59  31 2.63  19 2.70  43 2.70  30 2.71  68 2.72
                             5 2.78  13 2.80  18 2.82  25 2.84
   4  0.871  0.964  0.427-  81 1.87  17 2.61  11 2.62   9 2.65  12 2.67   6 2.69  16 2.71   1 2.86
                            60 2.86   2 2.89
   5  0.122  0.462  0.428-  16 2.62  12 2.62  10 2.62   7 2.63  13 2.67  25 2.67  39 2.73  33 2.73
                             3 2.78
   6  0.125  0.964  0.424-  81 1.88   8 2.61  10 2.62   9 2.66  14 2.66   4 2.69  16 2.70   2 2.80
                            52 2.82  22 2.88
   7  0.874  0.460  0.427-  15 2.62   9 2.62   5 2.63  12 2.63  10 2.64  27 2.66  39 2.70  75 2.78
                            29 2.81
   8  0.374  0.960  0.420-  43 2.60  14 2.61   6 2.61  27 2.63  13 2.63  11 2.64  10 2.65  52 2.69
                            61 2.72
   9  0.873  0.213  0.420-  81 1.86  15 2.62   7 2.62  17 2.63   4 2.65   6 2.66  10 2.66  75 2.66
                            60 2.71  22 2.80
  10  0.125  0.212  0.423-  13 2.62   6 2.62   5 2.62   7 2.64   8 2.65   9 2.66  39 2.67  43 2.73
                            22 2.79
  11  0.624  0.961  0.424-   4 2.62  13 2.63  27 2.64   8 2.64  12 2.64  17 2.65   1 2.77  19 2.82
                            61 2.83
  12  0.873  0.710  0.426-   5 2.62   7 2.63  27 2.64  11 2.64  16 2.66   4 2.67  33 2.68  29 2.80
                             1 2.84
  13  0.374  0.209  0.425-  10 2.62  11 2.63   8 2.63  17 2.65  25 2.66   5 2.67  43 2.77   3 2.80
                            19 2.83
  14  0.377  0.712  0.423-  27 2.59   8 2.61  15 2.63  25 2.65   6 2.66  16 2.67  44 2.68  30 2.76
                            52 2.76
  15  0.626  0.462  0.423-   9 2.62   7 2.62  27 2.62  14 2.63  25 2.65  17 2.65  44 2.70  75 2.73
                            18 2.76
  16  0.127  0.707  0.430-  25 2.61   5 2.62  12 2.66  14 2.67   6 2.70   4 2.71  33 2.73  30 2.87
                             2 2.96
  17  0.624  0.211  0.422-   4 2.61   9 2.63  25 2.64  11 2.65  13 2.65  15 2.65  18 2.76  60 2.78
                            19 2.86
  18  0.548  0.376  0.317-  67 2.56  60 2.59  75 2.60  44 2.64  68 2.65  26 2.66  30 2.71  19 2.73
                            17 2.76  15 2.76   3 2.82  25 2.88
  19  0.534  0.125  0.315-  80 2.55  43 2.57  68 2.57  59 2.60  61 2.63   1 2.64   3 2.70  18 2.73
                            60 2.75  11 2.82  13 2.83  17 2.86
  20  0.547  0.124  0.040-  37 2.55  57 2.56  48 2.58  62 2.64  63 2.68  47 2.68  45 2.68  56 2.70
                            34 2.71
  21  0.121  0.460  0.128-  40 2.52  36 2.53  47 2.53  42 2.60  69 2.61  64 2.62  70 2.64  50 2.64
                            58 2.67  31 2.70  57 2.71  74 2.72
  22  0.044  0.136  0.314-  65 2.52  55 2.53  77 2.57  43 2.57  39 2.58  75 2.61   2 2.68  60 2.68
                            52 2.73  10 2.79   9 2.80   6 2.88  31 3.40
  23  0.042  0.130  0.033-  70 2.58  40 2.60  41 2.61  45 2.62  62 2.64  76 2.64  24 2.69  35 2.73
                            53 2.78
  24  0.130  0.958  0.132-  79 2.51  77 2.54  35 2.57  53 2.57  55 2.58  70 2.62  38 2.64  58 2.64
                            73 2.65  23 2.69  66 2.70  41 2.72
  25  0.375  0.461  0.426-  16 2.61  17 2.64  15 2.65  14 2.65  13 2.66   5 2.67  30 2.83   3 2.84
                            18 2.88
  26  0.455  0.546  0.219-  73 2.50  74 2.54  51 2.56  79 2.61  64 2.63  30 2.66  18 2.66  68 2.67
                            78 2.67  32 2.68  67 2.72  44 2.75
  27  0.623  0.712  0.424-  14 2.59  15 2.62   8 2.63  11 2.64  12 2.64   7 2.66  44 2.71  61 2.79
                            29 2.79
  28  0.956  0.790  0.221-  58 2.57  66 2.57  50 2.58  42 2.59  49 2.61   1 2.62  64 2.63   2 2.66
                            59 2.70  33 2.72  79 2.76  77 2.77
  29  0.794  0.622  0.319-  39 2.54  42 2.56  75 2.57  32 2.62  44 2.64  33 2.66  61 2.67   1 2.68
                            49 2.69  27 2.79  12 2.80   7 2.81
  30  0.290  0.631  0.319-  79 2.57  64 2.60  52 2.61  44 2.63   2 2.64  33 2.65  26 2.66   3 2.71
                            18 2.71  14 2.76  25 2.83  16 2.87
  31  0.203  0.281  0.225-  70 2.52  55 2.56  65 2.57  43 2.59  57 2.60   3 2.63  39 2.67  80 2.70
                            21 2.70  42 2.71  68 2.75  64 2.79  22 3.40
  32  0.706  0.549  0.221-  54 2.53  69 2.56  51 2.58  49 2.59  42 2.60  29 2.62  78 2.62  65 2.63
                            26 2.68  75 2.69  44 2.69  67 2.70
  33  0.040  0.631  0.326-   3 2.59  39 2.64  30 2.65   1 2.65  29 2.66   2 2.67  12 2.68  64 2.70
                            28 2.72  16 2.73  42 2.73   5 2.73
  34  0.797  0.862  0.042-  50 2.38  66 2.51  48 2.53  36 2.55  71 2.56  63 2.61  20 2.71  35 2.76
                            62 2.76
  35  0.056  0.866  0.038-  58 2.54  72 2.55  36 2.56  24 2.57  66 2.62  53 2.65  23 2.73  62 2.73
                            34 2.76
  36  0.046  0.628  0.037-  21 2.53  34 2.55  35 2.56  58 2.58  50 2.61  47 2.63  72 2.64  40 2.69
                            71 2.72
  37  0.627  0.222  0.129-  51 2.51  74 2.51  67 2.52  56 2.53  41 2.55  20 2.55  68 2.56  59 2.56
                            62 2.59  66 2.66  57 2.73  48 2.89
  38  0.382  0.955  0.130-  53 2.47  80 2.48  45 2.49  78 2.53  48 2.54  73 2.55  63 2.55  54 2.56
                            55 2.59  57 2.62  24 2.64  70 2.67
  39  0.035  0.384  0.325-  29 2.54   3 2.56  75 2.58  22 2.58  33 2.64  42 2.66  10 2.67  31 2.67
                             7 2.70   5 2.73  65 2.76  43 2.79
  40  0.031  0.382  0.038-  69 2.44  21 2.52  71 2.53  76 2.56  70 2.57  23 2.60  36 2.69  45 2.78
                            47 2.78
  41  0.872  0.215  0.128-  76 2.45  65 2.52  77 2.53  67 2.54  37 2.55  69 2.57  62 2.57  51 2.59
                            23 2.61  70 2.65  66 2.66  24 2.72
  42  0.955  0.545  0.224-  50 2.56  29 2.56  28 2.59  21 2.60  32 2.60  69 2.61  49 2.63  65 2.64
                            64 2.65  39 2.66  31 2.71  33 2.73
  43  0.296  0.116  0.321-  55 2.53  52 2.54  61 2.57  19 2.57  22 2.57  31 2.59   8 2.60  80 2.66
                             3 2.70  10 2.73  13 2.77  39 2.79
  44  0.541  0.630  0.322-  61 2.56  52 2.57  78 2.63  30 2.63  29 2.64  18 2.64  75 2.66  14 2.68
                            32 2.69  15 2.70  27 2.71  26 2.75
  45  0.295  0.119  0.039-  70 2.49  38 2.49  57 2.57  53 2.60  23 2.62  63 2.64  20 2.68  47 2.75
                            40 2.78
  46  0.548  0.625  0.044-  51 2.38  73 2.39  54 2.41  71 2.56  53 2.56  63 2.58  76 2.59  56 2.62
                            72 2.64
  47  0.296  0.379  0.039-  74 2.41  21 2.53  57 2.61  72 2.61  56 2.62  36 2.63  20 2.68  45 2.75
                            40 2.78
  48  0.625  0.950  0.132-  49 2.40  80 2.48  54 2.48  34 2.53  38 2.54  59 2.55  50 2.56  63 2.57
                            20 2.58  57 2.65  66 2.68  37 2.89
  49  0.706  0.794  0.220-  48 2.40  50 2.48  54 2.49  80 2.53  32 2.59  28 2.61  78 2.61  61 2.62
                             1 2.63  42 2.63  29 2.69  59 2.69
  50  0.866  0.706  0.129-  34 2.38  71 2.42  54 2.48  49 2.48  42 2.56  48 2.56  69 2.58  28 2.58
[...]
   0.356E+02 -.116E+02 -.155E+04   -.373E+02 0.118E+02 0.155E+04   0.175E+01 -.240E+00 0.212E+01   -.160E-01 0.417E-01 -.293E-01
   0.864E+01 0.306E+02 -.293E+04   -.902E+01 -.307E+02 0.293E+04   0.324E+00 0.153E+00 -.257E+00   0.485E-01 -.321E-01 -.617E-02
   -.114E+02 0.645E+01 -.293E+04   0.110E+02 -.616E+01 0.293E+04   0.437E+00 -.321E+00 0.138E+01   -.387E-01 0.431E-01 -.960E-02
   -.107E+02 0.929E+01 -.290E+04   0.117E+02 -.100E+02 0.290E+04   -.890E+00 0.711E+00 0.706E+00   -.682E-01 0.583E-03 0.161E-01
   -.196E+02 -.915E+01 -.295E+04   0.197E+02 0.878E+01 0.295E+04   -.839E-01 0.363E+00 0.132E+01   0.134E-01 -.150E-01 -.366E-01
   0.870E+01 -.175E+02 -.292E+04   -.903E+01 0.176E+02 0.292E+04   0.384E+00 -.860E-01 0.178E+01   -.240E-01 -.896E-02 0.541E-01
   -.201E+02 -.394E+00 -.293E+04   0.201E+02 0.161E+01 0.293E+04   0.300E-01 -.120E+01 0.698E+00   0.242E-01 -.230E-01 -.422E-01
   -.101E+02 -.470E+00 -.289E+04   0.108E+02 0.861E+00 0.289E+04   -.590E+00 -.389E+00 0.158E+01   -.617E-01 0.205E-01 0.420E-02
   -.735E-01 -.424E+01 -.294E+04   0.330E+00 0.409E+01 0.294E+04   -.339E+00 0.163E+00 0.669E+00   0.472E-01 -.432E-01 0.191E-01
   -.764E+01 0.538E+01 -.292E+04   0.790E+01 -.560E+01 0.292E+04   -.277E+00 0.209E+00 0.100E+01   0.349E-01 -.177E-02 0.323E-02
   0.328E+01 -.196E+02 -.292E+04   -.356E+01 0.194E+02 0.292E+04   0.296E+00 0.245E+00 0.795E+00   -.161E-01 0.897E-02 0.163E-01
   0.190E+02 0.103E+02 -.293E+04   -.186E+02 -.102E+02 0.293E+04   -.423E+00 -.147E+00 0.133E+01   -.346E-01 0.153E-01 0.194E-01
   0.222E+02 -.151E+02 -.293E+04   -.220E+02 0.153E+02 0.293E+04   -.287E+00 -.189E+00 0.123E+01   0.504E-01 -.185E-01 -.371E-01
   -.216E+01 -.555E+00 -.290E+04   0.189E+01 -.225E+00 0.290E+04   0.292E+00 0.728E+00 0.108E+01   -.327E-01 0.496E-01 -.365E-02
   0.276E+02 -.935E+01 -.291E+04   -.278E+02 0.971E+01 0.291E+04   0.178E+00 -.360E+00 0.103E+01   0.566E-01 -.302E-01 -.107E-01
   0.699E+02 -.716E+02 -.153E+04   -.687E+02 0.718E+02 0.153E+04   -.126E+01 -.161E+00 0.175E+01   0.611E-01 -.460E-03 -.311E-01
   0.284E+02 -.416E+02 -.152E+04   -.296E+02 0.411E+02 0.152E+04   0.109E+01 0.437E+00 0.246E+01   0.458E-01 0.204E-01 -.230E-01
   0.332E+02 0.317E+02 0.304E+04   -.334E+02 -.319E+02 -.304E+04   0.121E+00 0.186E+00 -.239E+01   0.333E-01 -.950E-02 0.190E-01
   0.355E+02 -.839E+01 0.160E+04   -.364E+02 0.912E+01 -.160E+04   0.922E+00 -.658E+00 0.916E+00   0.404E-02 -.103E-01 0.165E-01
   -.667E+02 0.127E+02 -.149E+04   0.677E+02 -.122E+02 0.149E+04   -.806E+00 -.612E+00 0.265E+01   -.105E+00 0.672E-01 0.129E-01
   -.540E+02 0.512E+02 0.309E+04   0.547E+02 -.504E+02 -.309E+04   -.699E+00 -.865E+00 -.207E+01   -.328E-01 0.313E-01 0.896E-02
   0.333E+00 -.531E+02 0.159E+04   -.884E-02 0.526E+02 -.159E+04   -.318E+00 0.419E+00 -.776E+00   -.666E-01 0.315E-01 0.928E-02
   0.981E+01 0.317E+01 -.293E+04   -.997E+01 -.315E+01 0.293E+04   0.168E+00 -.955E-01 0.667E+00   -.149E-01 0.431E-01 -.818E-02
   -.230E+02 -.820E+01 0.973E+01   0.230E+02 0.850E+01 -.110E+02   0.412E-01 -.310E+00 0.122E+01   -.301E-01 -.445E-01 0.176E-01
   -.990E+01 0.894E+01 -.294E+04   0.941E+01 -.902E+01 0.293E+04   0.493E+00 0.124E+00 0.118E+01   0.318E-01 -.230E-01 0.105E-01
   0.195E+02 0.623E+02 0.260E+01   -.206E+02 -.635E+02 -.301E+01   0.113E+01 0.114E+01 0.373E+00   0.843E-01 0.170E-01 0.175E-01
   -.660E+02 0.779E+01 -.149E+04   0.664E+02 -.888E+01 0.149E+04   -.377E+00 0.126E+01 0.288E+01   0.118E-01 -.967E-01 0.550E-01
   0.280E+02 0.272E+02 -.154E+04   -.277E+02 -.264E+02 0.154E+04   -.309E+00 -.743E+00 0.233E+01   -.414E-01 -.623E-02 -.785E-02
   0.204E+02 -.630E+02 -.768E+02   -.213E+02 0.624E+02 0.772E+02   0.103E+01 0.525E+00 -.307E+00   -.686E-02 0.568E-01 -.204E-01
   -.233E+02 -.216E+02 0.500E+01   0.241E+02 0.224E+02 -.576E+01   -.818E+00 -.754E+00 0.685E+00   -.574E-02 -.126E+00 0.605E-01
   0.190E+02 0.135E+02 -.125E+04   -.192E+02 -.138E+02 0.125E+04   0.131E+00 0.423E+00 0.505E+00   0.233E-02 0.541E-03 0.378E-02
   -.599E+02 -.282E+01 0.244E+04   0.602E+02 0.149E+01 -.244E+04   -.386E+00 0.133E+01 -.272E+01   0.115E-01 0.235E-01 -.102E-01
   0.306E+02 -.142E+02 0.247E+04   -.305E+02 0.128E+02 -.247E+04   -.407E-01 0.148E+01 -.231E+01   -.211E-01 0.272E-02 0.153E-02
   0.229E+02 -.409E+01 0.247E+04   -.230E+02 0.467E+01 -.247E+04   0.155E+00 -.627E+00 -.284E+01   0.583E-02 0.888E-02 -.502E-02
   0.667E+01 0.524E+02 0.129E+04   -.581E+01 -.517E+02 -.129E+04   -.914E+00 -.704E+00 -.178E+00   0.577E-02 -.132E-01 0.975E-03
   0.336E+02 -.544E+02 0.128E+04   -.335E+02 0.541E+02 -.128E+04   -.132E+00 0.234E+00 -.408E+00   0.112E-01 0.464E-01 -.175E-01
   -.542E+02 -.244E+02 -.124E+04   0.544E+02 0.245E+02 0.124E+04   -.141E+00 -.197E+00 0.777E+00   -.481E-01 0.180E-01 -.251E-02
   -.933E+02 0.206E+02 0.248E+04   0.930E+02 -.203E+02 -.248E+04   0.256E+00 -.247E+00 -.266E+01   -.240E-01 -.148E-02 0.794E-02
   -.334E+02 0.465E+02 0.130E+04   0.326E+02 -.460E+02 -.130E+04   0.802E+00 -.542E+00 -.407E+00   -.606E-02 -.957E-02 0.938E-02
   -.428E+02 0.207E+01 -.437E+02   0.425E+02 -.161E+01 0.437E+02   0.203E+00 -.441E+00 -.113E+00   0.275E-01 -.625E-01 0.230E-01
   0.138E+02 -.802E+02 -.124E+04   -.140E+02 0.800E+02 0.124E+04   0.190E+00 0.205E+00 0.113E+01   -.180E-02 0.524E-01 0.954E-02
   0.127E+02 0.299E+02 -.123E+04   -.128E+02 -.298E+02 0.123E+04   0.114E+00 -.513E-01 0.407E+00   0.133E-01 -.701E-01 0.929E-02
   0.146E+02 -.465E+02 0.245E+04   -.153E+02 0.458E+02 -.245E+04   0.692E+00 0.702E+00 -.274E+01   0.827E-03 0.161E-01 0.261E-02
   0.436E+01 -.196E+02 0.276E+04   -.444E+01 0.199E+02 -.275E+04   0.885E-01 -.215E+00 -.230E+01   -.379E-02 -.420E-01 -.448E-01
   0.119E+03 0.292E+02 0.279E+04   -.120E+03 -.285E+02 -.279E+04   0.450E+00 -.692E+00 -.238E+01   0.121E-01 0.114E-01 0.157E-01
   -.369E+02 -.278E+02 0.142E+04   0.364E+02 0.266E+02 -.142E+04   0.450E+00 0.110E+01 -.437E+00   0.335E-01 0.870E-01 -.597E-01
   -.620E+02 0.655E+02 0.213E+02   0.620E+02 -.654E+02 -.222E+02   -.197E-01 -.202E+00 0.834E+00   0.381E-01 0.121E-01 0.894E-02
   -.886E+02 0.185E+02 0.141E+04   0.881E+02 -.181E+02 -.141E+04   0.509E+00 -.483E+00 -.109E+00   0.581E-01 -.118E-01 -.516E-01
   -.210E+02 0.990E+01 0.139E+04   0.211E+02 -.101E+02 -.139E+04   -.136E+00 0.269E+00 -.960E-01   -.473E-02 -.719E-01 -.438E-02
   0.483E+02 0.479E+01 -.140E+04   -.481E+02 -.494E+01 0.140E+04   -.230E+00 0.223E+00 0.150E+01   -.595E-01 -.241E-01 0.328E-01
   0.530E+02 -.808E+02 0.277E+04   -.527E+02 0.806E+02 -.276E+04   -.363E+00 0.215E+00 -.241E+01   -.264E-01 0.888E-02 -.187E-01
   -.140E+02 0.179E+01 0.138E+04   0.141E+02 -.155E+01 -.138E+04   -.862E-01 -.238E+00 -.411E+00   0.448E-02 -.129E-01 -.526E-01
   0.190E+02 -.680E+02 -.170E+02   -.181E+02 0.674E+02 0.173E+02   -.829E+00 0.633E+00 -.344E+00   -.555E-01 0.422E-01 -.377E-01
   0.307E+02 0.341E+02 0.344E+04   -.309E+02 -.333E+02 -.344E+04   0.104E+00 -.838E+00 -.360E+01   0.835E-02 -.240E-01 0.644E-02
   0.628E+02 0.885E+01 0.174E+04   -.630E+02 -.954E+01 -.174E+04   0.116E+00 0.703E+00 -.164E+00   0.304E-01 0.113E-01 0.735E-02
   0.102E+03 -.322E+02 0.172E+04   -.102E+03 0.322E+02 -.172E+04   -.201E+00 0.142E-01 -.288E-02   -.385E-02 -.852E-02 0.394E-02
   0.118E+02 0.712E+02 0.797E+02   -.125E+02 -.712E+02 -.805E+02   0.636E+00 -.169E+00 0.767E+00   0.714E-01 0.672E-01 -.272E-01
   0.102E+02 0.579E+02 -.172E+04   -.968E+01 -.576E+02 0.172E+04   -.637E+00 -.301E+00 0.157E+01   0.806E-01 0.139E-01 -.205E-01
[...]
   0.553E+02 -.359E+02 0.346E+01   -.548E+02 0.354E+02 -.371E+01   -.636E+00 0.434E+00 0.346E+00   0.191E-01 0.135E-01 -.317E-01
   -.733E+02 0.136E+01 0.155E+04   0.729E+02 -.116E+01 -.155E+04   0.403E+00 -.733E-01 -.102E+00   0.133E-01 -.700E-01 -.112E-01
   -.123E+02 0.197E+02 0.162E+04   0.126E+02 -.199E+02 -.162E+04   -.349E+00 0.220E+00 -.452E+00   -.284E-01 0.348E-01 -.670E-02
   -.101E+03 -.431E+01 0.309E+04   0.101E+03 0.441E+01 -.308E+04   -.539E+00 -.339E-01 -.130E+01   0.227E-01 -.319E-01 -.384E-01
   0.702E+02 -.525E+02 0.309E+04   -.705E+02 0.531E+02 -.309E+04   0.369E+00 -.592E+00 -.868E+00   -.275E-01 -.183E-01 -.629E-02
   0.149E+02 -.406E+02 0.155E+04   -.145E+02 0.404E+02 -.155E+04   -.411E+00 0.243E+00 0.210E-02   -.668E-01 -.246E-01 -.211E-02
   0.511E+02 0.232E+01 0.159E+04   -.506E+02 -.230E+01 -.159E+04   -.483E+00 0.466E-01 -.108E+00   -.104E-01 -.144E-01 0.966E-02
   -.382E+02 -.672E+02 -.155E+04   0.381E+02 0.671E+02 0.155E+04   0.124E+00 0.661E-01 0.746E+00   0.212E-01 -.296E-01 0.621E-02
   -.540E+02 0.297E+02 0.307E+04   0.544E+02 -.291E+02 -.307E+04   -.424E+00 -.614E+00 -.193E+01   0.121E-01 -.330E-01 -.543E-02
   -.440E+02 0.731E+02 0.727E+02   0.444E+02 -.729E+02 -.727E+02   -.358E+00 -.322E+00 -.279E-01   -.335E-01 0.254E-01 0.677E-02
   -.367E+00 0.608E+02 -.140E+01   0.347E+00 -.600E+02 0.132E+01   0.103E+00 -.864E+00 -.366E-01   -.427E-01 -.305E-01 0.148E-02
   0.479E+02 0.339E+01 -.324E+02   -.474E+02 -.276E+01 0.323E+02   -.420E+00 -.612E+00 0.586E-01   -.842E-01 -.147E-01 -.108E-01
   0.238E+02 -.494E+02 0.345E+02   -.241E+02 0.489E+02 -.346E+02   0.294E+00 0.479E+00 0.136E+00   0.299E-01 0.818E-01 -.441E-01
   -.455E+01 -.151E+01 -.350E+03   0.486E+01 0.166E+01 0.351E+03   -.334E+00 -.162E+00 -.169E+01   0.122E-02 -.310E-02 -.524E-02
   -.130E+01 -.460E+00 -.480E+01   -.691E-12 -.409E-12 -.203E-10   0.124E+01 0.472E+00 0.485E+01   0.674E-01 -.181E-01 -.828E-01

 POSITION                                       TOTAL-FORCE (eV/Angst)
     12.96712      8.04192      7.00227         0.003353      0.009035     -0.004868
      5.11069      8.07784      6.95612         0.008610      0.003698      0.012396
      4.95996      3.48068      7.03426         0.002830      0.002232      0.005534
     14.28742      8.78194      9.41966        -0.017006     -0.003921      0.008783
      3.73155      4.22694      9.43436        -0.006990      0.000404     -0.020228
      6.41781      8.78147      9.32574        -0.001913      0.000027      0.000192
     11.66459      4.21113      9.37983        -0.011320      0.001460      0.002313
      9.02708      8.78184      9.24214         0.005026     -0.004060     -0.004463
     10.34881      1.95961      9.31212        -0.005514      0.009286      0.001270
      2.45546      1.94060      9.28366         0.004231     -0.003988     -0.001643
     11.66437      8.78509      9.33357         0.005014      0.008418     -0.009602
     12.98194      6.49539      9.39092         0.005931     -0.019887     -0.027472
      5.06260      1.91322      9.35436        -0.000083      0.006253      0.001942
      7.72769      6.51081      9.32659         0.005184     -0.018438     -0.012747
      9.04155      4.22416      9.29625         0.009529      0.000112      0.003872
      5.06621      6.48039      9.35911         0.000468      0.008456      0.016464
      7.69680      1.93281      9.26681         0.013451     -0.002172      0.016984
      7.77746      3.43376      6.97267         0.002061      0.011935      0.002421
      6.30197      1.13696      6.92970         0.009684     -0.016017      0.003077
      6.42858      1.12974      0.87872        -0.014356     -0.006835     -0.000326
      3.70548      4.20844      2.81687         0.017484      0.007352     -0.027811
      1.17150      1.25122      6.91625        -0.010499     -0.005893      0.013243
      1.13569      1.19080      0.72557        -0.006425      0.012615     -0.001790
      6.43607      8.76100      2.90031        -0.012758      0.010933      0.008497
      6.39604      4.22230      9.38737        -0.002168     -0.020551     -0.009053
      7.68135      4.99073      4.81474         0.022748     -0.005456     -0.043604
     10.33255      6.50855      9.31658         0.002324     -0.012373      0.011864
     14.26424      7.22593      4.86299         0.022859      0.015278      0.036095
     11.67718      5.69857      7.01952        -0.001112     -0.009632     -0.000908
      6.41589      5.77403      7.00056        -0.012197      0.005652      0.014446
      3.62119      2.56589      4.96023         0.026385      0.011367     -0.017023
     10.36091      5.02430      4.85652         0.031215     -0.007212     -0.024817
      3.75763      5.76606      7.15523         0.013037      0.002673      0.008249
     12.96907      7.87977      0.92567        -0.008547     -0.002381      0.002206
      5.16340      7.91719      0.83030         0.014797      0.017773      0.004837
      3.80701      5.74502      0.81381         0.010826     -0.008659     -0.011072
      7.79852      2.03245      2.83251        -0.028062     -0.006651     -0.002058
      9.07755      8.73373      2.85743        -0.007141      0.006099      0.012681
      2.40285      3.50755      7.13637        -0.004132     -0.000392      0.008841
      2.34409      3.49051      0.82510         0.010369      0.006657     -0.017896
     10.34814      1.96983      2.82249        -0.022509      0.005571      0.006410
     12.96035      4.98587      4.92559        -0.013880     -0.017180     -0.027813
      3.73849      1.06304      7.06650         0.008893      0.000921      0.005004
      9.03489      5.76240      7.08195        -0.004964     -0.001135      0.007911
      3.74824      1.09182      0.86700        -0.008812      0.008039     -0.009506
      9.09121      5.71867      0.96043        -0.013627      0.008534     -0.018620
      5.12448      3.47045      0.85563        -0.000690      0.028283      0.004305
     11.62092      8.68758      2.90590        -0.007481      0.006090      0.025017
     11.65313      7.26450      4.84229        -0.008129     -0.027064     -0.081204
     12.86756      6.45280      2.83379         0.024335      0.012959      0.008019
      9.04201      4.20780      2.79628         0.012038      0.006852     -0.010535
      7.77036      8.00740      6.99326        -0.004582      0.000593     -0.004523
      7.81315      7.93922      0.88653        -0.009959      0.002139      0.000406
     10.39144      6.53566      2.82198         0.027146      0.009069      0.047601
      2.51347      0.25826      5.00083        -0.002141      0.013319      0.024839
      7.74264      3.48454      0.76157         0.000952     -0.006093      0.004259
      5.07835      1.87760      2.91701        -0.004878     -0.007574     -0.007646
      5.16037      6.44715      2.89923        -0.013048     -0.005375     -0.014470
      7.70892      0.45986      4.84799         0.019467     -0.012835      0.060150
      9.06663      1.18794      6.99368         0.001504     -0.006147     -0.016295
[...]
      9.07350      2.65252      4.91360         0.031946     -0.045117     -0.004034
      6.37169      2.66558      4.85827        -0.012098      0.002917      0.006398
     11.65891      4.17486      2.81483        -0.017822     -0.000604     -0.023027
      2.44098      1.89237      2.83279        -0.004962      0.014699      0.004306
     11.64953      5.68621      0.88546         0.004551      0.031007     -0.003899
      6.44743      5.71949      0.92597        -0.003266      0.014602     -0.009215
      7.82927      6.50651      2.83621        -0.024255      0.014334     -0.010457
      6.41922      4.13007      2.78290        -0.005978      0.006148     -0.011020
     10.38032      3.47131      7.05407         0.006709     -0.007608      0.010981
     10.34410      3.45013      0.86804        -0.000443     -0.015377     -0.016135
     10.37063      0.48410      4.87151        -0.026969     -0.007278      0.036087
      9.04079      7.29017      4.93700         0.017731     -0.015043      0.001091
      6.46265      7.29503      4.94074         0.029459      0.027373      0.001918
      5.04247      0.27633      4.88406         0.000191      0.006627      0.011968
     10.29929      0.40367     10.37584        -0.023160     -0.018044      0.019224
    total drift:                                0.003348     -0.005422     -0.028847

  FREE ENERGIE OF THE ION-ELECTRON SYSTEM (eV)
  free  energy   TOTEN  =      -511.06784875 eV

  energy  without entropy=     -511.08529788  energy(sigma->0) =     -511.07366513

 d Force = 0.8672753E-03[ 0.393E-03, 0.134E-02]  d Energy = 0.9104757E-03-0.432E-04
 d Force =-0.7514167E+01[-0.752E+01,-0.751E+01]  d Ewald  =-0.7514169E+01 0.172E-05

 Conjugate gradient step on ions:
 trial-energy change:   -0.000910  1 .order   -0.000867   -0.001341   -0.000393
  (g-gl).g = 0.138E-02      g.g   = 0.123E-02  gl.gl    = 0.142E-02
 g(Force)  = 0.123E-02   g(Stress)= 0.000E+00 ortho     =-0.154E-03
 gamma     =   0.96970
 trial     =   1.23600
 opt step  =   1.61399  (harmonic =   1.74898) maximal distance =0.00915045
 next E    =  -511.067910   (d E  =  -0.00097)

 reached required accuracy - stopping structural energy minimisation