 vasp.5.4.4.18Apr17-6-g9f103f2a35 (build Nov 30 2020 22:55:02) complex

 executed on             LinuxIFC date 2021.11.25  12:50:53

 INCAR:
 POTCAR:    PAW_PBE Pt 04Feb2005
 POTCAR:    PAW_PBE H 15Jun2001

 POTCAR:    PAW_PBE Pt 04Feb2005
   VRHFIN =Pt: s1d9

   TITEL  = PAW_PBE Pt 04Feb2005
   POMASS =  195.080; ZVAL   =   10.000    mass and valenz
   ENMAX  =  230.283; ENMIN  =  172.712 eV

 POTCAR:    PAW_PBE H 15Jun2001
   VRHFIN =H: ultrasoft test

   TITEL  = PAW_PBE H 15Jun2001
   POMASS =    1.000; ZVAL   =    1.000    mass and valenz
   ENMAX  =  250.000; ENMIN  =  200.000 eV

 Optimization of the real space projectors (new method)

 maximal supplied QI-value         = 14.36
 optimisation between [QCUT,QGAM] = [ 11.92, 23.98] = [ 39.79,161.09] Ry
 Optimized for a Real-space Cutoff    1.49 Angstroem

   l    n(q)    QCUT    max X(q) W(low)/X(q) W(high)/X(q)  e(spline)
   2     10    11.920    66.195    0.79E-04    0.18E-03    0.24E-06
   2     10    11.920    64.643    0.81E-04    0.19E-03    0.24E-06
   0     11    11.920    95.520    0.28E-04    0.54E-04    0.18E-06
   0     11    11.920    63.403    0.27E-04    0.52E-04    0.17E-06
   1     10    11.920    19.961    0.18E-04    0.11E-03    0.23E-06
   1     10    11.920    13.289    0.25E-04    0.87E-04    0.19E-06
 Optimization of the real space projectors (new method)

 maximal supplied QI-value         = 34.20
 optimisation between [QCUT,QGAM] = [ 11.97, 23.94] = [ 40.13,160.53] Ry
 Optimized for a Real-space Cutoff    1.18 Angstroem

   l    n(q)    QCUT    max X(q) W(low)/X(q) W(high)/X(q)  e(spline)
   0      8    11.971    19.460    0.15E-03    0.31E-03    0.25E-06
   0      8    11.971    12.209    0.13E-03    0.29E-03    0.25E-06
   1      8    11.971     4.655    0.22E-03    0.24E-03    0.21E-06
  PAW_PBE Pt 04Feb2005                  :
  PAW_PBE H 15Jun2001                   :

 POSCAR: Pt   H
  positions in cartesian coordinates
 exchange correlation table for  LEXCH =        8
   RHO(1)=    0.500       N(1)  =     2000
   RHO(2)=  100.500       N(2)  =     4000

 ion  position               nearest neighbor table
   1  0.785  0.869  0.327-  71 2.74  55 2.74  20 2.74  35 2.78  34 2.79  27 2.79  72 2.80   2 2.80
                            56 2.81  73 2.81  43 2.81   3 2.81
   2  0.035  0.869  0.327-  65 2.74  68 2.74  55 2.74  39 2.78  27 2.79  29 2.79  47 2.80   1 2.80
                             3 2.81  23 2.81  72 2.81  57 2.81
   3  0.035  0.619  0.327-  12 2.73  55 2.74  76 2.74  39 2.78  35 2.79  28 2.79  15 2.80  56 2.80
                             2 2.81  57 2.81   9 2.81   1 2.81
   4  0.786  0.868  0.023-  78 2.78  21 2.78  19 2.79  75 2.81  58 2.81  44 2.81   6 2.81  74 2.81
                             5 2.81
   5  0.036  0.868  0.023-  70 2.78  78 2.79  49 2.79  24 2.80  59 2.80  48 2.81  74 2.81   6 2.81
                             4 2.81
   6  0.036  0.618  0.023-  70 2.79  46 2.79  21 2.79  18 2.80  10 2.80  59 2.81  58 2.81   4 2.81
                             5 2.81
   7  0.619  0.202  0.126-  80 2.74  71 2.74  79 2.74  42 2.78  44 2.79  74 2.79  22 2.80  78 2.81
                            19 2.81  11 2.81  61 2.81  53 2.81
   8  0.369  0.952  0.126-  69 2.74  66 2.74  26 2.75  24 2.78  16 2.79  75 2.79  49 2.80  54 2.80
                            60 2.81  25 2.81  53 2.81  19 2.81
   9  0.035  0.369  0.327-  77 2.73  62 2.74  12 2.74  30 2.78  28 2.78  33 2.79  56 2.80  47 2.80
                            15 2.80  13 2.81   3 2.81  63 2.81
  10  0.036  0.368  0.023-  46 2.78  45 2.79  54 2.79  18 2.80  48 2.80  16 2.80  64 2.80   6 2.80
                            58 2.81
  11  0.869  0.202  0.127-  65 2.74  77 2.74  79 2.74  64 2.79  74 2.79  48 2.79  54 2.80  45 2.80
                            49 2.80  78 2.81   7 2.81  22 2.81
  12  0.952  0.536  0.227-  56 2.73   3 2.73  45 2.74  21 2.74   9 2.74  46 2.74  20 2.81  62 2.81
                            55 2.81  67 2.81  77 2.81  76 2.81
  13  0.285  0.119  0.327-  26 2.73  62 2.73  69 2.74  31 2.78  36 2.78  33 2.79  73 2.80  47 2.80
                             9 2.81  15 2.81  43 2.81  23 2.82
  14  0.535  0.619  0.328-  51 2.74  66 2.74  67 2.75  52 2.79  23 2.79  63 2.79  57 2.80  41 2.80
                            56 2.81  73 2.81  38 2.81  37 2.82
  15  0.285  0.369  0.326-  62 2.72  76 2.73  80 2.74  50 2.76  36 2.80  28 2.80   3 2.80  43 2.80
                             9 2.80  13 2.81  41 2.81  57 2.81
  16  0.286  0.119  0.023-  53 2.78   8 2.79  54 2.79  48 2.80  18 2.80  10 2.80  24 2.80  44 2.81
                            75 2.81
  17  0.536  0.618  0.023-  25 2.78  22 2.79  60 2.79  42 2.80  59 2.80  58 2.80  75 2.81  64 2.81
                            24 2.81
  18  0.286  0.368  0.023-  53 2.78  61 2.79  46 2.79   6 2.80  10 2.80  16 2.80  44 2.80  59 2.81
                            42 2.81
  19  0.619  0.952  0.126-  20 2.74  71 2.74  69 2.74  44 2.78  75 2.79   4 2.79   7 2.81  53 2.81
                            25 2.81   8 2.81  78 2.81  21 2.81
  20  0.702  0.785  0.226-  19 2.74  25 2.74  56 2.74  21 2.74   1 2.74  73 2.74  67 2.80  12 2.81
                            66 2.81  69 2.81  71 2.81  55 2.81
  21  0.869  0.702  0.126-  12 2.74  55 2.74  20 2.74   4 2.78  58 2.79   6 2.79  70 2.80  46 2.81
                            25 2.81  45 2.81  78 2.81  19 2.81
  22  0.619  0.452  0.126-  67 2.74  79 2.74  51 2.74  17 2.79  42 2.79  64 2.79  61 2.80   7 2.80
                            60 2.81  45 2.81  11 2.81  25 2.81
  23  0.286  0.867  0.328-  68 2.75  26 2.75  66 2.76  37 2.77  31 2.79  29 2.79  57 2.79  14 2.79
                             2 2.81  73 2.81  13 2.82  47 2.82
  24  0.286  0.869  0.023-   8 2.78  60 2.79  49 2.79  75 2.80   5 2.80  48 2.80  16 2.80  59 2.81
                            17 2.81
  25  0.619  0.702  0.126-  20 2.74  67 2.74  66 2.75  17 2.78  75 2.78  58 2.79  60 2.81  19 2.81
                             8 2.81  22 2.81  21 2.81  45 2.81
  26  0.202  0.034  0.227-  13 2.73  47 2.73  49 2.74   8 2.75  54 2.75  23 2.75  68 2.80  66 2.80
                            65 2.81  69 2.81  62 2.81  77 2.82
  27  0.868  0.953  0.430-  72 2.79   2 2.79   1 2.79  29 2.80  32 2.80  35 2.80  39 2.80  34 2.80
                            40 2.80
  28  0.118  0.452  0.430-  50 2.77  30 2.78   9 2.78   3 2.79  15 2.80  35 2.80  33 2.80  36 2.81
                            39 2.81
  29  0.117  0.954  0.431-  32 2.77  47 2.78  23 2.79   2 2.79  27 2.80  37 2.80  33 2.80  39 2.82
                            31 2.83
  30  0.870  0.453  0.430-  28 2.78   9 2.78  63 2.79  56 2.79  33 2.79  38 2.80  35 2.80  52 2.82
                            32 2.83
  31  0.368  0.955  0.430-  13 2.78  36 2.78  23 2.79  73 2.79  33 2.80  34 2.80  37 2.81  52 2.82
                            29 2.83
  32  0.870  0.201  0.431-  29 2.77  47 2.78  63 2.79  72 2.79  38 2.79  27 2.80  33 2.80  40 2.82
                            30 2.83
  33  0.118  0.202  0.430-  47 2.79   9 2.79  13 2.79  30 2.79  31 2.80  32 2.80  29 2.80  36 2.80
                            28 2.80
  34  0.619  0.954  0.430-  52 2.77  40 2.78  43 2.79   1 2.79  73 2.79  27 2.80  36 2.80  31 2.80
                            35 2.81
  35  0.869  0.703  0.430-  52 2.77  39 2.78   1 2.78   3 2.79  56 2.79  27 2.80  28 2.80  30 2.80
                            34 2.81
  36  0.368  0.202  0.430-  50 2.77  31 2.78  13 2.78  43 2.79  15 2.80  34 2.80  33 2.80  40 2.81
                            28 2.81
  37  0.367  0.705  0.432-  23 2.77  29 2.80  31 2.81  57 2.81  39 2.82  14 2.82  52 2.86  38 2.86
                            50 2.87
  38  0.622  0.450  0.431-  63 2.77  32 2.79  30 2.80  41 2.81  40 2.81  14 2.81  52 2.86  37 2.86
                            50 2.87
  39  0.117  0.703  0.430-   2 2.78  35 2.78   3 2.78  57 2.78  27 2.80  28 2.81  50 2.81  29 2.82
                            37 2.82
  40  0.618  0.201  0.430-  34 2.78  72 2.78  43 2.78  41 2.78  27 2.80  36 2.81  38 2.81  50 2.81
                            32 2.82
  41  0.535  0.369  0.328-  51 2.74  79 2.74  80 2.75  50 2.78  40 2.78  63 2.79  57 2.80  14 2.80
                            43 2.81  38 2.81  72 2.81  15 2.81
  42  0.536  0.369  0.023-   7 2.78  22 2.79  61 2.79  17 2.80  74 2.80  59 2.80  64 2.81  44 2.81
                            18 2.81
  43  0.535  0.119  0.327-  69 2.73  80 2.74  71 2.74  40 2.78  34 2.79  36 2.79  15 2.80  73 2.80
                            72 2.81  41 2.81   1 2.81  13 2.81
  44  0.536  0.119  0.023-  19 2.78   7 2.79  53 2.79  18 2.80  16 2.81  42 2.81  75 2.81   4 2.81
                            74 2.81
  45  0.869  0.452  0.126-  12 2.74  67 2.74  77 2.74  64 2.78  58 2.79  10 2.79  11 2.80  54 2.80
                            22 2.81  46 2.81  21 2.81  25 2.81
  46  0.119  0.452  0.126-  76 2.74  12 2.74  62 2.74  10 2.78   6 2.79  18 2.79  53 2.80  21 2.81
                            45 2.81  61 2.81  54 2.81  70 2.81
  47  0.035  0.119  0.327-  77 2.73  26 2.73  65 2.74  29 2.78  32 2.78  33 2.79  13 2.80   2 2.80
                            72 2.80   9 2.80  63 2.82  23 2.82
  48  0.036  0.119  0.023-  54 2.79  49 2.79  11 2.79  16 2.80  10 2.80  24 2.80  64 2.81   5 2.81
                            74 2.81
  49  0.119  0.952  0.127-  26 2.74  65 2.74  68 2.74  48 2.79   5 2.79  24 2.79  54 2.80   8 2.80
                            11 2.80  78 2.80  70 2.80  60 2.81
  50  0.366  0.450  0.429-  15 2.76  36 2.77  28 2.77  57 2.78  41 2.78  40 2.81  39 2.81  37 2.87
                            38 2.87
  51  0.452  0.536  0.227-  41 2.74  60 2.74  14 2.74  57 2.74  22 2.74  61 2.75  66 2.80  68 2.80
                            67 2.80  76 2.80  79 2.80  80 2.80
  52  0.621  0.705  0.429-  73 2.76  56 2.76  35 2.77  34 2.77  14 2.79  30 2.82  31 2.82  37 2.86
                            38 2.86
  53  0.369  0.202  0.126-  80 2.74  69 2.74  62 2.74  16 2.78  18 2.78  44 2.79  46 2.80  19 2.81
                            61 2.81   8 2.81  54 2.81   7 2.81
  54  0.119  0.202  0.127-  62 2.73  26 2.75  77 2.75  48 2.79  10 2.79  16 2.79  11 2.80  49 2.80
                            45 2.80   8 2.80  46 2.81  53 2.81
  55  0.952  0.786  0.227-   3 2.74  78 2.74  21 2.74   1 2.74  70 2.74   2 2.74  65 2.80  76 2.81
                            71 2.81  68 2.81  12 2.81  20 2.81
  56  0.786  0.619  0.327-  12 2.73  67 2.74  20 2.74  52 2.76  30 2.79  35 2.79   9 2.80   3 2.80
                            63 2.81   1 2.81  14 2.81  73 2.81
  57  0.286  0.619  0.328-  68 2.74  51 2.74  76 2.75  50 2.78  39 2.78  23 2.79  41 2.80  14 2.80
                             3 2.81   2 2.81  15 2.81  37 2.81
  58  0.786  0.618  0.023-  21 2.79  25 2.79  45 2.79  64 2.80  17 2.80  10 2.81   4 2.81   6 2.81
                            75 2.81
  59  0.286  0.618  0.023-  61 2.78  60 2.79  70 2.79   5 2.80  17 2.80  42 2.80   6 2.81  24 2.81
                            18 2.81
  60  0.369  0.702  0.126-  66 2.74  51 2.74  68 2.74  24 2.79  59 2.79  17 2.79  61 2.80  70 2.80
                            22 2.81   8 2.81  25 2.81  49 2.81
  61  0.369  0.452  0.126-  80 2.73  76 2.74  51 2.75  59 2.78  18 2.79  42 2.79  22 2.80  60 2.80
[...]
     12.291965  9.267505  9.459974            0           0           0
     13.698534  6.831822  9.459522            0           0           0
      5.263681  1.966042  9.458836            0           0           0
      8.072967  6.854667  9.499003            0           0           0
      9.502444  4.376463  9.491290            0           0           0
      5.256272  6.830496  9.459123            0           0           0
      8.069100  1.956577  9.459865            0           0           0
      8.075326  3.590129  7.206064            0           0           0
      8.083225  3.581939  0.510931            0           0           0
      6.671667  1.160157  7.188465            0           0           0
      6.678160  1.152733  0.510302            0           0           0
     12.286714  4.389991  2.782283            0           0           0
      3.869851  4.390413  2.778250            0           0           0
      1.058847  1.154516  7.198643            0           0           0
      1.070640  1.152007  0.513938            0           0           0
      6.676663  9.253070  2.783206            0           0           0
      6.631782  4.375113  9.448830            0           0           0
      8.077931  5.205430  4.992867            0           0           0
     10.927820  6.855063  9.440609            0           0           0
      5.271312  1.964064  2.778049            0           0           0
      2.463565  1.960366  2.786291            0           0           0
     15.092452  7.635289  4.984270            0           0           0
     12.288214  6.014337  7.190589            0           0           0
      6.676596  6.014458  7.207069            0           0           0
     12.290463  6.008949  0.510510            0           0           0
      6.680569  6.011004  0.511325            0           0           0
      8.078936  6.821956  2.780182            0           0           0
[...]
      6.675602  7.630892  4.993097            0           0           0
      5.270387  0.345019  4.986499            0           0           0
      5.273951  6.824204  2.775762            0           0           0
      8.078139  0.345549  4.984731            0           0           0
      9.477255  1.156671  7.199772            0           0           0
     10.881215  8.450878  7.190648            0           0           0
      9.486599  1.153604  0.510746            0           0           0
     10.886467  8.441198  0.510580            0           0           0
      5.275109  5.207339  4.980669            0           0           0
     12.274896  2.776331  4.999998            0           0           0
     15.094853  9.252951  2.774672            0           0           0
      9.477725  2.777084  4.992728            0           0           0
      6.677918  2.776341  4.980969            0           0           0
      8.415429  5.419414 11.218693    -0.545776   -0.296341   -0.311936
      9.123533  5.832195 11.224187    -0.536422   -0.326493    0.350229

   4 f/i=   12.724080 THz    79.947751 2PiTHz  424.429602 cm-1    52.622583 meV
             X         Y         Z           dx          dy          dz
     13.688305  8.447342  7.191874            0           0           0
      5.269562  8.445345  7.199175            0           0           0
      3.870312  6.013944  7.188124            0           0           0
     13.692510  8.440472  0.513179            0           0           0
      5.279344  8.440572  0.509970            0           0           0
      3.874620  6.008325  0.509890            0           0           0
      8.080599  1.962846  2.776173            0           0           0
      9.479256  9.252510  2.782487            0           0           0
      2.459870  3.584109  7.194680            0           0           0
      2.471221  3.579699  0.513686            0           0           0
     10.886344  1.963056  2.783115            0           0           0
     13.687882  5.204769  4.986324            0           0           0
      3.861615  1.153901  7.195405            0           0           0
      9.479423  6.016063  7.205706            0           0           0
      5.264708  3.584166  7.179751            0           0           0
      3.873081  1.152433  0.514055            0           0           0
      9.485470  6.010572  0.513477            0           0           0
      5.273591  3.580247  0.510058            0           0           0
     12.286516  9.254082  2.777013            0           0           0
     12.284825  7.633751  4.982615            0           0           0
     13.691675  6.820940  2.776449            0           0           0
      9.481075  4.392468  2.780228            0           0           0
      8.074972  8.429752  7.222095            0           0           0
      8.082966  8.442326  0.514796            0           0           0
     10.884705  6.823035  2.774158            0           0           0
      2.461804  0.333727  5.000642            0           0           0
     15.089293  9.257844  9.468525            0           0           0
      3.860628  4.395876  9.458499            0           0           0
      6.661898  9.270377  9.472282            0           0           0
     12.305219  4.398084  9.466727            0           0           0
      9.488667  9.276996  9.467640            0           0           0
     10.886372  1.953471  9.471919            0           0           0
      2.461083  1.967627  9.466219            0           0           0
     12.291965  9.267505  9.459974            0           0           0
     13.698534  6.831822  9.459522            0           0           0
      5.263681  1.966042  9.458836            0           0           0
      8.072967  6.854667  9.499003            0           0           0
      9.502444  4.376463  9.491290            0           0           0
      5.256272  6.830496  9.459123            0           0           0
      8.069100  1.956577  9.459865            0           0           0
      8.075326  3.590129  7.206064            0           0           0
      8.083225  3.581939  0.510931            0           0           0
      6.671667  1.160157  7.188465            0           0           0
      6.678160  1.152733  0.510302            0           0           0
     12.286714  4.389991  2.782283            0           0           0
      3.869851  4.390413  2.778250            0           0           0
      1.058847  1.154516  7.198643            0           0           0
      1.070640  1.152007  0.513938            0           0           0
      6.676663  9.253070  2.783206            0           0           0
      6.631782  4.375113  9.448830            0           0           0
      8.077931  5.205430  4.992867            0           0           0
     10.927820  6.855063  9.440609            0           0           0
      5.271312  1.964064  2.778049            0           0           0
      2.463565  1.960366  2.786291            0           0           0
     15.092452  7.635289  4.984270            0           0           0
     12.288214  6.014337  7.190589            0           0           0
      6.676596  6.014458  7.207069            0           0           0
     12.290463  6.008949  0.510510            0           0           0
      6.680569  6.011004  0.511325            0           0           0
      8.078936  6.821956  2.780182            0           0           0
[...]
      6.675602  7.630892  4.993097            0           0           0
      5.270387  0.345019  4.986499            0           0           0
      5.273951  6.824204  2.775762            0           0           0
      8.078139  0.345549  4.984731            0           0           0
      9.477255  1.156671  7.199772            0           0           0
     10.881215  8.450878  7.190648            0           0           0
      9.486599  1.153604  0.510746            0           0           0
     10.886467  8.441198  0.510580            0           0           0
      5.275109  5.207339  4.980669            0           0           0
     12.274896  2.776331  4.999998            0           0           0
     15.094853  9.252951  2.774672            0           0           0
      9.477725  2.777084  4.992728            0           0           0
      6.677918  2.776341  4.980969            0           0           0
      8.415429  5.419414 11.218693     0.396550   -0.694648   -0.034124
      9.123533  5.832195 11.224187    -0.305435    0.515366    0.012424

[...]

   6 f/i=   14.989095 THz    94.179262 2PiTHz  499.982379 cm-1    61.989937 meV
             X         Y         Z           dx          dy          dz
     13.688305  8.447342  7.191874            0           0           0
      5.269562  8.445345  7.199175            0           0           0
      3.870312  6.013944  7.188124            0           0           0
     13.692510  8.440472  0.513179            0           0           0
      5.279344  8.440572  0.509970            0           0           0
      3.874620  6.008325  0.509890            0           0           0
      8.080599  1.962846  2.776173            0           0           0
      9.479256  9.252510  2.782487            0           0           0
      2.459870  3.584109  7.194680            0           0           0
      2.471221  3.579699  0.513686            0           0           0
     10.886344  1.963056  2.783115            0           0           0
     13.687882  5.204769  4.986324            0           0           0
      3.861615  1.153901  7.195405            0           0           0
      9.479423  6.016063  7.205706            0           0           0
      5.264708  3.584166  7.179751            0           0           0
      3.873081  1.152433  0.514055            0           0           0
      9.485470  6.010572  0.513477            0           0           0
      5.273591  3.580247  0.510058            0           0           0
     12.286516  9.254082  2.777013            0           0           0
     12.284825  7.633751  4.982615            0           0           0
     13.691675  6.820940  2.776449            0           0           0
      9.481075  4.392468  2.780228            0           0           0
      8.074972  8.429752  7.222095            0           0           0
      8.082966  8.442326  0.514796            0           0           0
     10.884705  6.823035  2.774158            0           0           0
      2.461804  0.333727  5.000642            0           0           0
     15.089293  9.257844  9.468525            0           0           0
      3.860628  4.395876  9.458499            0           0           0
      6.661898  9.270377  9.472282            0           0           0
     12.305219  4.398084  9.466727            0           0           0
      9.488667  9.276996  9.467640            0           0           0
     10.886372  1.953471  9.471919            0           0           0
      2.461083  1.967627  9.466219            0           0           0
     12.291965  9.267505  9.459974            0           0           0
     13.698534  6.831822  9.459522            0           0           0
      5.263681  1.966042  9.458836            0           0           0
      8.072967  6.854667  9.499003            0           0           0
      9.502444  4.376463  9.491290            0           0           0
      5.256272  6.830496  9.459123            0           0           0
      8.069100  1.956577  9.459865            0           0           0
      8.075326  3.590129  7.206064            0           0           0
      8.083225  3.581939  0.510931            0           0           0
      6.671667  1.160157  7.188465            0           0           0
      6.678160  1.152733  0.510302            0           0           0
     12.286714  4.389991  2.782283            0           0           0
      3.869851  4.390413  2.778250            0           0           0
      1.058847  1.154516  7.198643            0           0           0
      1.070640  1.152007  0.513938            0           0           0
      6.676663  9.253070  2.783206            0           0           0
      6.631782  4.375113  9.448830            0           0           0
      8.077931  5.205430  4.992867            0           0           0
     10.927820  6.855063  9.440609            0           0           0
      5.271312  1.964064  2.778049            0           0           0
      2.463565  1.960366  2.786291            0           0           0
     15.092452  7.635289  4.984270            0           0           0
     12.288214  6.014337  7.190589            0           0           0
      6.676596  6.014458  7.207069            0           0           0
     12.290463  6.008949  0.510510            0           0           0
      6.680569  6.011004  0.511325            0           0           0
      8.078936  6.821956  2.780182            0           0           0
[...]
      6.675602  7.630892  4.993097            0           0           0
      5.270387  0.345019  4.986499            0           0           0
      5.273951  6.824204  2.775762            0           0           0
      8.078139  0.345549  4.984731            0           0           0
      9.477255  1.156671  7.199772            0           0           0
     10.881215  8.450878  7.190648            0           0           0
      9.486599  1.153604  0.510746            0           0           0
     10.886467  8.441198  0.510580            0           0           0
      5.275109  5.207339  4.980669            0           0           0
     12.274896  2.776331  4.999998            0           0           0
     15.094853  9.252951  2.774672            0           0           0
      9.477725  2.777084  4.992728            0           0           0
      6.677918  2.776341  4.980969            0           0           0
      8.415429  5.419414 11.218693    -0.295964    0.384548   -0.429459
      9.123533  5.832195 11.224187    -0.283961    0.559726   -0.431469

 Finite differences POTIM=  1.500000000000000E-002
  LATTYP: Found a hexagonal cell.
 ALAT       =    11.2227001190
 C/A-ratio  =     1.9603125600

  Lattice vectors:

 A1 = (   5.6113500595,  -9.7191434021,   0.0000000000)
 A2 = ( -11.2227001190,   0.0000000000,   0.0000000000)
 A3 = (   0.0000000000,   0.0000000000, -22.0000000000)

Analysis of symmetry for initial positions (statically):
 Subroutine PRICEL returns:
 Original cell was already a primitive cell.

[...]

The static configuration has the point symmetry C_1 .

Analysis of symmetry for dynamics (positions and initial velocities):
 Subroutine PRICEL returns:
 Original cell was already a primitive cell.

[...]

The dynamic configuration has the point symmetry C_1 .

Analysis of constrained symmetry for selective dynamics:
 Subroutine PRICEL returns:
 Original cell was already a primitive cell.

[...]

The constrained configuration has the point symmetry C_1 .

Analysis of structural, dynamic, and magnetic symmetry:
 Subroutine PRICEL returns:
 Original cell was already a primitive cell.

 Routine SETGRP: Setting up the symmetry group for a
 hexagonal supercell.

 Subroutine GETGRP returns: Found  1 space group operations
 (whereof  1 operations were pure point group operations)
 out of a pool of 24 trial point group operations.

The magnetic configuration has the point symmetry C_1 .

 Subroutine INISYM returns: Found  1 space group operations
 (whereof  1 operations are pure point group operations),
 and found     1 'primitive' translations

 KPOINTS: mesh auto

Automatic generation of k-mesh.
Space group operators:
 irot       det(A)        alpha          n_x          n_y          n_z        tau_x        tau_y        tau_z
    1     1.000000     0.000000     1.000000     0.000000     0.000000     0.000000     0.000000     0.000000

 Subroutine IBZKPT returns following result:

 Found      4 irreducible k-points:

 Following reciprocal coordinates:
            Coordinates               Weight
  0.000000  0.000000  0.000000      1.000000
  0.500000  0.000000  0.000000      1.000000
  0.000000  0.500000  0.000000      1.000000
  0.500000  0.500000  0.000000      1.000000

 Following cartesian coordinates:
            Coordinates               Weight
  0.000000  0.000000  0.000000      1.000000
  0.044553 -0.025722  0.000000      1.000000
  0.000000  0.051445  0.000000      1.000000
  0.044553  0.025722  0.000000      1.000000

 TETIRR: Found     12 inequivalent tetrahedra from       24
 BZINTS: Fermi energy:  2.867034;802.000000 electrons
         Band energy:-326.975560;  BLOECHL correction: -0.495596