 vasp.5.4.4.18Apr17-6-g9f103f2a35 (build Nov 30 2020 22:55:02) complex

 executed on             LinuxIFC date 2023.08.07  09:53:44

 INCAR:
 POTCAR:    PAW_PBE Pt 04Feb2005
 POTCAR:    PAW_PBE Fe 06Sep2000
 POTCAR:    PAW_PBE Co 02Aug2007
 POTCAR:    PAW_PBE Cu 22Jun2005
 POTCAR:    PAW_PBE Ni 02Aug2007
 POTCAR:    PAW_PBE H 15Jun2001
 POTCAR:    PAW_PBE Pt 04Feb2005
   VRHFIN =Pt: s1d9

   TITEL  = PAW_PBE Pt 04Feb2005
   POMASS =  195.080; ZVAL   =   10.000    mass and valenz
   ENMAX  =  230.283; ENMIN  =  172.712 eV

 POTCAR:    PAW_PBE Fe 06Sep2000
   VRHFIN =Fe:  d7 s1

   TITEL  = PAW_PBE Fe 06Sep2000
   POMASS =   55.847; ZVAL   =    8.000    mass and valenz
   ENMAX  =  267.882; ENMIN  =  200.911 eV

 POTCAR:    PAW_PBE Co 02Aug2007
   VRHFIN =Co: d8 s1

   TITEL  = PAW_PBE Co 02Aug2007
   POMASS =   58.933; ZVAL   =    9.000    mass and valenz
   ENMAX  =  267.968; ENMIN  =  200.976 eV

 POTCAR:    PAW_PBE Cu 22Jun2005
   VRHFIN =Cu: d10 p1

   TITEL  = PAW_PBE Cu 22Jun2005
   POMASS =   63.546; ZVAL   =   11.000    mass and valenz
   ENMAX  =  295.446; ENMIN  =  221.585 eV

 POTCAR:    PAW_PBE Ni 02Aug2007
   VRHFIN =Ni:

   TITEL  = PAW_PBE Ni 02Aug2007
   POMASS =   58.690; ZVAL   =   10.000    mass and valenz
   ENMAX  =  269.532; ENMIN  =  202.149 eV

 POTCAR:    PAW_PBE H 15Jun2001
   VRHFIN =H: ultrasoft test

   TITEL  = PAW_PBE H 15Jun2001
   POMASS =    1.000; ZVAL   =    1.000    mass and valenz
   ENMAX  =  250.000; ENMIN  =  200.000 eV

 Optimization of the real space projectors (new method)

 maximal supplied QI-value         = 14.36
 optimisation between [QCUT,QGAM] = [ 11.92, 23.98] = [ 39.79,161.09] Ry
 Optimized for a Real-space Cutoff    1.49 Angstroem

   l    n(q)    QCUT    max X(q) W(low)/X(q) W(high)/X(q)  e(spline)
   2     10    11.920    66.195    0.79E-04    0.18E-03    0.24E-06
   2     10    11.920    64.643    0.81E-04    0.19E-03    0.24E-06
   0     11    11.920    95.520    0.28E-04    0.54E-04    0.18E-06
   0     11    11.920    63.403    0.27E-04    0.52E-04    0.17E-06
   1     10    11.920    19.961    0.18E-04    0.11E-03    0.23E-06
   1     10    11.920    13.289    0.25E-04    0.87E-04    0.19E-06
 Optimization of the real space projectors (new method)

[...]

   l    n(q)    QCUT    max X(q) W(low)/X(q) W(high)/X(q)  e(spline)
   2      9    11.864    60.317    0.21E-03    0.51E-03    0.25E-06
   2      9    11.864    55.921    0.21E-03    0.51E-03    0.26E-06
   0      9    11.864    51.690    0.22E-03    0.30E-04    0.17E-06
   0      9    11.864    30.015    0.20E-03    0.28E-04    0.15E-06
   1      9    11.864    18.849    0.76E-04    0.33E-03    0.17E-06
   1      9    11.864    14.624    0.60E-04    0.28E-03    0.15E-06
 Optimization of the real space projectors (new method)

 maximal supplied QI-value         = 34.20
 optimisation between [QCUT,QGAM] = [ 11.97, 23.94] = [ 40.13,160.53] Ry
 Optimized for a Real-space Cutoff    1.18 Angstroem

   l    n(q)    QCUT    max X(q) W(low)/X(q) W(high)/X(q)  e(spline)
   0      8    11.971    19.460    0.15E-03    0.31E-03    0.25E-06
   0      8    11.971    12.209    0.13E-03    0.29E-03    0.25E-06
   1      8    11.971     4.655    0.22E-03    0.24E-03    0.21E-06
  PAW_PBE Pt 04Feb2005                  :
  PAW_PBE Fe 06Sep2000                  :
  PAW_PBE Co 02Aug2007                  :
  PAW_PBE Cu 22Jun2005                  :
  PAW_PBE Ni 02Aug2007                  :
  PAW_PBE H 15Jun2001                   :

 POSCAR: 11.26
  positions in direct lattice
  velocities in cartesian coordinates
 exchange correlation table for  LEXCH =        8
   RHO(1)=    0.500       N(1)  =     2000
   RHO(2)=  100.500       N(2)  =     4000

 ion  position               nearest neighbor table
   1  0.783  0.872  0.304-  49 2.53  59 2.60  28 2.67  61 2.75   4 2.78  33 2.78  19 2.79   2 2.80
                            11 2.81  29 2.83  12 2.86  60 2.88
   2  0.032  0.872  0.300-  79 2.52  77 2.55  30 2.78  33 2.78  28 2.79   1 2.80  60 2.82   4 2.82
                             6 2.85  16 2.91  22 2.96  52 3.09
   3  0.277  0.362  0.314-  64 2.55  31 2.66  68 2.67  39 2.72   5 2.72  43 2.75  13 2.76  25 2.78
                            19 2.81  30 2.83  33 2.86  18 2.97
   4  0.868  0.956  0.406-  60 2.66  11 2.76  17 2.77   1 2.78  12 2.78   9 2.80  16 2.80   6 2.81
                             2 2.82
   5  0.109  0.464  0.413-  39 2.62  33 2.69  12 2.71   3 2.72  16 2.75   7 2.75  10 2.75  25 2.84
                            13 3.01
   6  0.123  0.946  0.407-  81 1.83  52 2.63  14 2.73  16 2.74  22 2.75   4 2.81   2 2.85   8 2.87
                             9 2.90  10 3.00
   7  0.871  0.452  0.416-  39 2.62  75 2.65  29 2.73   5 2.75   9 2.79  15 2.79  10 2.82  27 2.82
                            12 2.86
   8  0.376  0.951  0.415-  52 2.55  43 2.58  61 2.70  27 2.76  13 2.76  11 2.79  14 2.81  10 2.84
                             6 2.87
   9  0.867  0.206  0.409-  81 1.85  75 2.64  60 2.67  17 2.75  15 2.77   7 2.79  22 2.80   4 2.80
                             6 2.90  10 2.96
  10  0.129  0.210  0.415-  81 1.90  39 2.65  43 2.66  13 2.72   5 2.75  22 2.77   7 2.82   8 2.84
                             9 2.96   6 3.00
  11  0.626  0.949  0.412-  82 1.84  61 2.66  12 2.72  19 2.74   4 2.76  13 2.78   8 2.79   1 2.81
                            27 2.84  17 2.85
  12  0.869  0.708  0.412-  33 2.68  29 2.69   5 2.71  11 2.72  16 2.76   4 2.78   7 2.86   1 2.86
                            27 2.87
  13  0.378  0.196  0.415-  82 1.77  43 2.66  10 2.72  19 2.73   3 2.76   8 2.76  11 2.78  17 2.80
                            25 2.83   5 3.01
  14  0.369  0.705  0.407-  44 2.56  52 2.62   6 2.73  27 2.77   8 2.81  16 2.83  30 2.83  15 2.83
                            25 2.84
  15  0.621  0.454  0.412-  44 2.59  75 2.60  27 2.75  18 2.76   9 2.77  17 2.79   7 2.79  14 2.83
                            25 2.86
  16  0.117  0.705  0.410-  33 2.66  30 2.69   6 2.74   5 2.75  12 2.76   4 2.80  25 2.82  14 2.83
                             2 2.91
  17  0.623  0.204  0.410-  82 1.86  60 2.69  18 2.74   9 2.75   4 2.77  19 2.78  15 2.79  13 2.80
                            25 2.83  11 2.85
  18  0.536  0.373  0.310-  67 2.53  68 2.63  26 2.68  17 2.74  44 2.76  15 2.76  25 2.78  60 2.79
                            75 2.84  30 2.87  19 2.90   3 2.97
  19  0.532  0.117  0.311-  80 2.52  68 2.54  59 2.57  43 2.68  13 2.73  11 2.74  61 2.75  17 2.78
                             1 2.79   3 2.81  18 2.90  60 2.91
  20  0.557  0.109  0.059-  37 2.52  48 2.53  57 2.55  62 2.63  34 2.71  63 2.75  56 2.89  45 3.25

  21  0.093  0.426  0.123-  47 2.48  40 2.50  36 2.53  70 2.60  42 2.61  69 2.66  31 2.74  57 2.74
                            64 2.76  50 2.79
  22  0.050  0.126  0.311-  77 2.52  65 2.54  55 2.58  43 2.70  39 2.71   6 2.75  10 2.77  52 2.78
                             9 2.80  75 2.94  60 2.96   2 2.96  31 3.31
  23  0.024  0.112  0.042-  40 2.53  41 2.56  70 2.59  62 2.65  24 2.72  45 2.74  35 2.80  76 2.81
                            53 2.86
  24  0.129  0.948  0.141-  79 2.49  35 2.53  77 2.57  55 2.58  70 2.60  53 2.61  58 2.68  73 2.68
                            23 2.72  66 2.78  38 2.80  41 2.95
  25  0.367  0.453  0.412-   3 2.78  18 2.78  30 2.78  16 2.82  13 2.83  17 2.83   5 2.84  14 2.84
                            15 2.86
  26  0.446  0.559  0.220-  73 2.48  74 2.49  51 2.53  79 2.55  30 2.61  44 2.62  18 2.68  32 2.72
                            78 2.74  67 2.97  58 3.06  68 3.13  64 3.14
  27  0.617  0.701  0.413-  44 2.61  61 2.68  29 2.75  15 2.75   8 2.76  14 2.77   7 2.82  11 2.84
                            12 2.87
  28  0.950  0.757  0.209-  58 2.57  50 2.57  66 2.61  42 2.62  33 2.64   1 2.67  49 2.69  64 2.78
                             2 2.79
  29  0.794  0.615  0.316-  42 2.55  49 2.61  32 2.64  39 2.65  75 2.67  12 2.69   7 2.73  33 2.73
                            27 2.75   1 2.83  61 2.84  44 2.86
  30  0.270  0.617  0.308-  79 2.52  26 2.61  33 2.63  64 2.68  16 2.69   2 2.78  25 2.78   3 2.83
                            14 2.83  18 2.87  44 3.02  52 3.16
  31  0.189  0.266  0.225-  70 2.50  55 2.57  57 2.59  43 2.62  39 2.63  65 2.65   3 2.66  21 2.74
                            64 2.76  42 2.84  80 2.85  68 3.01  22 3.31
  32  0.693  0.549  0.221-  69 2.52  54 2.57  49 2.58  51 2.59  44 2.62  29 2.64  78 2.67  75 2.68
                            42 2.71  26 2.72  67 2.75  65 2.79  50 3.30
  33  0.032  0.626  0.314-  30 2.63  28 2.64  16 2.66  64 2.67  12 2.68   5 2.69  42 2.72  29 2.73
                             2 2.78   1 2.78  39 2.82   3 2.86
  34  0.791  0.861  0.064-  48 2.37  50 2.40  66 2.51  36 2.70  20 2.71  62 2.82  63 2.83  35 2.86

  35  0.050  0.852  0.056-  36 2.39  24 2.53  66 2.57  58 2.66  72 2.69  23 2.80  34 2.86  53 2.90
                            62 2.93
  36  0.048  0.640  0.066-  35 2.39  47 2.52  21 2.53  58 2.57  50 2.59  34 2.70  72 2.75
  37  0.628  0.231  0.134-  67 2.48  51 2.49  74 2.50  56 2.50  20 2.52  41 2.53  59 2.53  62 2.56
                            68 2.61  66 2.82
  38  0.378  0.948  0.136-  45 2.38  80 2.45  55 2.46  53 2.47  73 2.51  63 2.51  78 2.52  54 2.58
                            48 2.62  57 2.79  24 2.80  70 2.85
  39  0.028  0.377  0.320-  42 2.62   7 2.62   5 2.62  31 2.63  65 2.64  29 2.65  10 2.65  22 2.71
                            75 2.71   3 2.72  33 2.82  43 3.03
  40  0.980  0.356  0.044-  69 2.33  76 2.41  21 2.50  23 2.53  71 2.54  70 2.64  45 3.11
  41  0.864  0.208  0.134-  77 2.39  76 2.41  69 2.49  67 2.50  37 2.53  23 2.56  65 2.57  62 2.59
                            66 2.61  70 2.67  51 2.84  24 2.95
  42  0.945  0.527  0.221-  50 2.47  29 2.55  65 2.61  21 2.61  39 2.62  28 2.62  69 2.65  32 2.71
                            64 2.71  33 2.72  49 2.75  31 2.84
  43  0.298  0.108  0.320-  55 2.51  52 2.52   8 2.58  80 2.61  31 2.62  13 2.66  10 2.66  19 2.68
                            22 2.70  61 2.71   3 2.75  39 3.03
  44  0.539  0.616  0.319-  14 2.56  15 2.59  27 2.61  26 2.62  32 2.62  78 2.65  75 2.69  18 2.76
                            61 2.83  52 2.84  29 2.86  30 3.02
  45  0.273  0.099  0.052-  38 2.38  53 2.39  70 2.41  57 2.59  63 2.73  23 2.74  40 3.11  20 3.25

  46  0.533  0.620  0.050-  51 2.36  73 2.40  54 2.41  71 2.45  72 2.60  56 2.76  53 2.78  76 2.82
                            63 2.89
  47  0.277  0.422  0.059-  74 2.25  72 2.41  21 2.48  36 2.52  56 2.59  57 2.67
  48  0.621  0.927  0.141-  49 2.29  34 2.37  80 2.44  54 2.48  63 2.51  20 2.53  38 2.62  59 2.63
                            50 2.71
  49  0.703  0.775  0.220-  48 2.29  50 2.43  54 2.51   1 2.53  32 2.58  78 2.59  29 2.61  61 2.63
                            28 2.69  42 2.75  80 2.80
  50  0.841  0.670  0.130-  71 2.37  34 2.40  49 2.43  54 2.44  42 2.47  28 2.57  69 2.58  36 2.59
                            48 2.71  21 2.79  32 3.30
  51  0.611  0.461  0.131-  46 2.36  76 2.42  37 2.49  26 2.53  56 2.54  74 2.57  69 2.58  32 2.59
                            67 2.64  73 2.79  54 2.82  41 2.84
  52  0.301  0.882  0.318-  55 2.38  79 2.39  43 2.52  78 2.54   8 2.55  61 2.62  14 2.62   6 2.63
[...]
   0.237E+02 -.378E+02 -.143E+04   -.251E+02 0.375E+02 0.142E+04   0.144E+01 0.307E+00 0.167E+01   0.251E-01 0.609E-02 0.155E+00
   -.210E+02 0.445E+02 -.268E+04   0.212E+02 -.445E+02 0.268E+04   -.130E+00 0.487E-01 0.170E+01   -.434E-01 -.195E-01 0.179E-01
   -.370E+02 -.127E+02 -.271E+04   0.360E+02 0.135E+02 0.271E+04   0.100E+01 -.715E+00 0.234E+01   0.564E-02 -.460E-01 0.240E-01
   0.409E+02 0.244E+02 -.268E+04   -.407E+02 -.254E+02 0.268E+04   -.220E+00 0.101E+01 0.139E+01   0.160E-01 0.236E-01 -.551E-01
   -.266E+02 -.765E+01 -.280E+04   0.268E+02 0.725E+01 0.280E+04   -.159E+00 0.365E+00 0.272E+01   0.766E-02 0.210E-01 -.150E-02
   0.277E+02 -.170E+02 -.283E+04   -.279E+02 0.168E+02 0.282E+04   0.255E+00 0.158E+00 0.331E+01   0.101E-01 0.146E-01 0.242E-02
   -.208E+02 0.356E+02 -.274E+04   0.200E+02 -.350E+02 0.274E+04   0.870E+00 -.587E+00 0.148E+01   0.812E-02 -.287E-01 -.248E-01
   0.567E+01 -.316E+01 -.274E+04   -.419E+01 0.392E+01 0.274E+04   -.145E+01 -.735E+00 0.232E+01   -.480E-01 -.317E-01 0.996E-02
   -.461E+02 0.495E+01 -.276E+04   0.463E+02 -.604E+01 0.276E+04   -.214E+00 0.109E+01 0.131E+01   -.180E-02 0.154E-02 0.643E-01
   -.342E+02 -.903E+01 -.272E+04   0.344E+02 0.868E+01 0.272E+04   -.234E+00 0.346E+00 0.204E+01   -.121E-01 -.846E-02 0.168E-01
   -.615E+01 -.533E+02 -.276E+04   0.520E+01 0.529E+02 0.276E+04   0.986E+00 0.375E+00 0.159E+01   -.187E-01 0.161E-01 0.569E-01
   0.640E+02 0.330E+02 -.270E+04   -.631E+02 -.325E+02 0.270E+04   -.937E+00 -.509E+00 0.227E+01   0.356E-01 -.183E-01 -.320E-01
   0.536E+02 -.127E+02 -.277E+04   -.529E+02 0.131E+02 0.277E+04   -.675E+00 -.402E+00 0.251E+01   -.812E-02 0.162E-01 -.268E-03
   -.880E+01 -.111E+02 -.270E+04   0.852E+01 0.104E+02 0.269E+04   0.295E+00 0.663E+00 0.198E+01   -.296E-01 -.308E-01 -.155E-01
   0.250E+02 -.160E+02 -.275E+04   -.240E+02 0.165E+02 0.274E+04   -.985E+00 -.514E+00 0.161E+01   -.340E-01 -.434E-01 0.438E-01
   0.871E+02 -.602E+02 -.140E+04   -.860E+02 0.605E+02 0.140E+04   -.106E+01 -.290E+00 0.153E+01   -.610E-02 -.548E-01 0.184E+00
   -.538E+01 -.420E+02 -.144E+04   0.425E+01 0.416E+02 0.144E+04   0.116E+01 0.404E+00 0.274E+01   0.881E-02 -.122E-01 0.895E-01
   0.995E+02 -.578E+01 0.273E+04   -.980E+02 0.442E+01 -.272E+04   -.156E+01 0.140E+01 -.293E+01   0.138E-01 -.369E-01 0.790E-01
   -.674E+02 -.682E+02 0.177E+04   0.666E+02 0.688E+02 -.177E+04   0.904E+00 -.461E+00 0.154E+01   -.235E-01 -.171E-01 0.195E+00
   -.229E+02 0.267E+02 -.142E+04   0.239E+02 -.262E+02 0.142E+04   -.995E+00 -.331E+00 0.249E+01   -.226E-01 -.802E-01 0.137E+00
   -.678E+02 0.904E+02 0.291E+04   0.683E+02 -.892E+02 -.291E+04   -.487E+00 -.143E+01 -.227E+01   -.406E-02 -.110E-01 0.504E-01
   0.747E+02 -.276E+02 0.142E+04   -.744E+02 0.270E+02 -.142E+04   -.275E+00 0.494E+00 -.783E+00   -.510E-01 0.473E-01 0.270E+00
   0.830E+01 -.113E+02 -.272E+04   -.866E+01 0.115E+02 0.272E+04   0.358E+00 -.251E+00 0.206E+01   0.887E-02 0.110E-01 0.423E-01
   0.549E+02 0.628E+02 -.444E+02   -.546E+02 -.624E+02 0.436E+02   -.392E+00 -.548E+00 0.393E+00   -.332E-01 0.410E-01 0.311E+00
   -.156E+02 0.222E+02 -.278E+04   0.148E+02 -.224E+02 0.278E+04   0.826E+00 0.176E+00 0.242E+01   0.252E-01 0.472E-01 -.233E-02
   -.257E+02 0.966E+01 0.280E+03   0.246E+02 -.115E+02 -.279E+03   0.106E+01 0.172E+01 -.674E+00   0.933E-03 0.458E-01 0.237E+00
   -.856E+02 -.982E+01 -.142E+04   0.863E+02 0.860E+01 0.142E+04   -.722E+00 0.123E+01 0.259E+01   0.166E-01 0.407E-01 0.135E+00
   0.404E+02 0.134E+02 -.135E+04   -.411E+02 -.128E+02 0.135E+04   0.703E+00 -.563E+00 0.184E+01   -.901E-02 0.387E-01 0.173E+00
   -.302E+02 -.775E+02 -.294E+02   0.295E+02 0.771E+02 0.295E+02   0.806E+00 0.348E+00 -.223E+00   -.525E-02 -.235E-01 0.212E+00
   -.350E+02 -.168E+02 -.538E+01   0.354E+02 0.174E+02 0.470E+01   -.497E+00 -.734E+00 0.322E+00   0.383E-01 0.354E-01 0.322E+00
   0.599E+00 -.695E+00 -.108E+04   -.495E+00 0.813E+00 0.108E+04   -.109E+00 -.566E-01 0.201E+00   -.357E-02 -.641E-02 0.138E+00
   -.688E+02 0.802E+02 0.217E+04   0.698E+02 -.804E+02 -.216E+04   -.898E+00 0.478E-01 -.306E+01   0.275E-01 0.416E-01 0.614E-01
   0.796E+02 0.320E+02 0.223E+04   -.798E+02 -.333E+02 -.223E+04   0.390E+00 0.136E+01 -.279E+01   -.512E-01 0.312E-01 0.635E-01
   0.114E+03 0.433E+01 0.212E+04   -.113E+03 -.343E+01 -.212E+04   -.111E+01 -.880E+00 -.206E+01   -.267E-01 0.530E-01 0.627E-01
   0.813E+02 0.918E+02 0.119E+04   -.805E+02 -.909E+02 -.119E+04   -.822E+00 -.860E+00 0.591E-01   -.147E-01 -.893E-01 0.159E+00
   -.860E+01 -.113E+03 0.122E+04   0.871E+01 0.112E+03 -.121E+04   -.182E+00 0.552E+00 -.690E+00   0.156E-01 0.694E-01 0.202E+00
   -.719E+02 -.232E+02 -.117E+04   0.719E+02 0.233E+02 0.117E+04   0.281E-02 -.192E+00 0.151E+00   0.848E-02 0.562E-02 0.122E+00
   -.254E+03 -.241E+02 0.237E+04   0.251E+03 0.237E+02 -.237E+04   0.273E+01 0.435E+00 -.418E+01   0.535E-01 -.506E-01 0.198E-01
   -.319E+02 0.741E+02 0.121E+04   0.311E+02 -.736E+02 -.121E+04   0.834E+00 -.524E+00 -.604E+00   0.637E-02 -.973E-01 0.189E+00
   -.107E+03 -.253E+02 0.295E+02   0.107E+03 0.258E+02 -.294E+02   0.353E+00 -.543E+00 -.372E+00   0.987E-02 0.155E-01 0.205E+00
   0.906E+01 -.997E+02 -.121E+04   -.929E+01 0.996E+02 0.121E+04   0.240E+00 0.189E+00 0.421E+00   0.252E-01 -.215E-01 0.143E+00
   0.440E+02 0.135E+02 -.118E+04   -.441E+02 -.139E+02 0.118E+04   0.325E-01 0.316E+00 -.476E+00   0.726E-02 0.365E-01 0.144E+00
   -.834E+02 -.156E+03 0.230E+04   0.813E+02 0.153E+03 -.229E+04   0.206E+01 0.310E+01 -.374E+01   0.144E-01 0.304E-01 0.544E-01
   0.134E+02 -.513E+02 0.264E+04   -.136E+02 0.515E+02 -.263E+04   0.565E-01 -.213E+00 -.301E+01   -.153E-01 0.234E-01 -.252E-02
   0.233E+03 0.983E+02 0.254E+04   -.232E+03 -.958E+02 -.253E+04   -.642E+00 -.243E+01 -.314E+01   -.404E-01 -.290E-01 0.581E-01
   -.111E+03 -.739E+02 0.129E+04   0.111E+03 0.730E+02 -.129E+04   0.970E+00 0.941E+00 0.635E-01   0.254E-01 0.442E-01 0.207E+00
   -.137E+03 0.112E+02 0.352E+02   0.137E+03 -.113E+02 -.355E+02   -.151E-01 0.915E-02 0.191E-01   0.156E-01 0.453E-01 0.249E+00
   -.210E+03 -.160E+02 0.146E+04   0.211E+03 0.167E+02 -.146E+04   -.381E+00 -.830E+00 0.768E-01   0.719E-01 0.543E-01 0.210E+00
   0.663E+01 -.509E+01 0.131E+04   -.643E+01 0.482E+01 -.131E+04   -.142E+00 0.475E+00 -.394E+00   -.253E-01 -.836E-01 0.245E+00
   0.982E+02 0.327E+02 -.139E+04   -.978E+02 -.324E+02 0.139E+04   -.591E+00 -.332E+00 0.384E+00   0.370E-02 -.541E-01 0.116E+00
   0.773E+02 -.445E+02 0.263E+04   -.766E+02 0.447E+02 -.263E+04   -.693E+00 -.454E+00 -.314E+01   -.239E-01 0.105E+00 0.473E-01
   -.718E+02 -.921E+01 0.138E+04   0.717E+02 0.945E+01 -.138E+04   -.635E-01 -.397E+00 -.479E+00   0.588E-01 0.111E+00 0.269E+00
   0.576E+02 -.104E+03 -.251E+02   -.568E+02 0.104E+03 0.253E+02   -.799E+00 0.448E+00 -.470E+00   -.230E-01 -.370E-01 0.216E+00
   0.131E+03 0.942E+02 0.327E+04   -.131E+03 -.926E+02 -.327E+04   -.600E-01 -.149E+01 -.480E+01   -.313E-01 -.137E+00 0.756E-03
   0.369E+02 -.215E+02 0.180E+04   -.371E+02 0.212E+02 -.180E+04   0.241E+00 0.354E+00 0.439E+00   -.877E-02 -.803E-01 0.224E+00
   0.240E+03 -.350E+02 0.132E+04   -.240E+03 0.354E+02 -.132E+04   0.487E+00 -.506E+00 0.681E+00   -.554E-01 0.727E-01 0.282E+00
   0.303E+02 0.115E+03 0.152E+03   -.309E+02 -.115E+03 -.152E+03   0.538E+00 -.387E+00 -.400E+00   0.170E-01 -.307E-01 0.228E+00
   0.120E+02 0.836E+02 -.158E+04   -.116E+02 -.835E+02 0.158E+04   -.431E+00 -.997E-01 0.475E+00   -.332E-01 -.515E-01 0.154E+00
[...]
   -.148E+03 -.407E+02 0.148E+04   0.148E+03 0.411E+02 -.148E+04   0.333E+00 -.377E+00 -.654E+00   0.889E-01 -.685E-01 0.242E+00
   -.807E+02 -.130E+02 0.153E+04   0.812E+02 0.127E+02 -.153E+04   -.567E+00 0.348E+00 -.720E+00   0.476E-02 -.382E-01 0.193E+00
   -.234E+03 -.102E+03 0.295E+04   0.233E+03 0.101E+03 -.294E+04   0.115E+01 0.951E+00 -.330E+01   0.125E+00 0.153E-01 0.509E-02
   0.145E+03 -.764E+02 0.285E+04   -.145E+03 0.767E+02 -.285E+04   0.404E+00 -.154E+00 -.794E+00   -.913E-01 0.450E-01 0.542E-01
   0.424E+02 -.261E+02 0.149E+04   -.420E+02 0.260E+02 -.149E+04   -.346E+00 0.665E-01 0.166E+00   -.691E-01 0.947E-01 0.326E+00
   0.123E+03 0.269E+02 0.137E+04   -.122E+03 -.270E+02 -.137E+04   -.953E+00 0.270E+00 -.815E+00   -.238E-01 -.484E-01 0.268E+00
   -.231E+02 -.262E+02 -.151E+04   0.231E+02 0.265E+02 0.151E+04   0.410E-01 -.254E+00 -.992E-02   0.822E-02 0.424E-02 0.146E+00
   -.272E+02 0.268E+02 0.292E+04   0.275E+02 -.259E+02 -.291E+04   -.299E+00 -.659E+00 -.173E+01   0.316E-01 -.136E+00 0.119E-01
   -.383E+02 0.166E+03 0.161E+02   0.384E+02 -.166E+03 -.157E+02   -.143E+00 0.105E+00 -.698E+00   0.374E-02 -.355E-01 0.225E+00
   -.169E+02 0.529E+02 -.778E+02   0.168E+02 -.521E+02 0.774E+02   0.120E+00 -.931E+00 -.609E-01   -.789E-02 0.677E-01 0.303E+00
   0.163E+03 -.493E+00 -.191E+03   -.163E+03 0.114E+01 0.191E+03   0.429E-02 -.708E+00 -.497E+00   -.733E-02 0.665E-01 0.278E+00
   -.475E+02 -.971E+02 0.562E+02   0.470E+02 0.968E+02 -.563E+02   0.452E+00 0.400E+00 -.107E+00   0.553E-02 -.291E-01 0.210E+00
   0.555E+00 0.304E+01 -.318E+03   -.513E+00 -.306E+01 0.319E+03   -.802E-01 0.158E-01 -.124E+01   0.353E-02 0.431E-03 -.724E-02
   -.346E+01 -.105E+01 -.322E+03   0.357E+01 0.102E+01 0.323E+03   -.105E+00 0.482E-01 -.131E+01   0.623E-03 -.284E-02 -.749E-02
   -.318E+01 0.545E+00 -.353E+01   -.405E-12 0.368E-12 0.123E-10   0.317E+01 -.347E+00 -.734E+01   0.131E-01 -.222E+00 0.108E+02

 POSITION                                       TOTAL-FORCE (eV/Angst)
     13.67262      8.47307      6.70395         0.001549     -0.001371     -0.005520
      5.25418      8.47054      6.60090        -0.017635      0.007825      0.006434
      5.14624      3.52515      6.90859         0.011355      0.003891     -0.002541
     15.13841      9.26729      8.91961        -0.012907     -0.007717      0.006636
      3.83439      4.48955      9.08965        -0.009355      0.011645      0.001655
      6.69552      9.18805      8.95803        -0.012115      0.003719     -0.006881
     12.30462      4.40151      9.15607        -0.000049     -0.006579     -0.006737
      9.52447      9.22875      9.11209         0.008384     -0.000340      0.006582
     10.88500      2.00134      8.99476        -0.005261     -0.007091     -0.001628
      2.59921      2.03134      9.11700        -0.011917     -0.009150      0.004438
     12.34287      9.19383      9.08296         0.001005      0.001992     -0.000370
     13.73129      6.85950      9.07157         0.003435     -0.010048      0.003007
      5.28451      1.96046      9.16871        -0.002430     -0.001393     -0.001775
      8.09884      6.84676      8.95869         0.008806     -0.005313     -0.001883
      9.51865      4.41353      9.05561         0.000987      0.002337     -0.004208
      5.25695      6.84594      9.02167        -0.011870     -0.008956     -0.009307
      8.18077      1.98974      9.05313        -0.011836      0.001546     -0.006827
      8.10280      3.61398      6.82191         0.002131      0.003000     -0.007838
      6.62311      1.13473      6.86826        -0.001183     -0.004292     -0.018104
      6.85997      1.05619      1.30452         0.001894     -0.013094      0.001264
      3.43490      4.14022      2.70460         0.007994      0.011660      0.021061
      1.26914      1.21775      6.83882         0.007129     -0.005008     -0.000856
      0.89096      1.08547      0.91422         0.030697      0.024119     -0.001103
      6.76854      9.20926      3.10248         0.013728      0.016116     -0.000998
      6.67110      4.44007      9.05219         0.004893     -0.015869      0.003374
      8.14659      5.43358      4.84371        -0.026627      0.006875     -0.016022
     10.85885      6.82299      9.07810         0.004441      0.007577      0.003131
     14.90317      7.35364      4.60198         0.023625     -0.016161     -0.049700
     12.36240      5.98009      6.93745         0.004006     -0.002931     -0.001019
      6.49775      6.00355      6.78379        -0.000228     -0.012892      0.006461
      3.61430      2.58306      4.95012         0.006395      0.005582      0.002601
     10.86385      5.33986      4.86887        -0.018003     -0.016564     -0.038927
      3.86734      6.08027      6.90500        -0.001969     -0.013839      0.008370
     13.70592      8.36565      1.41581        -0.012373      0.002131     -0.007980
      5.33677      8.27602      1.23892        -0.005101     -0.006622     -0.046737
      4.13554      6.22470      1.46246        -0.003877      0.004580      0.008851
      8.34268      2.24715      2.95426        -0.012426     -0.008719      0.004750
      9.56642      9.21763      2.98551         0.008974     -0.004444      0.007351
      2.42845      3.66245      7.03123         0.002756     -0.003213     -0.001000
     12.99964      3.45759      0.96035        -0.007058      0.004932     -0.009171
     10.86191      2.01860      2.94877         0.017963      0.000385     -0.005229
     13.56226      5.11862      4.86453        -0.005132     -0.017376     -0.016110
      3.95931      1.03561      7.03463         0.008762      0.012975      0.005713
      9.51249      5.98763      7.00379         0.007594     -0.000114      0.003972
      3.61805      0.95781      1.13737         0.005353     -0.008060     -0.013783
      9.46777      6.02936      1.09765        -0.018992     -0.006242      0.020444
      5.47508      4.09678      1.29215         0.017463     -0.011054     -0.004292
     12.17188      9.01006      3.09748         0.022180      0.017708     -0.027865
     12.23201      7.52981      4.84967         0.008022     -0.002260     -0.008287
     13.20191      6.51639      2.86005         0.006984     -0.004225     -0.010325
      9.43936      4.48143      2.88198         0.034320      0.022894     -0.011448
      8.32750      8.56021      6.98766         0.015679     -0.007674      0.010347
      8.21587      8.51474      1.04613         0.013689     -0.012315      0.021467
     10.79730      6.95699      2.87721        -0.010500     -0.016798      0.005375
      2.74728      0.16957      5.01634        -0.026611      0.028351      0.040081
      8.01211      3.68639      0.93635         0.024463      0.006739      0.007904
      5.15117      2.01811      2.93976         0.003359     -0.009844      0.003819
      5.82064      6.71680      3.33353        -0.002360     -0.004288      0.015249
      8.08961      0.55272      4.82086        -0.014606      0.019314      0.057901
      9.52098      1.22154      6.84097        -0.020813     -0.006688      0.002474
[...]
      6.61860      2.70072      4.85414         0.009591     -0.036445      0.052132
     12.00438      4.22973      2.91463        -0.006447     -0.011893     -0.001710
      2.29947      1.81745      2.96062         0.004995     -0.003366     -0.008393
     11.89741      5.74769      1.03654        -0.007873      0.015763     -0.001837
      6.86693      6.06581      1.23796         0.025894     -0.016383      0.003570
      8.32773      7.03578      2.95620         0.016097      0.009749     -0.019094
      6.88302      4.26924      3.03792        -0.007980     -0.013315      0.014987
     10.94348      3.71586      6.99333         0.001992      0.008177     -0.005240
     10.59153      3.44288      1.02771        -0.009218      0.018413     -0.002192
     10.97701      0.65866      4.91478        -0.024208     -0.000503     -0.008119
      9.65018      7.71810      5.00765         0.005009      0.007923     -0.021571
      7.13050      7.75542      5.09564        -0.030920      0.037472     -0.019530
      5.25728      0.25492      4.92126         0.035917      0.029351      0.049570
      1.08272      1.12414      9.77473        -0.035742     -0.001100      0.000208
      6.76272      1.14176      9.92012         0.006378      0.021014      0.007427
    total drift:                                0.001925     -0.023117     -0.039802

  FREE ENERGIE OF THE ION-ELECTRON SYSTEM (eV)
  free  energy   TOTEN  =      -505.44132888 eV

  energy  without entropy=     -505.45353133  energy(sigma->0) =     -505.44539637

 d Force = 0.1131225E-02[ 0.600E-03, 0.166E-02]  d Energy = 0.1228173E-02-0.969E-04
 d Force = 0.4829707E+01[ 0.482E+01, 0.484E+01]  d Ewald  = 0.4829709E+01-0.220E-05

 Conjugate gradient step on ions:
 trial-energy change:   -0.001228  1 .order   -0.001131   -0.001663   -0.000600
  (g-gl).g = 0.983E-03      g.g   = 0.107E-02  gl.gl    = 0.387E-02
 g(Force)  = 0.107E-02   g(Stress)= 0.000E+00 ortho     = 0.784E-04
 gamma     =   0.25422
 trial     =   1.52484
 opt step  =   2.02311  (harmonic =   2.38479) maximal distance =0.00381265
 next E    =  -505.441430   (d E  =  -0.00133)

 reached required accuracy - stopping structural energy minimisation