 vasp.5.4.4.18Apr17-6-g9f103f2a35 (build Oct 25 2019 11:13:22) complex

 executed on             LinuxIFC date 2022.02.12  05:50:24

 INCAR:
 POTCAR:    PAW_PBE Pt 04Feb2005
 POTCAR:    PAW_PBE Co 02Aug2007
 POTCAR:    PAW_PBE Ni 02Aug2007
 POTCAR:    PAW_PBE H 15Jun2001
 POTCAR:    PAW_PBE Pt 04Feb2005
   VRHFIN =Pt: s1d9

   TITEL  = PAW_PBE Pt 04Feb2005
   POMASS =  195.080; ZVAL   =   10.000    mass and valenz
   ENMAX  =  230.283; ENMIN  =  172.712 eV

 POTCAR:    PAW_PBE Co 02Aug2007
   VRHFIN =Co: d8 s1

   TITEL  = PAW_PBE Co 02Aug2007
   POMASS =   58.933; ZVAL   =    9.000    mass and valenz
   ENMAX  =  267.968; ENMIN  =  200.976 eV

 POTCAR:    PAW_PBE Ni 02Aug2007
   VRHFIN =Ni:

   TITEL  = PAW_PBE Ni 02Aug2007
   POMASS =   58.690; ZVAL   =   10.000    mass and valenz
   ENMAX  =  269.532; ENMIN  =  202.149 eV

 POTCAR:    PAW_PBE H 15Jun2001
   VRHFIN =H: ultrasoft test

   TITEL  = PAW_PBE H 15Jun2001
   POMASS =    1.000; ZVAL   =    1.000    mass and valenz
   ENMAX  =  250.000; ENMIN  =  200.000 eV

 Optimization of the real space projectors (new method)

 maximal supplied QI-value         = 14.36
 optimisation between [QCUT,QGAM] = [ 11.92, 23.98] = [ 39.79,161.09] Ry
 Optimized for a Real-space Cutoff    1.49 Angstroem

   l    n(q)    QCUT    max X(q) W(low)/X(q) W(high)/X(q)  e(spline)
   2     10    11.920    66.195    0.79E-04    0.18E-03    0.24E-06
   2     10    11.920    64.643    0.81E-04    0.19E-03    0.24E-06
   0     11    11.920    95.520    0.28E-04    0.54E-04    0.18E-06
   0     11    11.920    63.403    0.27E-04    0.52E-04    0.17E-06
   1     10    11.920    19.961    0.18E-04    0.11E-03    0.23E-06
   1     10    11.920    13.289    0.25E-04    0.87E-04    0.19E-06
 Optimization of the real space projectors (new method)

[...]

   l    n(q)    QCUT    max X(q) W(low)/X(q) W(high)/X(q)  e(spline)
   2      9    11.864    60.317    0.21E-03    0.51E-03    0.25E-06
   2      9    11.864    55.921    0.21E-03    0.51E-03    0.26E-06
   0      9    11.864    51.690    0.22E-03    0.30E-04    0.17E-06
   0      9    11.864    30.015    0.20E-03    0.28E-04    0.15E-06
   1      9    11.864    18.849    0.76E-04    0.33E-03    0.17E-06
   1      9    11.864    14.624    0.60E-04    0.28E-03    0.15E-06
 Optimization of the real space projectors (new method)

 maximal supplied QI-value         = 34.20
 optimisation between [QCUT,QGAM] = [ 11.97, 23.94] = [ 40.13,160.53] Ry
 Optimized for a Real-space Cutoff    1.18 Angstroem

   l    n(q)    QCUT    max X(q) W(low)/X(q) W(high)/X(q)  e(spline)
   0      8    11.971    19.460    0.15E-03    0.31E-03    0.25E-06
   0      8    11.971    12.209    0.13E-03    0.29E-03    0.25E-06
   1      8    11.971     4.655    0.22E-03    0.24E-03    0.21E-06
  PAW_PBE Pt 04Feb2005                  :
  PAW_PBE Co 02Aug2007                  :
  PAW_PBE Ni 02Aug2007                  :
  PAW_PBE H 15Jun2001                   :

 POSCAR: 11.26
  positions in direct lattice
  velocities in cartesian coordinates
 exchange correlation table for  LEXCH =        8
   RHO(1)=    0.500       N(1)  =     2000
   RHO(2)=  100.500       N(2)  =     4000

 ion  position               nearest neighbor table
   1  0.789  0.879  0.301-  49 2.47  59 2.56  60 2.64  28 2.69   4 2.73   2 2.74  29 2.75  19 2.80
                            11 2.85  12 2.85  61 2.89  33 2.94
   2  0.033  0.879  0.293-  79 2.49  77 2.57  60 2.72   1 2.74  28 2.76   4 2.81   6 2.89  30 2.90
                            16 2.94  33 2.99  22 3.17  52 3.23
   3  0.276  0.362  0.311-  64 2.54  68 2.62  31 2.63  39 2.67  33 2.70   5 2.71  30 2.76  13 2.76
                            25 2.78  19 2.81  43 2.82  18 2.87
   4  0.875  0.964  0.400-  60 2.71   9 2.72  17 2.72   1 2.73   6 2.79  16 2.79  12 2.81   2 2.81
                            11 2.83
   5  0.113  0.467  0.410-  39 2.60  33 2.70   3 2.71  12 2.72  16 2.73  10 2.76   7 2.77  25 2.85
                            13 2.98
   6  0.125  0.959  0.400-  52 2.62  22 2.70   4 2.79   8 2.83  16 2.86   9 2.88   2 2.89  10 2.90
                            14 2.91
   7  0.873  0.455  0.412-  75 2.54  39 2.58   5 2.77  10 2.79  27 2.80   9 2.80  29 2.82  15 2.84
                            12 2.93
   8  0.377  0.956  0.415-  43 2.53  52 2.56  61 2.68  13 2.75  27 2.80  11 2.81   6 2.83  10 2.84
                            14 2.90
   9  0.864  0.211  0.396-  75 2.60  22 2.67   4 2.72  17 2.73  15 2.74  60 2.77   7 2.80   6 2.88
                            10 3.01
  10  0.129  0.214  0.413-  22 2.64  43 2.69  13 2.72   5 2.76  39 2.77   7 2.79   8 2.84   6 2.90
                             9 3.01
  11  0.629  0.952  0.410-  61 2.65  12 2.71  19 2.73  27 2.76  17 2.79  13 2.81   8 2.81   4 2.83
                             1 2.85
  12  0.875  0.714  0.408-  29 2.66  16 2.68  11 2.71   5 2.72   4 2.81  33 2.81  27 2.83   1 2.85
                             7 2.93
  13  0.378  0.200  0.413-  43 2.70  10 2.72  19 2.73   8 2.75   3 2.76  25 2.78  17 2.80  11 2.81
                             5 2.98
  14  0.381  0.696  0.403-  81 2.04  52 2.55  44 2.56  15 2.69  25 2.81  27 2.84  30 2.88  16 2.90
                             8 2.90   6 2.91
  15  0.620  0.456  0.399-  75 2.53  44 2.61  14 2.69   9 2.74  25 2.79  17 2.83   7 2.84  18 2.85
                            27 2.87
  16  0.116  0.709  0.404-  81 1.74  12 2.68  30 2.69   5 2.73  33 2.76   4 2.79   6 2.86  14 2.90
                            25 2.92   2 2.94
  17  0.627  0.201  0.404-  18 2.69   4 2.72   9 2.73  19 2.79  11 2.79  25 2.79  13 2.80  60 2.82
                            15 2.83
  18  0.538  0.348  0.301-  67 2.46  26 2.59  68 2.67  17 2.69  60 2.69  19 2.70  25 2.82  15 2.85
                             3 2.87  30 2.95  75 3.20
  19  0.527  0.113  0.308-  59 2.47  80 2.51  68 2.57  43 2.61  61 2.63  18 2.70  13 2.73  11 2.73
                            17 2.79   1 2.80   3 2.81  60 2.92
  20  0.546  0.126  0.067-  48 2.50  57 2.52  47 2.52  62 2.53  37 2.60  56 2.66  34 2.70  63 2.89

  21  0.118  0.408  0.119-  47 2.44  40 2.48  36 2.49  69 2.60  57 2.64  42 2.67  64 2.70  70 2.72
                            31 2.74  50 3.30
  22  0.055  0.148  0.310-  77 2.43  65 2.51  55 2.51  43 2.57  39 2.62  10 2.64   9 2.67   6 2.70
                            75 2.90  31 3.04  52 3.05   2 3.17  60 3.23
  23  0.009  0.102  0.049-  40 2.49  62 2.55  70 2.57  41 2.59  45 2.66  76 2.69  24 2.70  35 2.74
                            53 3.07
  24  0.138  0.927  0.142-  79 2.46  35 2.50  77 2.54  58 2.54  53 2.56  55 2.59  38 2.59  73 2.64
                            70 2.65  23 2.70  66 2.83
  25  0.376  0.448  0.407-  81 1.72  30 2.76  13 2.78   3 2.78  15 2.79  17 2.79  14 2.81  18 2.82
                             5 2.85  16 2.92
  26  0.480  0.554  0.230-  74 2.50  73 2.52  44 2.52  51 2.59  18 2.59  79 2.60  78 2.62  30 2.63
                            32 2.66  67 2.70
  27  0.627  0.707  0.413-  44 2.49  61 2.70  11 2.76   7 2.80   8 2.80  29 2.80  12 2.83  14 2.84
                            15 2.87
  28  0.953  0.759  0.204-  58 2.53  50 2.61  66 2.61  42 2.62  36 2.63  33 2.66   1 2.69   2 2.76
                            64 2.80  49 2.88  34 3.22  59 3.23  35 3.30
  29  0.797  0.631  0.311-  39 2.59  32 2.61  49 2.62  75 2.62  42 2.63  33 2.64  44 2.65  12 2.66
                             1 2.75  27 2.80   7 2.82  61 2.84
  30  0.274  0.608  0.304-  79 2.43  33 2.60  26 2.63  64 2.65  16 2.69  25 2.76   3 2.76  14 2.88
                             2 2.90  18 2.95  52 3.26
  31  0.187  0.262  0.225-  70 2.52  57 2.57  65 2.58  55 2.59  39 2.62   3 2.63  43 2.63  42 2.72
                            80 2.73  21 2.74  68 2.76  64 2.79  22 3.04
  32  0.711  0.561  0.214-  69 2.53  51 2.56  54 2.61  29 2.61  49 2.62  26 2.66  65 2.66  50 2.66
                            42 2.68  75 2.69  78 2.71  67 2.73  44 2.73
  33  0.042  0.609  0.305-  42 2.47  64 2.50  39 2.51  30 2.60  29 2.64  28 2.66   5 2.70   3 2.70
                            16 2.76  12 2.81   1 2.94   2 2.99
  34  0.782  0.884  0.080-  48 2.38  35 2.38  50 2.53  66 2.54  36 2.55  62 2.67  20 2.70  28 3.22

  35  0.002  0.866  0.072-  36 2.37  34 2.38  66 2.43  24 2.50  58 2.60  23 2.74  62 2.75  28 3.30

  36  0.006  0.657  0.094-  50 2.33  35 2.37  58 2.38  21 2.49  34 2.55  28 2.63
  37  0.628  0.234  0.150-  41 2.41  56 2.42  59 2.43  67 2.44  62 2.45  68 2.50  51 2.50  74 2.51
                            20 2.60  66 2.60
  38  0.361  0.942  0.135-  53 2.40  45 2.41  63 2.42  57 2.43  48 2.45  55 2.45  54 2.46  78 2.48
                            80 2.54  73 2.59  24 2.59  70 2.83
  39  0.024  0.396  0.316-  42 2.46  33 2.51   7 2.58  75 2.58  65 2.58  29 2.59   5 2.60  31 2.62
                            22 2.62   3 2.67  10 2.77
  40  0.013  0.321  0.044-  69 2.32  76 2.45  21 2.48  23 2.49  70 2.51  45 2.63  71 2.93
  41  0.844  0.228  0.139-  67 2.35  76 2.37  77 2.38  37 2.41  62 2.44  51 2.48  69 2.48  66 2.49
                            65 2.58  23 2.59  70 2.61
  42  0.967  0.520  0.219-  39 2.46  33 2.47  50 2.48  64 2.48  65 2.50  28 2.62  29 2.63  69 2.65
                            21 2.67  32 2.68  31 2.72
  43  0.303  0.099  0.319-  52 2.45  80 2.46  55 2.51   8 2.53  61 2.56  22 2.57  19 2.61  31 2.63
                            10 2.69  13 2.70   3 2.82
  44  0.553  0.648  0.317-  61 2.45  78 2.47  27 2.49  26 2.52  14 2.56  52 2.57  15 2.61  29 2.65
                            75 2.73  32 2.73
  45  0.251  0.091  0.049-  38 2.41  57 2.45  53 2.48  70 2.50  63 2.54  40 2.63  23 2.66
  46  0.529  0.612  0.047-  54 2.37  73 2.44  51 2.45  71 2.47  72 2.53  53 2.63  56 2.72  76 2.87
                            63 3.07
  47  0.334  0.361  0.072-  74 2.29  56 2.44  21 2.44  57 2.50  72 2.50  20 2.52
  48  0.581  0.937  0.137-  49 2.29  63 2.35  34 2.38  54 2.38  80 2.38  38 2.45  59 2.46  20 2.50
                            57 2.63  50 2.74
  49  0.677  0.809  0.223-  48 2.29  50 2.34  61 2.46  78 2.47   1 2.47  59 2.54  80 2.57  29 2.62
                            32 2.62  54 2.79  28 2.88
  50  0.810  0.679  0.140-  36 2.33  49 2.34  54 2.38  71 2.39  42 2.48  69 2.52  34 2.53  28 2.61
                            32 2.66  48 2.74  21 3.30
  51  0.629  0.454  0.133-  56 2.40  76 2.44  46 2.45  41 2.48  37 2.50  67 2.53  32 2.56  26 2.59
                            74 2.59  69 2.66  73 2.78  54 2.83
  52  0.320  0.872  0.317-  55 2.38  79 2.41  61 2.43  43 2.45  78 2.46  14 2.55   8 2.56  44 2.57
                             6 2.62  22 3.05   2 3.23  30 3.26
  53  0.299  0.850  0.050-  73 2.39  38 2.40  45 2.48  24 2.56  63 2.58  46 2.63  72 2.82  23 3.07

  54  0.581  0.726  0.124-  46 2.37  50 2.38  48 2.38  73 2.40  71 2.42  63 2.42  38 2.46  78 2.50
                            32 2.61  49 2.79  51 2.83
  55  0.229  0.013  0.230-  52 2.38  80 2.44  79 2.44  38 2.45  43 2.51  22 2.51  78 2.56  24 2.59
                            31 2.59  77 2.61  70 2.62
  56  0.549  0.361  0.055-  51 2.40  37 2.42  47 2.44  74 2.52  76 2.56  62 2.60  72 2.61  20 2.66
                            46 2.72
  57  0.344  0.167  0.132-  38 2.43  45 2.45  80 2.47  47 2.50  20 2.52  68 2.55  31 2.57  48 2.63
[...]
   -.669E+02 -.489E+02 -.147E+04   0.657E+02 0.493E+02 0.147E+04   0.108E+01 -.453E+00 0.180E+01   0.442E-01 0.617E-01 0.281E-02
   -.385E+02 0.128E+02 -.270E+04   0.389E+02 -.122E+02 0.270E+04   -.471E+00 -.523E+00 0.161E+01   0.203E-01 -.251E-01 -.212E-01
   -.735E+02 -.298E+02 -.283E+04   0.721E+02 0.303E+02 0.282E+04   0.144E+01 -.442E+00 0.265E+01   0.156E-01 0.158E-02 0.317E-01
   0.998E+02 0.137E+02 -.270E+04   -.993E+02 -.141E+02 0.270E+04   -.424E+00 0.488E+00 0.210E+01   -.856E-01 -.587E-01 -.491E-01
   0.135E+02 0.676E+01 -.291E+04   -.134E+02 -.774E+01 0.291E+04   -.967E-01 0.909E+00 0.274E+01   0.151E-01 0.511E-01 0.369E-01
   0.466E+02 0.279E+01 -.297E+04   -.470E+02 -.234E+01 0.296E+04   0.431E+00 -.387E+00 0.333E+01   0.299E-01 -.345E-01 0.263E-01
   0.210E+02 0.709E+02 -.272E+04   -.218E+02 -.705E+02 0.272E+04   0.816E+00 -.452E+00 0.200E+01   -.412E-01 0.284E-01 0.681E-01
   0.588E+02 0.734E+01 -.288E+04   -.577E+02 -.705E+01 0.288E+04   -.104E+01 -.312E+00 0.264E+01   -.248E-01 0.545E-01 0.668E-01
   -.976E+02 -.203E+02 -.284E+04   0.973E+02 0.198E+02 0.283E+04   0.309E+00 0.569E+00 0.170E+01   -.484E-02 -.315E-01 -.523E-02
   -.622E+02 -.342E+02 -.279E+04   0.623E+02 0.341E+02 0.278E+04   -.767E-01 0.157E-01 0.185E+01   0.217E-01 0.220E-01 -.245E-01
   -.468E+02 -.700E+02 -.286E+04   0.467E+02 0.693E+02 0.286E+04   0.154E+00 0.676E+00 0.215E+01   0.471E-01 -.386E-02 0.462E-01
   0.110E+03 0.567E+02 -.275E+04   -.108E+03 -.560E+02 0.275E+04   -.188E+01 -.686E+00 0.243E+01   -.278E-01 -.126E-01 -.218E-01
   0.875E+02 0.396E+02 -.273E+04   -.867E+02 -.390E+02 0.273E+04   -.795E+00 -.623E+00 0.210E+01   -.239E-01 0.502E-01 0.256E-01
   -.149E+02 -.371E+02 -.269E+04   0.143E+02 0.369E+02 0.269E+04   0.492E+00 0.194E+00 0.797E+00   0.285E-01 -.753E-01 -.314E-01
   -.365E+02 -.160E+02 -.277E+04   0.364E+02 0.159E+02 0.276E+04   0.168E+00 0.226E-01 0.187E+01   -.457E-01 0.127E-01 0.106E-01
   0.465E+02 -.636E+02 -.133E+04   -.454E+02 0.626E+02 0.132E+04   -.942E+00 0.877E+00 0.194E+01   -.413E-01 0.606E-01 0.609E-01
   -.110E+03 -.836E+02 -.148E+04   0.109E+03 0.831E+02 0.147E+04   0.122E+01 0.489E+00 0.231E+01   0.560E-01 0.130E-01 0.840E-01
   0.595E+02 0.536E+02 0.278E+04   -.587E+02 -.535E+02 -.278E+04   -.653E+00 -.427E+00 -.193E+01   -.835E-01 0.200E+00 0.280E-01
   -.119E+03 -.145E+03 0.197E+04   0.119E+03 0.145E+03 -.197E+04   -.142E+00 -.361E+00 0.136E+01   0.254E+00 0.265E-01 0.573E-01
   0.751E+02 0.688E+02 -.153E+04   -.743E+02 -.684E+02 0.153E+04   -.797E+00 -.398E+00 0.175E+01   -.383E-01 -.105E-01 0.900E-01
   0.797E+01 0.189E+03 0.297E+04   -.760E+01 -.187E+03 -.296E+04   -.216E+00 -.164E+01 -.200E+01   -.482E-01 -.128E+00 0.447E-01
   0.159E+03 0.263E+02 0.147E+04   -.158E+03 -.271E+02 -.147E+04   -.766E+00 0.966E+00 -.396E+00   -.178E-03 -.115E+00 0.553E-02
   -.195E+02 -.175E+02 -.275E+04   0.196E+02 0.172E+02 0.275E+04   -.103E+00 0.262E+00 0.778E+00   -.105E-01 0.372E-01 0.192E-01
   0.114E+03 0.892E+02 -.233E+03   -.114E+03 -.889E+02 0.233E+03   -.574E-01 -.250E+00 0.137E+00   -.767E-01 -.407E-02 -.139E-02
   -.152E+02 0.432E+02 -.292E+04   0.151E+02 -.428E+02 0.292E+04   0.912E-01 -.414E+00 0.268E+01   0.244E-01 0.564E-02 -.257E-01
   -.475E+02 -.454E+02 0.332E+03   0.473E+02 0.442E+02 -.333E+03   0.172E+00 0.123E+01 -.956E-01   0.898E-01 -.522E-01 0.733E-01
   -.862E+02 -.529E+02 -.144E+04   0.867E+02 0.523E+02 0.144E+04   -.449E+00 0.606E+00 0.200E+01   -.364E-01 0.400E-01 0.877E-01
   0.128E+02 0.840E+01 -.136E+04   -.136E+02 -.783E+01 0.136E+04   0.783E+00 -.508E+00 0.226E+01   -.427E-01 -.135E-01 0.479E-02
   -.683E+02 -.102E+03 -.254E+02   0.679E+02 0.102E+03 0.251E+02   0.425E+00 0.538E+00 0.313E+00   0.902E-01 0.583E-01 -.173E-01
   -.212E+02 -.293E+02 0.127E+03   0.218E+02 0.293E+02 -.128E+03   -.538E+00 -.791E-01 0.819E+00   -.644E-01 0.371E-01 0.548E-01
   -.724E+02 -.124E+03 -.121E+04   0.724E+02 0.123E+03 0.121E+04   -.165E-01 0.893E+00 0.770E+00   0.613E-01 -.300E-03 0.379E-01
   -.244E+01 0.110E+03 0.236E+04   0.367E+01 -.110E+03 -.236E+04   -.112E+01 -.359E+00 -.153E+01   0.468E-01 -.576E-02 0.467E-01
   0.751E+01 0.138E+03 0.248E+04   -.876E+01 -.137E+03 -.248E+04   0.105E+01 -.763E+00 -.242E+01   0.134E+00 -.637E-01 0.387E-01
   -.808E+01 0.875E+02 0.223E+04   0.780E+01 -.859E+02 -.223E+04   0.683E-01 -.139E+01 -.215E+01   0.158E+00 -.555E-01 0.657E-01
   0.126E+03 0.691E+02 0.108E+04   -.126E+03 -.693E+02 -.108E+04   -.285E+00 0.169E-01 0.207E-01   -.578E-01 0.921E-01 0.323E-01
   0.496E+02 -.599E+02 0.143E+04   -.491E+02 0.599E+02 -.143E+04   -.520E+00 0.167E-01 -.343E+00   -.299E-01 -.398E-01 0.134E-01
   -.723E+02 0.974E+01 -.140E+04   0.722E+02 -.958E+01 0.140E+04   0.142E+00 -.308E+00 0.282E+00   0.257E-01 0.646E-01 0.792E-01
   -.256E+03 -.128E+03 0.278E+04   0.255E+03 0.126E+03 -.277E+04   0.150E+01 0.153E+01 -.399E+01   0.461E-01 -.165E-01 0.334E-01
   -.161E+02 0.994E+02 0.132E+04   0.158E+02 -.992E+02 -.132E+04   0.447E+00 -.242E+00 -.669E+00   -.504E-01 -.796E-02 0.487E-01
   -.994E+02 -.867E+02 0.137E+03   0.992E+02 0.868E+02 -.137E+03   0.489E-01 -.171E+00 -.324E+00   0.818E-01 0.570E-01 0.550E-01
   0.146E+02 -.132E+03 -.147E+04   -.148E+02 0.132E+03 0.147E+04   0.168E+00 0.501E+00 0.296E+00   0.444E-01 0.365E-01 0.854E-01
   0.863E+02 0.132E+03 -.141E+04   -.864E+02 -.132E+03 0.141E+04   0.514E-02 -.637E+00 -.641E+00   -.110E-01 0.514E-02 0.446E-01
   -.797E+02 -.138E+03 0.273E+04   0.779E+02 0.137E+03 -.272E+04   0.157E+01 0.162E+01 -.329E+01   0.545E-01 -.540E-01 0.608E-01
   0.171E+02 -.253E+02 0.276E+04   -.175E+02 0.254E+02 -.276E+04   0.398E+00 -.128E+00 -.330E+01   -.101E+00 0.276E-02 0.615E-01
   0.227E+03 -.401E+02 0.247E+04   -.226E+03 0.398E+02 -.247E+04   -.130E+01 0.261E+00 -.199E+01   0.482E-01 0.637E-01 0.526E-01
   -.186E+03 -.298E+02 0.146E+04   0.186E+03 0.299E+02 -.146E+04   0.256E+00 -.240E-01 0.220E+00   -.907E-01 0.254E-01 0.874E-01
   -.192E+03 0.593E+02 0.678E+01   0.191E+03 -.589E+02 -.643E+01   0.348E+00 -.382E+00 -.485E+00   0.348E-02 -.145E-01 0.803E-01
   -.188E+03 -.405E+02 0.139E+04   0.189E+03 0.410E+02 -.139E+04   -.715E-01 -.425E+00 0.479E+00   -.121E-01 -.194E-01 0.991E-01
   0.274E+02 -.684E+02 0.135E+04   -.273E+02 0.680E+02 -.135E+04   -.388E-01 0.504E+00 -.554E-01   -.109E+00 0.335E-01 0.536E-01
   0.196E+03 0.475E+02 -.147E+04   -.195E+03 -.475E+02 0.147E+04   -.707E+00 0.195E+00 0.169E-01   0.221E-01 -.115E+00 0.517E-01
   0.180E+03 0.585E+01 0.274E+04   -.178E+03 -.589E+01 -.273E+04   -.187E+01 0.994E-01 -.327E+01   -.371E-01 -.653E-01 0.780E-01
   -.970E+02 0.354E+02 0.159E+04   0.972E+02 -.351E+02 -.159E+04   -.187E+00 -.418E+00 0.301E+00   -.861E-01 -.460E-02 0.552E-01
   0.113E+03 -.564E+02 -.999E+02   -.113E+03 0.564E+02 0.100E+03   -.365E+00 0.104E+00 -.164E+00   -.128E-01 -.569E-01 -.309E-01
   0.134E+03 0.308E+02 0.297E+04   -.134E+03 -.304E+02 -.297E+04   -.151E+00 -.310E+00 -.149E+01   -.172E+00 0.696E-01 0.697E-01
   -.531E+02 -.163E+03 0.172E+04   0.530E+02 0.163E+03 -.172E+04   -.559E-01 0.334E+00 0.140E+00   0.681E-01 0.993E-01 -.770E-02
   0.192E+03 -.899E+01 0.133E+04   -.192E+03 0.918E+01 -.134E+04   0.397E+00 -.631E-01 0.489E+00   0.634E-01 -.795E-01 0.321E-01
   -.126E+03 0.271E+02 0.201E+03   0.126E+03 -.271E+02 -.201E+03   0.390E+00 -.975E-01 -.353E+00   -.147E-01 0.234E-01 0.664E-01
   0.330E+01 0.565E+02 -.127E+04   -.312E+01 -.566E+02 0.127E+04   -.126E+00 0.176E+00 0.477E+00   -.600E-01 0.191E-01 0.606E-01
[...]
   -.113E+02 -.980E+02 0.169E+03   0.117E+02 0.978E+02 -.169E+03   -.480E+00 -.153E-01 -.315E+00   0.109E-01 0.110E+00 -.230E-01
   -.170E+03 -.110E+03 0.165E+04   0.170E+03 0.110E+03 -.165E+04   0.282E-01 -.203E+00 -.317E+00   -.532E-01 0.451E-01 0.124E+00
   -.702E+02 0.705E+01 0.148E+04   0.706E+02 -.691E+01 -.148E+04   -.256E+00 -.122E+00 -.664E+00   0.331E-01 -.785E-01 0.721E-01
   -.272E+03 -.156E+03 0.302E+04   0.269E+03 0.155E+03 -.302E+04   0.226E+01 0.136E+01 -.367E+01   -.663E-01 0.509E-01 0.440E-01
   0.296E+03 -.678E+02 0.296E+04   -.294E+03 0.671E+02 -.296E+04   -.220E+01 0.767E+00 -.284E+01   -.519E-01 -.846E-01 0.116E+00
   0.885E+02 0.285E+02 0.151E+04   -.885E+02 -.286E+02 -.151E+04   0.117E+00 0.187E+00 0.148E-01   -.882E-01 -.486E-01 0.260E-01
   0.141E+03 0.111E+02 0.119E+04   -.141E+03 -.111E+02 -.119E+04   0.105E+00 -.289E-01 -.320E+00   -.103E+00 0.303E-01 -.455E-01
   0.901E+02 0.205E+02 -.156E+04   -.900E+02 -.206E+02 0.156E+04   -.104E+00 -.561E-01 -.332E+00   -.900E-01 0.760E-01 0.667E-01
   -.498E+00 -.997E+01 0.308E+04   0.631E+00 0.104E+02 -.308E+04   -.679E-01 -.408E+00 -.174E+01   -.148E+00 0.590E-02 0.370E-01
   0.658E+02 0.180E+03 -.530E+02   -.662E+02 -.180E+03 0.537E+02   0.417E+00 0.171E+00 -.778E+00   -.311E-01 -.507E-01 -.122E-02
   0.868E+01 0.974E+02 -.289E+02   -.892E+01 -.967E+02 0.290E+02   0.274E+00 -.650E+00 -.181E+00   -.223E-01 -.598E-01 0.217E-01
   0.231E+03 0.570E+02 -.244E+03   -.231E+03 -.566E+02 0.245E+03   0.327E+00 -.368E+00 -.624E+00   -.596E-01 -.111E+00 -.157E-01
   -.613E+02 -.116E+03 -.655E+01   0.614E+02 0.116E+03 0.627E+01   -.126E+00 0.276E+00 0.172E+00   0.471E-01 -.326E-02 0.785E-02
   -.259E+01 -.492E+01 -.322E+03   0.290E+01 0.521E+01 0.323E+03   -.318E+00 -.305E+00 -.133E+01   -.201E-02 -.785E-03 -.819E-02
   -.110E+01 -.420E+00 -.969E+01   -.195E-12 0.790E-12 -.124E-10   0.166E+01 0.528E+00 0.676E+01   -.583E+00 -.510E-01 0.291E+01

 POSITION                                       TOTAL-FORCE (eV/Angst)
     13.78448      8.54258      6.63023        -0.001657     -0.001581     -0.003104
      5.29428      8.54194      6.42592        -0.003705     -0.013829      0.010040
      5.13029      3.51567      6.84703         0.006773      0.002749     -0.003410
     15.25173      9.36234      8.79075        -0.005492     -0.000884     -0.010139
      3.87655      4.53303      9.02226        -0.002194     -0.013906      0.007898
      6.78518      9.28256      8.74854        -0.004565      0.000700     -0.008006
     12.34901      4.42111      9.07040        -0.003965      0.008044      0.004644
      9.55273      9.27204      9.13669         0.009982      0.012378      0.003897
     10.88498      2.05795      8.72731        -0.005158     -0.001356     -0.001440
      2.64573      2.06608      9.08994         0.004530      0.010230      0.001031
     12.39955      9.25008      9.00733         0.006086      0.010808      0.006536
     13.82867      6.93869      8.98717         0.004899      0.000591     -0.005482
      5.35994      1.92847      9.09981         0.000041      0.002770      0.001993
      8.18143      6.83165      8.84549        -0.007468     -0.010628      0.005029
      9.53675      4.44192      8.77675         0.003450      0.000984      0.007861
      5.30204      6.94952      8.86335         0.004205     -0.003967      0.012828
      8.16460      1.94994      8.88962        -0.003993      0.000030      0.007377
      7.98767      3.37520      6.61804        -0.003972     -0.001923      0.004747
      6.55037      1.09816      6.78514         0.009964      0.018129      0.006312
      6.83385      1.22925      1.47033        -0.005899      0.030853     -0.003071
      3.61235      3.96468      2.61995        -0.009570      0.012892      0.007015
      1.43654      1.44170      6.82790        -0.001432      0.003571      0.003035
      0.67127      0.98910      1.08188        -0.013327     -0.015450      0.000167
      6.74807      9.00879      3.12342        -0.014994      0.011973     -0.023128
      6.75632      4.33834      8.98110        -0.017293      0.003033      0.002421
      8.49330      5.38439      5.05378        -0.041758      0.033301      0.032063
     11.00061      6.87779      9.09651         0.000022     -0.006892     -0.002079
     14.94884      7.37673      4.49249         0.041711     -0.014096     -0.009728
     12.48313      6.13559      6.83571         0.003735     -0.006734     -0.002311
      6.48881      5.90124      6.68029        -0.004882      0.002403     -0.008346
      3.57422      2.54624      4.95878        -0.012358     -0.019743     -0.028120
     11.12614      5.45251      4.71025         0.002013      0.000008     -0.006355
      3.88605      5.90875      6.70554        -0.002529     -0.006256     -0.004246
     13.73438      8.58852      1.76277        -0.005865     -0.022572     -0.034581
      4.87663      8.41395      1.57788         0.008095      0.009196      0.023465
      3.75877      6.38414      2.06092         0.023343      0.000641      0.016003
      8.35850      2.27224      3.29405         0.002640     -0.004186      0.001771
      9.33367      9.15886      2.96349        -0.003213     -0.002674      0.029182
      2.48216      3.84528      6.95737         0.001524      0.004172     -0.000379
      1.94892      3.12368      0.97734         0.002966      0.006347      0.005734
     10.75187      2.21221      3.05623        -0.000733      0.008606      0.001502
     13.77799      5.05868      4.81470        -0.013740      0.008438     -0.021155
      3.95794      0.96625      7.02397        -0.001576      0.004794      0.002000
      9.83424      6.29104      6.97289         0.007759      0.007347      0.010548
      3.32747      0.88717      1.07332        -0.003384      0.007574     -0.011421
      9.37038      5.94444      1.03355         0.029051      0.009945     -0.037370
      5.77436      3.51120      1.58883         0.007978      0.009581      0.003551
     11.78080      9.10211      3.01275        -0.008452     -0.010455      0.019345
     12.14221      7.86485      4.90717        -0.018276     -0.013826     -0.001006
     12.89855      6.59993      3.08536         0.002801     -0.000815      0.015532
      9.60902      4.40928      2.93166        -0.008182     -0.014351      0.002631
      8.49400      8.48369      6.96345         0.004134     -0.001964     -0.003547
      8.12654      8.25967      1.10014        -0.019071      0.008006     -0.002979
     10.59532      7.05732      2.72628        -0.003871     -0.000763      0.015970
      2.64345      0.12582      5.05287         0.020335     -0.030567     -0.032176
      8.18206      3.50560      1.21995        -0.008569     -0.032180      0.008370
      4.79851      1.62222      2.89617        -0.004710     -0.005545      0.021638
      5.80940      6.64990      3.24762        -0.008960      0.002719     -0.022591
      7.65468      0.41297      4.68699        -0.009738     -0.006748     -0.013130
      9.45972      1.12994      6.53541        -0.006858      0.003620     -0.000208
[...]
      9.85949      3.06130      5.05334         0.023574     -0.006507      0.010600
      6.31739      2.58312      4.70295        -0.024760      0.001473     -0.011047
     12.25313      4.17493      2.83324         0.002410      0.000516     -0.002685
      2.09525      1.75623      3.07324         0.007902     -0.001921      0.026201
     11.83128      5.72145      1.13423         0.030188      0.001351     -0.000927
      6.85743      5.74904      1.30355        -0.002343     -0.007716      0.008429
      8.21979      6.81570      3.00225        -0.001726      0.002798      0.005149
      7.04013      4.41026      3.27464         0.001232     -0.002803      0.002910
     11.13262      3.89319      6.89916        -0.010687      0.003898     -0.004554
     10.73608      3.41609      1.01158         0.004790     -0.012309     -0.004120
     11.35396      0.81935      4.88330        -0.012148      0.003758      0.010702
      9.67608      7.72321      4.95729        -0.007691      0.005767     -0.003858
      7.20385      7.63915      5.11888        -0.015741     -0.046067      0.003633
      5.07803      0.26935      4.93904        -0.009735     -0.005881     -0.030126
      6.51301      5.93787      9.71983        -0.009788     -0.007148      0.029673
    total drift:                               -0.028692      0.056576     -0.011940

  FREE ENERGIE OF THE ION-ELECTRON SYSTEM (eV)
  free  energy   TOTEN  =      -503.43951130 eV

  energy  without entropy=     -503.46606175  energy(sigma->0) =     -503.44836145

 d Force = 0.8381706E-03[ 0.487E-03, 0.119E-02]  d Energy = 0.8568924E-03-0.187E-04
 d Force = 0.8208496E+01[ 0.820E+01, 0.821E+01]  d Ewald  = 0.8208497E+01-0.908E-06

 Conjugate gradient step on ions:
 trial-energy change:   -0.000857  1 .order   -0.000838   -0.001190   -0.000487
  (g-gl).g = 0.756E-03      g.g   = 0.762E-03  gl.gl    = 0.148E-02
 g(Force)  = 0.762E-03   g(Stress)= 0.000E+00 ortho     =-0.417E-04
 gamma     =   0.51199
 trial     =   1.60568
 opt step  =   2.71721  (harmonic =   2.71721) maximal distance =0.01320791
 next E    =  -503.439661   (d E  =  -0.00101)

 reached required accuracy - stopping structural energy minimisation