 vasp.5.4.4.18Apr17-6-g9f103f2a35 (build Oct 25 2019 11:13:22) complex

 executed on             LinuxIFC date 2021.10.16  21:46:35

 INCAR:
 POTCAR:    PAW_PBE Pt 04Feb2005
 POTCAR:    PAW_PBE Fe 06Sep2000
 POTCAR:    PAW_PBE Co 02Aug2007
 POTCAR:    PAW_PBE Cu 22Jun2005
 POTCAR:    PAW_PBE Ni 02Aug2007
 POTCAR:    PAW_PBE H 15Jun2001
 POTCAR:    PAW_PBE Pt 04Feb2005
   VRHFIN =Pt: s1d9

   TITEL  = PAW_PBE Pt 04Feb2005
   POMASS =  195.080; ZVAL   =   10.000    mass and valenz
   ENMAX  =  230.283; ENMIN  =  172.712 eV

 POTCAR:    PAW_PBE Fe 06Sep2000
   VRHFIN =Fe:  d7 s1

   TITEL  = PAW_PBE Fe 06Sep2000
   POMASS =   55.847; ZVAL   =    8.000    mass and valenz
   ENMAX  =  267.882; ENMIN  =  200.911 eV

 POTCAR:    PAW_PBE Co 02Aug2007
   VRHFIN =Co: d8 s1

   TITEL  = PAW_PBE Co 02Aug2007
   POMASS =   58.933; ZVAL   =    9.000    mass and valenz
   ENMAX  =  267.968; ENMIN  =  200.976 eV

 POTCAR:    PAW_PBE Cu 22Jun2005
   VRHFIN =Cu: d10 p1

   TITEL  = PAW_PBE Cu 22Jun2005
   POMASS =   63.546; ZVAL   =   11.000    mass and valenz
   ENMAX  =  295.446; ENMIN  =  221.585 eV

 POTCAR:    PAW_PBE Ni 02Aug2007
   VRHFIN =Ni:

   TITEL  = PAW_PBE Ni 02Aug2007
   POMASS =   58.690; ZVAL   =   10.000    mass and valenz
   ENMAX  =  269.532; ENMIN  =  202.149 eV

 POTCAR:    PAW_PBE H 15Jun2001
   VRHFIN =H: ultrasoft test

   TITEL  = PAW_PBE H 15Jun2001
   POMASS =    1.000; ZVAL   =    1.000    mass and valenz
   ENMAX  =  250.000; ENMIN  =  200.000 eV

 Optimization of the real space projectors (new method)

 maximal supplied QI-value         = 14.36
 optimisation between [QCUT,QGAM] = [ 11.92, 23.98] = [ 39.79,161.09] Ry
 Optimized for a Real-space Cutoff    1.49 Angstroem

   l    n(q)    QCUT    max X(q) W(low)/X(q) W(high)/X(q)  e(spline)
   2     10    11.920    66.195    0.79E-04    0.18E-03    0.24E-06
   2     10    11.920    64.643    0.81E-04    0.19E-03    0.24E-06
   0     11    11.920    95.520    0.28E-04    0.54E-04    0.18E-06
   0     11    11.920    63.403    0.27E-04    0.52E-04    0.17E-06
   1     10    11.920    19.961    0.18E-04    0.11E-03    0.23E-06
   1     10    11.920    13.289    0.25E-04    0.87E-04    0.19E-06
 Optimization of the real space projectors (new method)

[...]

   l    n(q)    QCUT    max X(q) W(low)/X(q) W(high)/X(q)  e(spline)
   2      9    11.864    60.317    0.21E-03    0.51E-03    0.25E-06
   2      9    11.864    55.921    0.21E-03    0.51E-03    0.26E-06
   0      9    11.864    51.690    0.22E-03    0.30E-04    0.17E-06
   0      9    11.864    30.015    0.20E-03    0.28E-04    0.15E-06
   1      9    11.864    18.849    0.76E-04    0.33E-03    0.17E-06
   1      9    11.864    14.624    0.60E-04    0.28E-03    0.15E-06
 Optimization of the real space projectors (new method)

 maximal supplied QI-value         = 34.20
 optimisation between [QCUT,QGAM] = [ 11.97, 23.94] = [ 40.13,160.53] Ry
 Optimized for a Real-space Cutoff    1.18 Angstroem

   l    n(q)    QCUT    max X(q) W(low)/X(q) W(high)/X(q)  e(spline)
   0      8    11.971    19.460    0.15E-03    0.31E-03    0.25E-06
   0      8    11.971    12.209    0.13E-03    0.29E-03    0.25E-06
   1      8    11.971     4.655    0.22E-03    0.24E-03    0.21E-06
  PAW_PBE Pt 04Feb2005                  :
  PAW_PBE Fe 06Sep2000                  :
  PAW_PBE Co 02Aug2007                  :
  PAW_PBE Cu 22Jun2005                  :
  PAW_PBE Ni 02Aug2007                  :
  PAW_PBE H 15Jun2001                   :

 POSCAR: 11.06
  positions in direct lattice
  velocities in cartesian coordinates
 exchange correlation table for  LEXCH =        8
   RHO(1)=    0.500       N(1)  =     2000
   RHO(2)=  100.500       N(2)  =     4000

 ion  position               nearest neighbor table
   1  0.788  0.880  0.311-  49 2.57  59 2.62  28 2.65  11 2.76  19 2.76  33 2.76  61 2.77  29 2.78
                            60 2.78   4 2.79   2 2.83  12 2.85
   2  0.044  0.880  0.308-  79 2.55  77 2.60  28 2.73  30 2.73  33 2.75  60 2.76  52 2.79   6 2.82
                             1 2.83  22 2.84   4 2.88  16 2.95
   3  0.280  0.378  0.315-  64 2.55  68 2.65  31 2.66  39 2.67   5 2.74  33 2.75  13 2.77  25 2.80
                            43 2.81  19 2.81  30 2.84  18 2.96
   4  0.871  0.965  0.415-  17 2.71  60 2.72  11 2.75   9 2.76   1 2.79  12 2.80   6 2.83  16 2.85
                             2 2.88
   5  0.118  0.466  0.417-  39 2.64  33 2.70  12 2.71   7 2.71  16 2.71   3 2.74  10 2.74  25 2.80
                            13 2.87
   6  0.128  0.962  0.414-  52 2.67   8 2.71  10 2.77  22 2.79  14 2.79   9 2.81   2 2.82   4 2.83
                            16 2.84
   7  0.878  0.457  0.418-  81 1.67  39 2.63  75 2.66   5 2.71   9 2.72  15 2.72  10 2.74  29 2.75
                            12 2.79  27 2.82
   8  0.375  0.959  0.414-  43 2.56  52 2.63  61 2.68   6 2.71  14 2.74  27 2.74  13 2.75  10 2.77
                            11 2.77
   9  0.872  0.214  0.412-  81 1.84  75 2.63  60 2.67   7 2.72  15 2.72  17 2.74   4 2.76  22 2.78
                             6 2.81  10 2.83
  10  0.128  0.212  0.415-  81 1.95  39 2.64  43 2.68  13 2.72  22 2.73   7 2.74   5 2.74   8 2.77
                             6 2.77   9 2.83
  11  0.626  0.958  0.414-  61 2.71  12 2.74  27 2.75  13 2.75   4 2.75   1 2.76   8 2.77  17 2.78
                            19 2.78
  12  0.874  0.711  0.417-  33 2.69  29 2.70   5 2.71  11 2.74  27 2.77  16 2.78   7 2.79   4 2.80
                             1 2.85
  13  0.378  0.206  0.416-  43 2.68  10 2.72   8 2.75  11 2.75  19 2.76  17 2.77   3 2.77  25 2.78
                             5 2.87
  14  0.380  0.710  0.415-  44 2.61  52 2.65  27 2.70   8 2.74  15 2.74  30 2.76   6 2.79  25 2.80
                            16 2.81
  15  0.629  0.462  0.415-  44 2.62  75 2.64   9 2.72  27 2.72   7 2.72  18 2.73  14 2.74  17 2.81
                            25 2.83
  16  0.128  0.706  0.418-  33 2.66   5 2.71  25 2.72  30 2.76  12 2.78  14 2.81   6 2.84   4 2.85
                             2 2.95
  17  0.626  0.210  0.413-   4 2.71  18 2.71  60 2.73   9 2.74  13 2.77  25 2.78  11 2.78  19 2.81
                            15 2.81
  18  0.547  0.378  0.315-  67 2.54  68 2.61  26 2.67  17 2.71  44 2.73  15 2.73  60 2.74  75 2.76
                            25 2.79  30 2.83  19 2.86   3 2.96
  19  0.535  0.125  0.311-  80 2.53  68 2.56  59 2.57  43 2.66  13 2.76   1 2.76  61 2.77  11 2.78
                             3 2.81  17 2.81  18 2.86  60 2.89
  20  0.552  0.124  0.052-  37 2.54  57 2.54  48 2.56  62 2.67  63 2.77  47 2.79  34 2.81  56 2.83
                            45 2.95
  21  0.117  0.448  0.127-  47 2.51  36 2.52  40 2.52  42 2.62  70 2.69  69 2.70  64 2.70  31 2.74
                            50 2.78  57 2.79  74 3.04  58 3.09
  22  0.048  0.135  0.312-  65 2.53  77 2.54  55 2.56  43 2.69  39 2.70  10 2.73   9 2.78   6 2.79
                            75 2.81   2 2.84  52 2.84  60 2.84  31 3.35
  23  0.032  0.132  0.039-  70 2.56  41 2.58  40 2.58  62 2.69  76 2.70  24 2.71  45 2.77  35 2.89
                            53 2.93
  24  0.132  0.957  0.136-  79 2.51  35 2.56  77 2.57  53 2.57  55 2.59  70 2.65  58 2.68  23 2.71
                            73 2.74  38 2.74  66 2.81  41 2.91
  25  0.374  0.460  0.417-  16 2.72  17 2.78  13 2.78  30 2.78  18 2.79   5 2.80  14 2.80   3 2.80
                            15 2.83
  26  0.458  0.551  0.220-  74 2.50  73 2.52  51 2.55  79 2.63  30 2.64  18 2.67  44 2.68  32 2.73
                            78 2.74  68 2.81  67 2.84  64 2.85
  27  0.623  0.712  0.416-  44 2.64  61 2.68  14 2.70  15 2.72   8 2.74  11 2.75  29 2.77  12 2.77
                             7 2.82
  28  0.955  0.779  0.215-  58 2.56  50 2.56  66 2.61   1 2.65  42 2.65  33 2.67  49 2.68   2 2.73
                            64 2.75  59 2.94  77 3.16  79 3.16
  29  0.800  0.624  0.317-  42 2.55  32 2.63  39 2.63  49 2.64  75 2.68  12 2.70  33 2.73   7 2.75
                            27 2.77   1 2.78  61 2.79  44 2.83
  30  0.288  0.630  0.314-  79 2.53  64 2.63  26 2.64  33 2.71   2 2.73  52 2.75  16 2.76  14 2.76
                            25 2.78  44 2.80  18 2.83   3 2.84
  31  0.197  0.274  0.226-  70 2.49  43 2.57  57 2.57  55 2.61  39 2.62  65 2.63   3 2.66  21 2.74
                            42 2.80  80 2.84  64 2.96  68 3.01  22 3.35
  32  0.704  0.554  0.222-  54 2.55  69 2.55  51 2.59  49 2.63  29 2.63  44 2.66  78 2.67  75 2.67
                            65 2.72  42 2.73  26 2.73  67 2.77
  33  0.041  0.635  0.319-  16 2.66  28 2.67  64 2.68  12 2.69   5 2.70  30 2.71  42 2.71  29 2.73
                             2 2.75   3 2.75   1 2.76  39 2.80
  34  0.794  0.860  0.055-  50 2.37  48 2.43  66 2.54  36 2.60  63 2.69  71 2.72  20 2.81  35 2.85

  35  0.050  0.863  0.048-  36 2.43  58 2.54  24 2.56  66 2.58  72 2.69  34 2.85  23 2.89  53 2.90
                            62 2.92
  36  0.046  0.646  0.053-  35 2.43  21 2.52  58 2.52  50 2.58  34 2.60  72 2.68  47 2.90  71 3.06

  37  0.627  0.234  0.134-  67 2.50  56 2.50  51 2.50  20 2.54  59 2.54  74 2.55  68 2.55  62 2.57
                            41 2.59  66 2.76
  38  0.383  0.952  0.134-  45 2.42  53 2.43  80 2.46  55 2.52  78 2.52  63 2.54  73 2.58  54 2.59
                            48 2.62  24 2.74  57 2.75  70 2.83
  39  0.035  0.384  0.321-  42 2.60  31 2.62   7 2.63  29 2.63  10 2.64   5 2.64   3 2.67  65 2.68
                            75 2.68  22 2.70  33 2.80  43 2.96
  40  0.009  0.376  0.044-  69 2.35  76 2.47  21 2.52  23 2.58  70 2.59  71 2.60  45 3.03
  41  0.868  0.220  0.132-  76 2.44  77 2.46  67 2.52  65 2.54  62 2.56  23 2.58  37 2.59  69 2.60
                            51 2.66  66 2.68  70 2.71  24 2.91
  42  0.958  0.538  0.223-  50 2.48  29 2.55  39 2.60  21 2.62  69 2.62  28 2.65  65 2.66  33 2.71
                            32 2.73  64 2.76  49 2.77  31 2.80
  43  0.301  0.114  0.319-  55 2.51   8 2.56  31 2.57  80 2.58  19 2.66  10 2.68  52 2.68  13 2.68
                            61 2.68  22 2.69   3 2.81  39 2.96
  44  0.543  0.626  0.320-  14 2.61  78 2.62  15 2.62  27 2.64  32 2.66  26 2.68  61 2.71  75 2.71
                            52 2.71  18 2.73  30 2.80  29 2.83
  45  0.291  0.112  0.049-  38 2.42  70 2.44  53 2.53  57 2.59  63 2.71  23 2.77  20 2.95  40 3.03
                            47 3.10
  46  0.550  0.626  0.049-  54 2.38  51 2.39  73 2.40  71 2.55  76 2.70  56 2.73  53 2.75  63 2.76
                            72 2.80
  47  0.309  0.384  0.051-  74 2.30  21 2.51  56 2.59  57 2.60  72 2.60  20 2.79  36 2.90  45 3.10

  48  0.625  0.943  0.137-  49 2.35  34 2.43  80 2.48  54 2.52  63 2.52  20 2.56  59 2.58  38 2.62
                            50 2.70  57 2.82  66 2.91
  49  0.707  0.789  0.221-  48 2.35  50 2.43  54 2.50   1 2.57  61 2.62  32 2.63  29 2.64  80 2.66
                            78 2.67  28 2.68  42 2.77  59 2.93
  50  0.857  0.689  0.133-  71 2.36  34 2.37  49 2.43  42 2.48  54 2.49  69 2.53  28 2.56  36 2.58
                            48 2.70  21 2.78
  51  0.628  0.460  0.130-  46 2.39  76 2.43  37 2.50  56 2.51  26 2.55  32 2.59  67 2.62  69 2.64
                            41 2.66  74 2.68  73 2.76  54 2.82
[...]

 FORCES acting on ions
    electron-ion (+dipol)            ewald-force                    non-local-force                 convergence-correction
   -.617E+02 0.703E+02 -.136E+04   0.613E+02 -.704E+02 0.136E+04   0.336E+00 0.177E+00 0.214E+01   0.254E-01 -.432E-02 -.472E-01
   0.450E+02 0.582E+02 -.130E+04   -.445E+02 -.585E+02 0.129E+04   -.478E+00 0.293E+00 0.255E+01   -.297E-01 -.141E-01 -.907E-02
   0.438E+02 -.162E+02 -.143E+04   -.453E+02 0.163E+02 0.143E+04   0.159E+01 -.102E+00 0.192E+01   -.106E-01 0.194E-01 -.498E-01
   -.483E+01 0.467E+02 -.276E+04   0.517E+01 -.462E+02 0.276E+04   -.367E+00 -.480E+00 0.135E+01   0.556E-02 -.148E-01 0.135E-01
   -.215E+02 0.895E+01 -.276E+04   0.211E+02 -.800E+01 0.275E+04   0.421E+00 -.930E+00 0.225E+01   0.103E-01 0.512E-03 -.260E-01
   0.217E+02 -.780E+01 -.275E+04   -.215E+02 0.691E+01 0.275E+04   -.101E+00 0.892E+00 0.184E+01   -.373E-01 -.418E-02 0.207E-01
   -.265E+02 -.176E+02 -.281E+04   0.267E+02 0.172E+02 0.281E+04   -.236E+00 0.372E+00 0.134E+01   0.110E-01 -.164E-01 -.219E-01
   0.143E+02 -.248E+02 -.281E+04   -.148E+02 0.250E+02 0.281E+04   0.519E+00 -.284E+00 0.253E+01   -.661E-03 0.419E-02 -.307E-02
   -.224E+02 0.283E+02 -.279E+04   0.214E+02 -.285E+02 0.278E+04   0.101E+01 0.237E+00 0.139E+01   0.346E-02 -.549E-01 -.489E-02
   -.697E+01 -.709E-01 -.276E+04   0.855E+01 -.205E+00 0.275E+04   -.159E+01 0.348E+00 0.239E+01   -.161E-01 -.252E-01 -.318E-01
   -.283E+02 -.116E+02 -.280E+04   0.285E+02 0.111E+02 0.280E+04   -.286E+00 0.420E+00 0.153E+01   0.241E-01 0.172E-01 -.116E-01
   -.288E+02 -.105E+02 -.277E+04   0.288E+02 0.101E+02 0.277E+04   -.251E-01 0.321E+00 0.187E+01   0.450E-01 0.355E-01 -.259E-01
   -.253E+01 -.375E+02 -.278E+04   0.219E+01 0.368E+02 0.278E+04   0.353E+00 0.688E+00 0.175E+01   0.167E-01 -.846E-02 -.738E-02
   0.473E+02 0.217E+02 -.279E+04   -.464E+02 -.214E+02 0.279E+04   -.946E+00 -.342E+00 0.221E+01   -.376E-01 0.955E-02 0.447E-02
   0.331E+02 0.241E+01 -.280E+04   -.329E+02 -.159E+01 0.280E+04   -.135E+00 -.798E+00 0.236E+01   -.105E-01 -.259E-02 -.882E-02
   0.113E+01 -.410E+01 -.276E+04   -.144E+01 0.358E+01 0.276E+04   0.296E+00 0.492E+00 0.181E+01   -.693E-02 0.276E-01 0.543E-02
   0.346E+02 -.828E+01 -.279E+04   -.344E+02 0.846E+01 0.279E+04   -.219E+00 -.166E+00 0.192E+01   -.107E-01 -.308E-01 -.127E-02
   0.744E+02 -.557E+02 -.146E+04   -.731E+02 0.559E+02 0.146E+04   -.123E+01 -.204E+00 0.149E+01   -.191E-01 0.737E-02 -.583E-01
   0.180E+02 -.386E+02 -.142E+04   -.191E+02 0.382E+02 0.141E+04   0.113E+01 0.357E+00 0.237E+01   0.890E-02 -.212E-01 -.399E-01
   0.594E+02 0.338E+02 0.281E+04   -.591E+02 -.338E+02 -.281E+04   -.380E+00 0.119E+00 -.280E+01   0.297E-01 -.677E-01 0.170E-01
   -.132E+02 -.316E+02 0.164E+04   0.122E+02 0.321E+02 -.164E+04   0.120E+01 -.471E+00 0.127E+01   -.846E-01 0.424E-01 0.285E-01
   -.518E+02 0.158E+02 -.142E+04   0.526E+02 -.152E+02 0.142E+04   -.842E+00 -.524E+00 0.232E+01   -.157E-02 -.259E-01 -.388E-01
   -.708E+02 0.940E+02 0.293E+04   0.713E+02 -.925E+02 -.293E+04   -.483E+00 -.164E+01 -.269E+01   -.114E-01 0.128E-01 0.188E-01
   0.404E+02 -.483E+02 0.151E+04   -.401E+02 0.477E+02 -.151E+04   -.339E+00 0.596E+00 -.752E+00   -.898E-03 0.607E-02 -.799E-02
   0.138E+02 -.316E+01 -.277E+04   -.142E+02 0.304E+01 0.277E+04   0.386E+00 0.108E+00 0.172E+01   -.115E-01 0.347E-02 -.901E-02
   0.112E+02 0.117E+02 -.679E+01   -.111E+02 -.114E+02 0.594E+01   -.203E+00 -.409E+00 0.894E+00   0.256E-01 0.214E-01 -.416E-01
   -.196E+02 0.115E+02 -.281E+04   0.190E+02 -.115E+02 0.281E+04   0.663E+00 0.594E-01 0.213E+01   -.251E-02 0.203E-01 -.294E-01
   -.962E+01 0.303E+02 0.146E+03   0.849E+01 -.319E+02 -.146E+03   0.122E+01 0.161E+01 -.253E+00   -.227E-01 -.455E-02 -.339E-01
   -.761E+02 0.313E+01 -.142E+04   0.768E+02 -.457E+01 0.142E+04   -.656E+00 0.146E+01 0.245E+01   0.305E-01 0.588E-01 -.684E-01
   0.468E+02 0.278E+02 -.145E+04   -.468E+02 -.270E+02 0.144E+04   0.215E-01 -.797E+00 0.207E+01   -.257E-01 0.106E-01 -.518E-01
   -.168E+02 -.771E+02 -.511E+02   0.159E+02 0.766E+02 0.514E+02   0.101E+01 0.521E+00 -.224E+00   -.141E-01 0.245E-02 -.322E-01
   -.344E+02 -.177E+02 -.821E+01   0.350E+02 0.184E+02 0.787E+01   -.542E+00 -.826E+00 0.451E+00   0.113E-01 0.419E-01 -.109E+00
   0.141E+02 0.718E+01 -.113E+04   -.141E+02 -.740E+01 0.113E+04   -.332E-01 0.268E+00 0.169E+00   0.102E-01 0.244E-01 -.226E-01
   -.853E+02 0.579E+01 0.225E+04   0.857E+02 -.696E+01 -.224E+04   -.430E+00 0.125E+01 -.286E+01   -.136E-01 -.238E-01 0.244E-01
   0.367E+02 -.119E+02 0.231E+04   -.371E+02 0.101E+02 -.230E+04   0.545E+00 0.192E+01 -.305E+01   -.101E-01 -.133E-02 0.744E-02
   0.597E+02 0.347E+02 0.225E+04   -.591E+02 -.331E+02 -.225E+04   -.638E+00 -.169E+01 -.293E+01   -.390E-01 0.377E-01 0.136E-01
   0.470E+02 0.806E+02 0.119E+04   -.462E+02 -.798E+02 -.119E+04   -.940E+00 -.825E+00 -.538E-01   0.343E-01 -.614E-02 -.714E-02
   0.217E+02 -.881E+02 0.121E+04   -.216E+02 0.877E+02 -.121E+04   -.137E+00 0.457E+00 -.537E+00   0.183E-01 -.279E-01 -.254E-02
   -.637E+02 -.186E+02 -.118E+04   0.638E+02 0.188E+02 0.118E+04   -.112E+00 -.214E+00 0.351E+00   0.247E-01 0.938E-02 -.706E-01
   -.199E+03 -.364E+01 0.236E+04   0.197E+03 0.325E+01 -.236E+04   0.214E+01 0.342E+00 -.379E+01   -.500E-01 0.199E-01 0.255E-01
   -.442E+02 0.697E+02 0.123E+04   0.434E+02 -.692E+02 -.123E+04   0.929E+00 -.629E+00 -.533E+00   0.449E-02 0.247E-01 -.229E-01
   -.824E+02 -.582E+01 -.171E+02   0.822E+02 0.619E+01 0.173E+02   0.208E+00 -.458E+00 -.198E+00   -.119E-01 0.228E-01 -.498E-01
   0.199E+02 -.891E+02 -.119E+04   -.200E+02 0.890E+02 0.118E+04   0.157E+00 0.191E+00 0.664E+00   0.514E-02 0.818E-02 -.395E-01
   0.169E+02 0.235E+02 -.119E+04   -.171E+02 -.237E+02 0.119E+04   0.145E+00 0.115E+00 -.190E+00   -.471E-02 0.156E-01 -.624E-01
   -.218E+02 -.106E+03 0.230E+04   0.207E+02 0.104E+03 -.230E+04   0.118E+01 0.214E+01 -.327E+01   -.227E-01 -.352E-01 0.116E-01
   0.303E+02 -.367E+02 0.263E+04   -.302E+02 0.368E+02 -.263E+04   -.199E+00 -.101E+00 -.299E+01   0.443E-01 -.582E-02 0.264E-01
   0.202E+03 0.428E+02 0.261E+04   -.201E+03 -.419E+02 -.261E+04   -.778E+00 -.927E+00 -.316E+01   -.484E-02 0.134E-01 0.486E-02
   -.786E+02 -.579E+02 0.132E+04   0.779E+02 0.569E+02 -.132E+04   0.696E+00 0.108E+01 -.121E+00   -.479E-02 -.523E-01 -.425E-02
   -.998E+02 0.336E+02 0.218E+02   0.998E+02 -.335E+02 -.222E+02   -.291E-01 -.585E-01 0.359E+00   -.677E-02 -.994E-02 -.731E-01
   -.169E+03 -.359E+01 0.135E+04   0.169E+03 0.415E+01 -.135E+04   0.630E-01 -.607E+00 -.120E+00   -.411E-01 -.144E-02 -.116E-01
   -.630E+01 -.120E+02 0.132E+04   0.645E+01 0.117E+02 -.132E+04   -.197E+00 0.469E+00 -.278E+00   0.526E-01 0.202E-01 -.286E-01
   0.534E+02 -.736E+00 -.136E+04   -.534E+02 0.733E+00 0.136E+04   -.793E-01 0.598E-01 0.760E+00   -.185E-01 -.159E-01 -.357E-01
   0.827E+02 -.598E+02 0.264E+04   -.818E+02 0.601E+02 -.264E+04   -.867E+00 -.279E+00 -.331E+01   0.145E-01 -.837E-02 0.620E-02
   -.302E+02 -.135E+01 0.134E+04   0.302E+02 0.171E+01 -.134E+04   -.843E-01 -.367E+00 -.546E+00   0.248E-01 -.161E-01 -.128E-01
   0.497E+02 -.933E+02 -.236E+02   -.488E+02 0.928E+02 0.240E+02   -.898E+00 0.542E+00 -.426E+00   0.537E-02 -.791E-02 -.573E-01
   0.683E+02 0.358E+02 0.328E+04   -.684E+02 -.349E+02 -.328E+04   0.730E-01 -.901E+00 -.419E+01   0.108E+00 0.185E-01 0.149E-01
   0.649E+02 -.128E+02 0.163E+04   -.653E+02 0.122E+02 -.163E+04   0.282E+00 0.608E+00 0.168E-01   -.112E-01 -.670E-01 0.357E-01
   0.185E+03 -.415E+02 0.154E+04   -.185E+03 0.419E+02 -.154E+04   -.205E+00 -.509E+00 0.431E-02   -.225E-01 0.300E-01 -.274E-02
   0.281E+02 0.882E+02 0.122E+03   -.286E+02 -.879E+02 -.122E+03   0.566E+00 -.390E+00 -.321E-01   -.402E-02 -.346E-01 -.453E-01
   0.608E+01 0.682E+02 -.160E+04   -.553E+01 -.681E+02 0.160E+04   -.526E+00 -.520E-01 0.750E+00   -.161E-01 -.616E-01 -.302E-01
[...]
   0.743E+02 -.305E+01 0.604E+01   -.736E+02 0.299E+01 -.556E+01   -.770E+00 0.746E-01 -.414E+00   0.493E-02 -.127E-01 -.247E-01
   -.118E+03 -.965E+01 0.148E+04   0.117E+03 0.987E+01 -.148E+04   0.569E+00 -.217E+00 -.573E+00   -.271E-01 0.370E-01 -.275E-01
   -.541E+02 0.439E+01 0.155E+04   0.546E+02 -.473E+01 -.155E+04   -.445E+00 0.351E+00 -.588E+00   -.312E-01 0.418E-02 -.998E-02
   -.164E+03 -.281E+02 0.296E+04   0.164E+03 0.281E+02 -.295E+04   0.385E-01 0.292E-01 -.267E+01   -.237E-01 0.114E-02 0.542E-01
   0.938E+02 -.664E+02 0.294E+04   -.945E+02 0.666E+02 -.293E+04   0.817E+00 -.301E+00 -.165E+01   0.315E-01 0.590E-01 -.419E-02
   0.281E+02 -.300E+02 0.153E+04   -.278E+02 0.298E+02 -.153E+04   -.372E+00 0.156E+00 0.599E-02   0.519E-01 0.227E-02 -.112E-01
   0.101E+03 0.952E+01 0.148E+04   -.999E+02 -.955E+01 -.148E+04   -.842E+00 0.513E-01 -.575E+00   0.611E-01 0.306E-01 0.415E-01
   -.352E+02 -.391E+02 -.152E+04   0.353E+02 0.393E+02 0.152E+04   0.117E-01 -.210E+00 0.259E+00   -.525E-02 -.547E-03 -.972E-01
   -.476E+02 0.196E+02 0.294E+04   0.479E+02 -.190E+02 -.293E+04   -.393E+00 -.574E+00 -.196E+01   0.741E-02 0.342E-01 0.401E-01
   -.501E+02 0.129E+03 0.778E+02   0.505E+02 -.129E+03 -.774E+02   -.373E+00 -.314E+00 -.464E+00   -.474E-02 -.170E-01 -.418E-01
   -.331E+01 0.535E+02 -.385E+02   0.318E+01 -.528E+02 0.384E+02   0.114E+00 -.813E+00 0.121E-01   0.338E-01 -.136E-01 -.738E-01
   0.118E+03 -.127E+02 -.495E+02   -.118E+03 0.133E+02 0.497E+02   -.415E+00 -.701E+00 -.345E+00   -.955E-02 0.940E-04 -.427E-01
   -.238E+02 -.940E+02 0.211E+02   0.233E+02 0.936E+02 -.210E+02   0.423E+00 0.417E+00 -.708E-01   0.727E-02 -.382E-01 -.528E-01
   -.232E+01 0.715E+01 -.327E+03   0.247E+01 -.761E+01 0.329E+03   -.152E+00 0.429E+00 -.142E+01   -.131E-02 -.506E-02 0.195E-02
   -.183E+01 -.976E+00 0.567E+01   0.969E-12 -.451E-12 0.205E-10   0.173E+01 0.101E+01 -.408E+01   0.840E-01 -.234E-01 -.157E+01

 POSITION                                       TOTAL-FORCE (eV/Angst)
     13.57512      8.43036      6.83506        -0.004581     -0.025934      0.010451
      5.35199      8.43574      6.73403        -0.001015      0.001812      0.046314
      5.18651      3.61623      6.92432        -0.008002      0.005552     -0.003639
     15.02075      9.22616      9.06482        -0.012050     -0.037309     -0.018282
      3.91535      4.48321      9.17547         0.004508      0.008791      0.010799
      6.70224      9.16037      9.05509         0.011550      0.014657     -0.016790
     12.23561      4.44015      9.23585        -0.001765     -0.019677      0.035942
      9.44930      9.19092      9.10574         0.006332     -0.009504      0.004228
     10.79206      1.99783      9.09489         0.038926      0.030127      0.006940
      2.62901      2.01255      9.14730        -0.022098      0.018202      0.008031
     12.23107      9.18144      9.11444         0.000238     -0.010199     -0.005055
     13.61813      6.83103      9.17742        -0.014413      0.008089     -0.032246
      5.31926      1.97482      9.15284         0.017737      0.005141      0.004425
      8.11665      6.82439      9.13068         0.011993      0.010427     -0.018018
      9.46643      4.44455      9.13255         0.013134      0.005657      0.021656
      5.30432      6.81952      9.14976        -0.023027      0.007601     -0.029306
      8.08414      1.99429      9.09734        -0.030713      0.006490      0.010377
      8.14244      3.60689      6.91887         0.003805      0.014667     -0.024095
      6.60742      1.20510      6.84201        -0.002546     -0.004029     -0.006517
      6.78710      1.18523      1.14924         0.008485      0.002216     -0.011141
      3.76654      4.28943      2.79191        -0.012150     -0.010960      0.012791
      1.27830      1.29658      6.86199         0.005754      0.011638      0.002259
      1.08322      1.26580      0.86116        -0.003540     -0.016208     -0.009024
      6.75769      9.17044      2.98650         0.003045     -0.007562      0.002861
      6.67535      4.39947      9.16647         0.000663     -0.005872     -0.004930
      8.11381      5.27353      4.83171        -0.005693      0.004536      0.033660
     10.82096      6.81746      9.15334         0.011673      0.004871     -0.000851
     14.86749      7.46195      4.73691        -0.016158     -0.008065     -0.030058
     12.28813      5.97418      6.96486        -0.000494      0.009864      0.024102
      6.67272      6.03234      6.91001        -0.003167      0.004237     -0.011301
      3.69611      2.62221      4.96528        -0.034334      0.026814      0.005439
     10.84750      5.30333      4.87795        -0.004306     -0.029268     -0.004852
      3.96035      6.06794      7.00540        -0.003213     -0.000609     -0.002320
     13.54014      8.23685      1.21769        -0.005940     -0.004621     -0.001299
      5.32877      8.26421      1.06683         0.005402     -0.010491     -0.006994
      4.07872      6.18644      1.16963         0.005615     -0.007505     -0.002496
      8.23293      2.23943      2.94956        -0.001524      0.001573      0.010193
      9.50197      9.12028      2.95366        -0.007083      0.005063      0.007431
      2.51499      3.67561      7.07461         0.012103     -0.023142     -0.009024
      2.17813      3.60438      0.95905        -0.016058      0.002436      0.003861
     10.81855      2.10616      2.90557         0.007218     -0.004841      0.003229
     13.56981      5.15767      4.91632         0.012190     -0.027676      0.017324
      3.96736      1.08523      7.00452        -0.009634      0.012529     -0.003273
      9.46200      6.00147      7.03462         0.005094     -0.007028     -0.002291
      3.84082      1.07508      1.08740        -0.007255     -0.000717     -0.001565
      9.54360      5.99174      1.07418        -0.017818      0.029904      0.005431
      5.53326      3.67383      1.11237        -0.010156      0.019433     -0.005331
     12.12391      9.03535      3.02482         0.005261     -0.008801      0.005740
     12.19001      7.56078      4.85800         0.029606      0.071524     -0.051605
     13.29175      6.60251      2.91585         0.012021      0.001089     -0.004427
      9.48696      4.40599      2.86728         0.000153      0.019748     -0.000566
      8.13137      8.37259      6.97750         0.013211      0.001339      0.004448
      8.22572      8.40044      1.02038         0.017732     -0.006761      0.011121
     10.81470      6.88846      2.87925         0.000274     -0.000308      0.011811
      2.70342      0.21102      5.02247        -0.012346      0.012963      0.022574
      8.11520      3.66906      0.89878        -0.007609     -0.004219     -0.009345
      5.28377      1.95964      3.04932        -0.006155      0.009856     -0.000232
      5.61899      6.74656      3.08047         0.007133     -0.008345      0.007441
      8.07791      0.54162      4.83808         0.012777     -0.008732     -0.009049
      9.49096      1.23629      6.88690         0.014580      0.009512     -0.024725
[...]
      9.57359      2.84462      4.96726         0.020497     -0.009113      0.004533
      6.69370      2.85116      4.88285         0.019134     -0.005823     -0.005207
     12.12773      4.35211      2.88488        -0.007019     -0.007459      0.001229
      2.46536      1.93297      2.91282         0.019323      0.001488      0.004724
     12.08907      5.94123      0.99380        -0.010787     -0.008138     -0.015516
      6.74616      5.97802      1.08730         0.011329      0.003475      0.007258
      8.23740      6.87147      2.88707         0.006492     -0.017143     -0.008760
      6.80581      4.34717      2.90754         0.003491      0.000155      0.010488
     10.89994      3.69133      7.02995         0.002837     -0.008801      0.002087
     10.76626      3.58716      0.97095        -0.012724     -0.003983      0.001819
     10.88657      0.63149      4.87040         0.005210      0.028933      0.002725
      9.52479      7.61651      4.98098        -0.009151      0.002004     -0.012989
      6.95958      7.62760      4.96170        -0.000497     -0.008436     -0.014153
      5.23455      0.23107      4.94671         0.000289     -0.004934      0.001348
     12.13829      2.85242     10.02738        -0.010067     -0.040811     -0.005911
    total drift:                               -0.014893      0.009365      0.018679

  FREE ENERGIE OF THE ION-ELECTRON SYSTEM (eV)
  free  energy   TOTEN  =      -504.62123465 eV

  energy  without entropy=     -504.63189431  energy(sigma->0) =     -504.62478787

 d Force = 0.1970730E-03[ 0.246E-04, 0.370E-03]  d Energy = 0.2552718E-03-0.582E-04
 d Force = 0.8065535E+01[ 0.807E+01, 0.807E+01]  d Ewald  = 0.8065534E+01 0.991E-06

 reached required accuracy - stopping structural energy minimisation