 vasp.5.4.4.18Apr17-6-g9f103f2a35 (build Oct 25 2019 11:13:22) complex

 executed on             LinuxIFC date 2022.02.22  07:04:46

 INCAR:
 POTCAR:    PAW_PBE Pt 04Feb2005
 POTCAR:    PAW_PBE Fe 06Sep2000
 POTCAR:    PAW_PBE Co 02Aug2007
 POTCAR:    PAW_PBE Cu 22Jun2005
 POTCAR:    PAW_PBE Ni 02Aug2007
 POTCAR:    PAW_PBE C 08Apr2002
 POTCAR:    PAW_PBE Pt 04Feb2005
   VRHFIN =Pt: s1d9

   TITEL  = PAW_PBE Pt 04Feb2005
   POMASS =  195.080; ZVAL   =   10.000    mass and valenz
   ENMAX  =  230.283; ENMIN  =  172.712 eV

 POTCAR:    PAW_PBE Fe 06Sep2000
   VRHFIN =Fe:  d7 s1

   TITEL  = PAW_PBE Fe 06Sep2000
   POMASS =   55.847; ZVAL   =    8.000    mass and valenz
   ENMAX  =  267.882; ENMIN  =  200.911 eV

 POTCAR:    PAW_PBE Co 02Aug2007
   VRHFIN =Co: d8 s1

   TITEL  = PAW_PBE Co 02Aug2007
   POMASS =   58.933; ZVAL   =    9.000    mass and valenz
   ENMAX  =  267.968; ENMIN  =  200.976 eV

 POTCAR:    PAW_PBE Cu 22Jun2005
   VRHFIN =Cu: d10 p1

   TITEL  = PAW_PBE Cu 22Jun2005
   POMASS =   63.546; ZVAL   =   11.000    mass and valenz
   ENMAX  =  295.446; ENMIN  =  221.585 eV

 POTCAR:    PAW_PBE Ni 02Aug2007
   VRHFIN =Ni:

   TITEL  = PAW_PBE Ni 02Aug2007
   POMASS =   58.690; ZVAL   =   10.000    mass and valenz
   ENMAX  =  269.532; ENMIN  =  202.149 eV

 POTCAR:    PAW_PBE C 08Apr2002
   VRHFIN =C: s2p2

   TITEL  = PAW_PBE C 08Apr2002
   POMASS =   12.011; ZVAL   =    4.000    mass and valenz
   ENMAX  =  400.000; ENMIN  =  300.000 eV

 Optimization of the real space projectors (new method)

 maximal supplied QI-value         = 14.36
 optimisation between [QCUT,QGAM] = [ 11.92, 23.98] = [ 39.79,161.09] Ry
 Optimized for a Real-space Cutoff    1.49 Angstroem

   l    n(q)    QCUT    max X(q) W(low)/X(q) W(high)/X(q)  e(spline)
   2     10    11.920    66.195    0.79E-04    0.18E-03    0.24E-06
   2     10    11.920    64.643    0.81E-04    0.19E-03    0.24E-06
   0     11    11.920    95.520    0.28E-04    0.54E-04    0.18E-06
   0     11    11.920    63.403    0.27E-04    0.52E-04    0.17E-06
   1     10    11.920    19.961    0.18E-04    0.11E-03    0.23E-06
   1     10    11.920    13.289    0.25E-04    0.87E-04    0.19E-06
 Optimization of the real space projectors (new method)

[...]

   l    n(q)    QCUT    max X(q) W(low)/X(q) W(high)/X(q)  e(spline)
   2      9    11.864    60.317    0.21E-03    0.51E-03    0.25E-06
   2      9    11.864    55.921    0.21E-03    0.51E-03    0.26E-06
   0      9    11.864    51.690    0.22E-03    0.30E-04    0.17E-06
   0      9    11.864    30.015    0.20E-03    0.28E-04    0.15E-06
   1      9    11.864    18.849    0.76E-04    0.33E-03    0.17E-06
   1      9    11.864    14.624    0.60E-04    0.28E-03    0.15E-06
 Optimization of the real space projectors (new method)

 maximal supplied QI-value         = 25.13
 optimisation between [QCUT,QGAM] = [ 11.81, 23.88] = [ 39.08,159.64] Ry
 Optimized for a Real-space Cutoff    1.18 Angstroem

   l    n(q)    QCUT    max X(q) W(low)/X(q) W(high)/X(q)  e(spline)
   0      8    11.813   115.676    0.10E-03    0.16E-03    0.35E-06
   0      8    11.813    87.132    0.10E-03    0.16E-03    0.35E-06
   1      8    11.813     4.429    0.16E-03    0.13E-04    0.22E-06
   1      8    11.813     2.733    0.13E-03    0.10E-04    0.18E-06
  PAW_PBE Pt 04Feb2005                  :
  PAW_PBE Fe 06Sep2000                  :
  PAW_PBE Co 02Aug2007                  :
  PAW_PBE Cu 22Jun2005                  :
  PAW_PBE Ni 02Aug2007                  :
  PAW_PBE C 08Apr2002                   :

 POSCAR: 10.56
  positions in direct lattice
  velocities in cartesian coordinates
 exchange correlation table for  LEXCH =        8
   RHO(1)=    0.500       N(1)  =     2000
   RHO(2)=  100.500       N(2)  =     4000

 ion  position               nearest neighbor table
   1  0.788  0.878  0.317-  28 2.61  49 2.62  19 2.64  33 2.65  59 2.65  61 2.66  29 2.67  60 2.68
                             2 2.72   4 2.77  11 2.78  12 2.84
   2  0.044  0.881  0.317-  79 2.56  30 2.62  77 2.62  60 2.63  52 2.65  28 2.67  33 2.67  22 2.68
                             1 2.72   4 2.82   6 2.89  16 3.13
   3  0.279  0.380  0.320-  39 2.56  64 2.57  33 2.59  31 2.63  30 2.70  19 2.70  43 2.72  68 2.72
                             5 2.78  13 2.80  18 2.82  25 2.83
   4  0.868  0.965  0.422-  17 2.58  11 2.60   9 2.65  12 2.67   6 2.70  16 2.76  60 2.77   1 2.77
                             2 2.82
   5  0.122  0.463  0.428-  16 2.61  12 2.62   7 2.63  10 2.63  25 2.66  13 2.67  33 2.71  39 2.74
                             3 2.78
   6  0.122  0.967  0.429-  10 2.61   9 2.64   8 2.65   4 2.70  14 2.73  16 2.75   2 2.89  22 2.93
                            52 2.94
   7  0.875  0.460  0.427-   9 2.61  15 2.62   5 2.63  10 2.63  12 2.63  27 2.65  39 2.69  75 2.78
                            29 2.79
   8  0.376  0.960  0.419-  43 2.58  11 2.62  13 2.62  14 2.62  27 2.63   6 2.65  10 2.66  52 2.70
                            61 2.70
   9  0.871  0.214  0.420-  15 2.59   7 2.61  17 2.63   6 2.64   4 2.65  75 2.66  10 2.68  60 2.72
                            22 2.80
  10  0.125  0.212  0.422-   6 2.61  13 2.61   5 2.63   7 2.63   8 2.66  39 2.66   9 2.68  43 2.73
                            22 2.77
  11  0.624  0.960  0.424-   4 2.60   8 2.62  27 2.63  13 2.63  12 2.64  17 2.65   1 2.78  19 2.83
                            61 2.84
  12  0.874  0.710  0.426-   5 2.62  27 2.63   7 2.63  11 2.64  16 2.66   4 2.67  33 2.67  29 2.80
                             1 2.84
  13  0.374  0.209  0.425-  10 2.61   8 2.62  11 2.63  25 2.65  17 2.65   5 2.67  43 2.77   3 2.80
                            19 2.83
  14  0.381  0.709  0.422-  81 2.21  27 2.58  15 2.61   8 2.62  44 2.65  25 2.67   6 2.73  16 2.74
                            30 2.74  52 2.75
  15  0.627  0.461  0.423-   9 2.59  14 2.61   7 2.62  27 2.63  17 2.65  25 2.66  44 2.70  75 2.72
                            18 2.76
  16  0.126  0.706  0.439-  81 1.91   5 2.61  25 2.64  12 2.66  14 2.74   6 2.75   4 2.76  33 2.90
                            30 3.04   2 3.13
  17  0.624  0.211  0.423-   4 2.58  25 2.62   9 2.63  13 2.65  15 2.65  11 2.65  18 2.77  60 2.80
                            19 2.87
  18  0.548  0.375  0.317-  67 2.56  60 2.59  75 2.61  44 2.64  68 2.65  26 2.67  30 2.71  19 2.73
                            15 2.76  17 2.77   3 2.82  25 2.86
  19  0.535  0.124  0.315-  80 2.55  43 2.57  68 2.57  59 2.60   1 2.64  61 2.64   3 2.70  18 2.73
                            60 2.76  13 2.83  11 2.83  17 2.87
  20  0.547  0.124  0.040-  37 2.55  57 2.56  48 2.58  62 2.64  63 2.68  47 2.68  45 2.68  56 2.70
                            34 2.71
  21  0.121  0.460  0.128-  40 2.52  36 2.53  47 2.53  42 2.60  69 2.61  64 2.62  70 2.64  50 2.64
                            58 2.67  31 2.70  57 2.71  74 2.72
  22  0.045  0.134  0.315-  55 2.54  65 2.55  43 2.57  77 2.59  39 2.59  75 2.61   2 2.68  60 2.68
                            52 2.71  10 2.77   9 2.80   6 2.93  31 3.42
  23  0.042  0.130  0.033-  70 2.58  40 2.60  41 2.61  45 2.62  62 2.64  76 2.64  24 2.69  35 2.73
                            53 2.78
  24  0.130  0.958  0.132-  79 2.51  77 2.54  35 2.57  53 2.57  55 2.58  70 2.62  38 2.64  58 2.64
                            73 2.65  23 2.69  66 2.70  41 2.72
  25  0.375  0.459  0.426-  81 2.16  17 2.62  16 2.64  13 2.65   5 2.66  15 2.66  14 2.67  30 2.82
                             3 2.83  18 2.86
  26  0.455  0.546  0.219-  73 2.50  74 2.54  51 2.56  79 2.61  64 2.63  18 2.67  68 2.67  78 2.67
                            30 2.67  32 2.68  67 2.72  44 2.75
  27  0.624  0.711  0.424-  14 2.58   8 2.63  15 2.63  11 2.63  12 2.63   7 2.65  44 2.71  61 2.79
                            29 2.79
  28  0.956  0.790  0.221-  58 2.57  66 2.57  50 2.58  42 2.59  49 2.61   1 2.61  64 2.63   2 2.67
                            59 2.70  33 2.73  79 2.76  77 2.77
  29  0.794  0.622  0.319-  39 2.54  42 2.56  75 2.58  32 2.61  44 2.64  33 2.65   1 2.67  61 2.67
                            49 2.69   7 2.79  27 2.79  12 2.80
  30  0.290  0.631  0.319-  79 2.58  52 2.61  64 2.61   2 2.62  33 2.64  44 2.64  26 2.67   3 2.70
                            18 2.71  14 2.74  25 2.82  16 3.04
  31  0.203  0.281  0.225-  70 2.52  55 2.56  65 2.57  43 2.60  57 2.60   3 2.63  39 2.66  80 2.70
                            21 2.70  42 2.71  68 2.75  64 2.79  22 3.42
  32  0.706  0.549  0.221-  54 2.53  69 2.56  51 2.58  49 2.59  42 2.60  29 2.61  78 2.62  65 2.63
                            26 2.68  44 2.69  75 2.69  67 2.70
  33  0.040  0.630  0.326-   3 2.59  30 2.64  39 2.64   1 2.65  29 2.65  12 2.67   2 2.67  64 2.71
                             5 2.71  28 2.73  42 2.74  16 2.90
  34  0.797  0.862  0.042-  50 2.38  66 2.51  48 2.53  36 2.55  71 2.56  63 2.61  20 2.71  35 2.76
                            62 2.76
  35  0.056  0.866  0.038-  58 2.54  72 2.55  36 2.56  24 2.57  66 2.62  53 2.65  23 2.73  62 2.73
                            34 2.76
  36  0.046  0.628  0.037-  21 2.53  34 2.55  35 2.56  58 2.58  50 2.61  47 2.63  72 2.64  40 2.69
                            71 2.72
  37  0.627  0.222  0.129-  51 2.51  74 2.51  67 2.52  56 2.53  41 2.55  20 2.55  68 2.56  59 2.56
                            62 2.59  66 2.66  57 2.73  48 2.89
  38  0.382  0.955  0.130-  53 2.47  80 2.48  45 2.49  78 2.53  48 2.54  73 2.55  63 2.55  54 2.56
                            55 2.59  57 2.62  24 2.64  70 2.67
  39  0.036  0.382  0.324-  29 2.54   3 2.56  75 2.58  22 2.59  33 2.64  10 2.66  31 2.66  42 2.67
                             7 2.69   5 2.74  65 2.75  43 2.79
  40  0.031  0.382  0.038-  69 2.44  21 2.52  71 2.53  76 2.56  70 2.57  23 2.60  36 2.69  45 2.78
                            47 2.78
  41  0.872  0.215  0.128-  76 2.45  65 2.52  77 2.53  67 2.54  37 2.55  69 2.57  62 2.57  51 2.59
                            23 2.61  70 2.65  66 2.66  24 2.72
  42  0.955  0.545  0.224-  29 2.56  50 2.56  28 2.59  21 2.60  32 2.60  69 2.61  49 2.63  65 2.64
                            64 2.65  39 2.67  31 2.71  33 2.74
  43  0.297  0.115  0.321-  55 2.53  52 2.54  61 2.56  19 2.57  22 2.57   8 2.58  31 2.60  80 2.66
                             3 2.72  10 2.73  13 2.77  39 2.79
  44  0.541  0.629  0.322-  61 2.56  52 2.58  78 2.64  29 2.64  18 2.64  30 2.64  14 2.65  75 2.66
                            32 2.69  15 2.70  27 2.71  26 2.75
  45  0.295  0.119  0.039-  70 2.49  38 2.49  57 2.57  53 2.60  23 2.62  63 2.64  20 2.68  47 2.75
                            40 2.78
  46  0.548  0.625  0.044-  51 2.38  73 2.39  54 2.41  71 2.56  53 2.56  63 2.58  76 2.59  56 2.62
                            72 2.64
  47  0.296  0.379  0.039-  74 2.41  21 2.53  57 2.61  72 2.61  56 2.62  36 2.63  20 2.68  45 2.75
                            40 2.78
  48  0.625  0.950  0.132-  49 2.40  80 2.48  54 2.48  34 2.53  38 2.54  59 2.55  50 2.56  63 2.57
                            20 2.58  57 2.65  66 2.68  37 2.89
  49  0.706  0.794  0.220-  48 2.40  50 2.48  54 2.49  80 2.53  32 2.59  28 2.61  78 2.61   1 2.62
                            61 2.62  42 2.63  29 2.69  59 2.69
[...]
   0.334E+02 -.141E+02 -.153E+04   -.348E+02 0.146E+02 0.153E+04   0.147E+01 -.442E+00 0.188E+01   0.377E-02 -.231E-02 0.155E-01
   0.540E+01 0.117E+02 -.292E+04   -.536E+01 -.118E+02 0.292E+04   -.525E-01 0.885E-01 0.689E+00   0.420E-02 0.692E-02 0.727E-02
   -.204E+01 0.921E+01 -.287E+04   0.734E+00 -.931E+01 0.287E+04   0.133E+01 0.144E+00 0.169E+01   -.815E-02 0.625E-02 0.144E-01
   -.173E+01 -.633E+01 -.286E+04   0.168E+01 0.693E+01 0.286E+04   0.922E-01 -.670E+00 0.106E+01   -.749E-02 0.988E-03 0.103E-01
   -.167E+02 -.305E+01 -.295E+04   0.168E+02 0.291E+01 0.295E+04   -.110E+00 0.103E+00 0.120E+01   0.846E-02 -.143E-02 0.875E-02
   0.421E+01 -.268E+02 -.290E+04   -.435E+01 0.269E+02 0.290E+04   0.138E+00 -.964E-01 0.185E+01   0.719E-04 0.324E-02 -.820E-03
   -.233E+02 0.106E+02 -.293E+04   0.230E+02 -.104E+02 0.293E+04   0.284E+00 -.132E+00 0.882E+00   -.109E-01 -.166E-01 0.207E-01
   -.984E+01 -.193E+01 -.289E+04   0.103E+02 0.205E+01 0.289E+04   -.385E+00 -.117E+00 0.142E+01   -.391E-03 -.647E-02 0.212E-01
   -.589E+01 -.326E+01 -.292E+04   0.620E+01 0.313E+01 0.292E+04   -.350E+00 0.687E-01 0.597E+00   0.289E-02 0.421E-02 0.118E-01
   0.602E+01 -.852E+00 -.290E+04   -.557E+01 0.601E+00 0.289E+04   -.444E+00 0.228E+00 0.107E+01   0.357E-02 0.139E-01 0.110E-01
   0.807E+01 -.521E+01 -.290E+04   -.833E+01 0.501E+01 0.290E+04   0.272E+00 0.222E+00 0.805E+00   0.673E-02 -.119E-01 0.124E-01
   -.534E+02 -.349E+02 -.286E+04   0.539E+02 0.350E+02 0.286E+04   -.498E+00 -.121E+00 -.724E+00   -.102E-01 0.136E-01 -.249E-01
   0.129E+02 -.110E+02 -.288E+04   -.118E+02 0.107E+02 0.288E+04   -.116E+01 0.344E+00 0.147E+01   -.745E-02 -.105E-01 0.777E-02
   0.730E+02 -.390E+02 -.287E+04   -.732E+02 0.388E+02 0.288E+04   0.136E+00 0.166E+00 -.117E+01   -.536E-02 0.148E-01 0.408E-01
   0.232E+02 0.488E+01 -.291E+04   -.232E+02 -.469E+01 0.291E+04   -.557E-01 -.223E+00 0.999E+00   0.470E-02 -.105E-01 0.102E-01
   0.744E+02 -.717E+02 -.152E+04   -.734E+02 0.721E+02 0.152E+04   -.951E+00 -.447E+00 0.156E+01   0.616E-03 -.305E-02 0.209E-01
   0.303E+02 -.442E+02 -.150E+04   -.314E+02 0.438E+02 0.150E+04   0.112E+01 0.414E+00 0.245E+01   0.666E-02 -.150E-01 0.156E-01
   0.334E+02 0.316E+02 0.304E+04   -.335E+02 -.317E+02 -.304E+04   0.136E+00 0.157E+00 -.237E+01   -.104E-01 0.180E-02 0.518E-02
   0.346E+02 -.893E+01 0.160E+04   -.355E+02 0.966E+01 -.161E+04   0.937E+00 -.654E+00 0.915E+00   0.132E-01 -.606E-03 -.143E-01
   -.709E+02 0.129E+02 -.146E+04   0.718E+02 -.122E+02 0.146E+04   -.867E+00 -.691E+00 0.278E+01   0.120E-02 -.151E-01 0.414E-01
   -.542E+02 0.514E+02 0.309E+04   0.549E+02 -.505E+02 -.309E+04   -.687E+00 -.917E+00 -.209E+01   0.724E-02 -.120E-01 -.704E-02
   0.482E-02 -.517E+02 0.160E+04   0.245E+00 0.512E+02 -.160E+04   -.339E+00 0.359E+00 -.772E+00   0.227E-02 -.952E-02 -.628E-02
   0.111E+02 0.826E+02 -.284E+04   -.112E+02 -.826E+02 0.284E+04   0.125E+00 0.827E-01 -.172E+01   0.384E-02 -.620E-02 0.124E-01
   -.194E+02 -.957E+01 0.175E+02   0.195E+02 0.974E+01 -.189E+02   -.146E+00 -.288E+00 0.146E+01   -.164E-02 0.153E-01 0.231E-01
   -.246E+02 0.665E+01 -.291E+04   0.240E+02 -.673E+01 0.291E+04   0.592E+00 0.754E-01 0.132E+01   0.795E-02 0.207E-01 0.666E-03
   0.156E+02 0.672E+02 0.133E+02   -.165E+02 -.683E+02 -.136E+02   0.108E+01 0.106E+01 0.328E+00   -.169E-01 0.985E-03 0.335E-02
   -.670E+02 0.749E+01 -.147E+04   0.674E+02 -.874E+01 0.147E+04   -.376E+00 0.132E+01 0.283E+01   -.144E-02 0.135E-01 -.808E-03
   0.325E+02 0.260E+02 -.155E+04   -.322E+02 -.252E+02 0.155E+04   -.396E+00 -.784E+00 0.241E+01   0.894E-02 0.112E-01 0.277E-01
   0.165E+02 -.659E+02 -.670E+02   -.175E+02 0.653E+02 0.672E+02   0.116E+01 0.619E+00 -.138E+00   0.815E-02 0.191E-02 0.388E-02
   -.219E+02 -.245E+02 0.177E+02   0.227E+02 0.252E+02 -.184E+02   -.840E+00 -.764E+00 0.692E+00   0.564E-02 0.258E-01 0.297E-01
   0.109E+02 0.105E+02 -.125E+04   -.110E+02 -.108E+02 0.125E+04   0.353E-01 0.384E+00 0.600E+00   -.965E-03 0.110E-01 0.134E-01
   -.599E+02 -.263E+01 0.244E+04   0.603E+02 0.135E+01 -.244E+04   -.412E+00 0.130E+01 -.265E+01   -.441E-02 0.859E-02 0.984E-02
   0.306E+02 -.139E+02 0.247E+04   -.304E+02 0.125E+02 -.247E+04   -.131E+00 0.147E+01 -.227E+01   -.401E-02 0.579E-03 -.109E-02
   0.227E+02 -.408E+01 0.247E+04   -.229E+02 0.461E+01 -.247E+04   0.117E+00 -.561E+00 -.288E+01   0.553E-02 -.733E-02 0.542E-03
   0.720E+01 0.517E+02 0.130E+04   -.633E+01 -.510E+02 -.130E+04   -.905E+00 -.701E+00 -.155E+00   -.183E-01 -.221E-01 -.287E-02
   0.340E+02 -.541E+02 0.128E+04   -.339E+02 0.538E+02 -.128E+04   -.132E+00 0.256E+00 -.378E+00   0.132E-01 0.153E-02 0.126E-02
   -.569E+02 -.264E+02 -.122E+04   0.571E+02 0.266E+02 0.122E+04   -.140E+00 -.214E+00 0.867E+00   -.133E-03 0.165E-02 0.152E-01
   -.935E+02 0.204E+02 0.248E+04   0.932E+02 -.202E+02 -.248E+04   0.300E+00 -.190E+00 -.264E+01   0.254E-01 -.345E-02 -.555E-02
   -.333E+02 0.466E+02 0.130E+04   0.325E+02 -.461E+02 -.130E+04   0.805E+00 -.551E+00 -.363E+00   -.752E-03 -.156E-01 -.147E-02
   -.469E+02 0.722E+00 -.363E+02   0.467E+02 -.346E+00 0.362E+02   0.282E+00 -.433E+00 -.150E-01   -.733E-03 0.162E-01 0.634E-02
   0.147E+02 -.819E+02 -.123E+04   -.148E+02 0.818E+02 0.123E+04   0.107E+00 0.249E+00 0.119E+01   0.230E-02 -.126E-01 0.187E-01
   0.191E+02 0.245E+02 -.122E+04   -.193E+02 -.244E+02 0.122E+04   0.210E+00 -.174E+00 0.514E+00   -.171E-02 0.129E-01 0.802E-02
   0.146E+02 -.465E+02 0.245E+04   -.153E+02 0.458E+02 -.245E+04   0.661E+00 0.711E+00 -.281E+01   0.137E-01 0.741E-02 -.220E-02
   0.455E+01 -.197E+02 0.276E+04   -.466E+01 0.199E+02 -.275E+04   0.131E+00 -.208E+00 -.230E+01   -.735E-02 0.182E-01 -.106E-01
   0.119E+03 0.290E+02 0.279E+04   -.120E+03 -.282E+02 -.279E+04   0.476E+00 -.746E+00 -.238E+01   -.217E-02 -.926E-02 -.735E-02
   -.364E+02 -.276E+02 0.143E+04   0.360E+02 0.265E+02 -.143E+04   0.446E+00 0.111E+01 -.431E+00   0.669E-02 -.196E-03 0.517E-02
   -.602E+02 0.679E+02 0.338E+02   0.603E+02 -.678E+02 -.347E+02   -.300E-01 -.165E+00 0.852E+00   0.211E-02 0.113E-01 0.254E-02
   -.893E+02 0.191E+02 0.141E+04   0.888E+02 -.186E+02 -.141E+04   0.508E+00 -.508E+00 -.917E-01   0.260E-02 0.217E-01 0.112E-01
   -.201E+02 0.915E+01 0.140E+04   0.202E+02 -.936E+01 -.140E+04   -.161E+00 0.297E+00 -.732E-01   -.933E-02 -.597E-02 0.169E-01
   0.431E+02 0.141E+02 -.139E+04   -.428E+02 -.145E+02 0.139E+04   -.337E+00 0.437E+00 0.149E+01   0.447E-02 -.854E-02 0.213E-01
   0.530E+02 -.806E+02 0.277E+04   -.527E+02 0.804E+02 -.276E+04   -.310E+00 0.237E+00 -.237E+01   -.383E-02 0.153E-01 -.260E-02
   -.135E+02 0.179E+01 0.139E+04   0.136E+02 -.158E+01 -.139E+04   -.111E+00 -.266E+00 -.415E+00   0.213E-01 0.358E-01 0.258E-01
   0.171E+02 -.633E+02 -.656E+01   -.163E+02 0.628E+02 0.681E+01   -.780E+00 0.533E+00 -.331E+00   0.105E-01 -.186E-01 0.124E-01
   0.311E+02 0.339E+02 0.344E+04   -.311E+02 -.330E+02 -.344E+04   0.620E-01 -.915E+00 -.351E+01   -.451E-01 -.258E-01 -.175E-01
   0.630E+02 0.789E+01 0.175E+04   -.632E+02 -.856E+01 -.175E+04   0.109E+00 0.692E+00 -.153E+00   0.987E-02 -.538E-02 -.215E-01
   0.102E+03 -.314E+02 0.172E+04   -.101E+03 0.314E+02 -.172E+04   -.200E+00 -.135E-02 0.824E-01   -.112E-01 0.244E-02 0.255E-02
   0.135E+02 0.706E+02 0.980E+02   -.140E+02 -.704E+02 -.988E+02   0.479E+00 -.270E+00 0.729E+00   -.194E-01 -.214E-01 0.997E-04
   0.153E+02 0.571E+02 -.169E+04   -.148E+02 -.567E+02 0.169E+04   -.475E+00 -.416E+00 0.155E+01   -.859E-02 -.883E-02 0.320E-01
[...]
   0.568E+02 -.412E+02 0.154E+02   -.562E+02 0.408E+02 -.158E+02   -.654E+00 0.467E+00 0.417E+00   -.197E-02 -.126E-01 0.555E-02
   -.739E+02 0.689E+00 0.156E+04   0.734E+02 -.578E+00 -.156E+04   0.407E+00 -.552E-01 -.106E+00   0.250E-01 0.741E-02 0.108E-01
   -.131E+02 0.197E+02 0.163E+04   0.134E+02 -.199E+02 -.163E+04   -.323E+00 0.224E+00 -.433E+00   0.156E-01 -.313E-02 -.872E-02
   -.101E+03 -.437E+01 0.309E+04   0.101E+03 0.443E+01 -.309E+04   -.512E+00 -.492E-01 -.137E+01   0.277E-01 0.196E-01 -.258E-02
   0.703E+02 -.525E+02 0.309E+04   -.706E+02 0.531E+02 -.309E+04   0.351E+00 -.567E+00 -.771E+00   -.258E-01 -.892E-02 -.693E-02
   0.156E+02 -.404E+02 0.156E+04   -.153E+02 0.402E+02 -.156E+04   -.400E+00 0.236E+00 0.104E-01   -.125E-01 0.235E-01 0.200E-01
   0.515E+02 0.146E+01 0.160E+04   -.511E+02 -.146E+01 -.160E+04   -.489E+00 0.722E-01 -.712E-01   -.286E-01 -.127E-01 -.146E-01
   -.412E+02 -.742E+02 -.152E+04   0.411E+02 0.743E+02 0.152E+04   0.127E+00 -.831E-01 0.926E+00   -.498E-02 0.416E-02 0.200E-01
   -.539E+02 0.295E+02 0.307E+04   0.544E+02 -.289E+02 -.307E+04   -.444E+00 -.545E+00 -.194E+01   0.874E-02 -.206E-01 -.150E-01
   -.450E+02 0.797E+02 0.852E+02   0.454E+02 -.795E+02 -.855E+02   -.374E+00 -.399E+00 0.182E+00   -.103E-01 -.128E-01 0.796E-02
   0.384E+01 0.612E+02 0.849E+01   -.390E+01 -.605E+02 -.862E+01   0.595E-01 -.862E+00 -.194E-01   0.829E-02 0.970E-03 0.221E-01
   0.478E+02 0.663E+01 -.248E+02   -.475E+02 -.595E+01 0.246E+02   -.352E+00 -.644E+00 0.169E+00   0.791E-02 -.443E-02 0.135E-01
   0.254E+02 -.495E+02 0.474E+02   -.258E+02 0.491E+02 -.476E+02   0.408E+00 0.471E+00 0.195E+00   0.170E-01 -.208E-01 -.112E-02
   -.718E+01 0.263E+01 -.136E+04   0.764E+01 -.256E+01 0.137E+04   -.490E+00 -.757E-01 -.111E+02   -.102E-01 0.177E-02 0.120E-02
   -.133E+01 -.859E+00 0.677E+01   0.639E-12 0.332E-12 -.157E-10   0.137E+01 0.834E+00 -.739E+01   -.299E-01 -.734E-02 0.597E+00

 POSITION                                       TOTAL-FORCE (eV/Angst)
     12.95186      8.03963      6.97866         0.005054      0.005472     -0.003244
      5.10384      8.04458      6.97407         0.010358      0.011621      0.022608
      4.96498      3.49784      7.04856        -0.000247      0.005496     -0.006128
     14.29896      8.80217      9.35047        -0.004131      0.003309     -0.015814
      3.68319      4.20478      9.37564         0.007036      0.018848      0.004190
      6.38947      8.83454      9.24207         0.008025     -0.015504      0.022346
     11.65628      4.21168      9.40164         0.005278     -0.013300      0.002244
      9.02621      8.78500      9.24618        -0.030115     -0.022495     -0.000752
     10.34102      1.93107      9.25516         0.002814      0.005109     -0.016749
      2.42963      1.92915      9.29433        -0.002707     -0.022631     -0.005178
     11.65946      8.78621      9.28574         0.007554     -0.017178      0.011241
     12.97072      6.50337      9.37856        -0.009677     -0.012213     -0.007551
      5.04728      1.90207      9.35152         0.008103     -0.010847      0.002425
      7.75379      6.53479      9.48252        -0.005423      0.014969      0.028509
      9.07995      4.19568      9.24824         0.001725     -0.007299      0.003716
      5.01576      6.54418      9.59570        -0.000156     -0.007120     -0.041413
      7.71261      1.91180      9.29804         0.013105     -0.006371     -0.002717
      7.76179      3.44321      6.99210         0.001053      0.005149      0.008747
      6.29837      1.14978      6.92253         0.010034     -0.004056     -0.005789
      6.42858      1.12974      0.87872        -0.014806     -0.006268     -0.018095
      3.70548      4.20844      2.81687         0.020890      0.015941     -0.028585
      1.17146      1.24636      6.90066         0.004679     -0.002050      0.007511
      1.13569      1.19080      0.72557         0.002279      0.004583      0.044982
      6.43607      8.76100      2.90031        -0.039076     -0.037919     -0.020689
      6.38589      4.15199      9.49819        -0.012046      0.017671      0.000087
      7.68135      4.99073      4.81474         0.002329     -0.056319      0.017444
     10.33095      6.50879      9.30601         0.008517     -0.015037      0.011800
     14.26424      7.22593      4.86299         0.087835     -0.050234      0.018226
     11.67956      5.68931      7.01784        -0.018182      0.003286     -0.003503
      6.42505      5.77596      7.02160        -0.002294      0.018220      0.009113
      3.62119      2.56589      4.96023         0.076472      0.039335      0.052506
     10.36091      5.02430      4.85652         0.011057     -0.004840     -0.003655
      3.77261      5.77206      7.18689        -0.008004     -0.008171     -0.026919
     12.96907      7.87977      0.92567        -0.012361     -0.003275     -0.000366
      5.16340      7.91719      0.83030         0.008336      0.016209     -0.006361
      3.80701      5.74502      0.81381         0.008534     -0.008631     -0.036205
      7.79852      2.03245      2.83251        -0.030056     -0.015555     -0.004645
      9.07755      8.73373      2.85743         0.014775      0.014298      0.014157
      2.39107      3.49636      7.13029         0.000496      0.009777     -0.003696
      2.34409      3.49051      0.82510         0.014198      0.010919     -0.013702
     10.34814      1.96983      2.82249        -0.024732     -0.003789      0.000303
     12.96035      4.98587      4.92559         0.046053     -0.013543     -0.001660
      3.74352      1.05889      7.06460        -0.007852     -0.000828      0.006451
      9.03089      5.76059      7.08225        -0.011157     -0.000836      0.002278
      3.74824      1.09182      0.86700         0.002990     -0.007494     -0.039069
      9.09121      5.71867      0.96043        -0.006630      0.018701     -0.036297
      5.12448      3.47045      0.85563        -0.003160      0.042342     -0.016238
     11.62092      8.68758      2.90590         0.004653     -0.009544      0.019317
     11.65313      7.26450      4.84229         0.003236      0.012968     -0.038352
     12.86756      6.45280      2.83379         0.017752      0.008417      0.000139
      9.04201      4.20780      2.79628        -0.028765      0.037592      0.002285
      7.75446      7.99938      7.01208         0.004912     -0.001750     -0.016223
      7.81315      7.93922      0.88653        -0.003630      0.008847     -0.011740
     10.39144      6.53566      2.82198         0.018056     -0.012330      0.007741
      2.51347      0.25826      5.00083         0.034533     -0.031984      0.025941
      7.74264      3.48454      0.76157         0.001354     -0.005281     -0.000068
      5.07835      1.87760      2.91701         0.001349     -0.019272     -0.013349
      5.16037      6.44715      2.89923        -0.011562      0.002583     -0.006535
      7.70892      0.45986      4.84799         0.017194      0.014417     -0.001037
      9.05617      1.18260      6.97719        -0.009189      0.000915     -0.003776
[...]
      9.07350      2.65252      4.91360        -0.012968     -0.029792      0.014480
      6.37169      2.66558      4.85827        -0.004021      0.049228      0.012980
     11.65891      4.17486      2.81483        -0.021007      0.000756     -0.028669
      2.44098      1.89237      2.83279         0.009885      0.029316      0.030341
     11.64953      5.68621      0.88546         0.008213      0.032167     -0.008802
      6.44743      5.71949      0.92597         0.015620      0.010752     -0.010826
      7.82927      6.50651      2.83621        -0.032227      0.009152     -0.012524
      6.41922      4.13007      2.78290        -0.021218      0.008664     -0.010128
     10.37372      3.45850      7.03484        -0.000583      0.009235      0.005619
     10.34410      3.45013      0.86804        -0.003443     -0.014558     -0.009766
     10.37063      0.48410      4.87151        -0.039170     -0.049085      0.033026
      9.04079      7.29017      4.93700        -0.015577     -0.026909     -0.011661
      6.46265      7.29503      4.94074         0.015019      0.054992      0.077615
      5.04247      0.27633      4.88406        -0.024612      0.012042      0.003575
      6.42172      5.70206     10.64572        -0.042274     -0.005436     -0.011086
    total drift:                                0.009995     -0.032149     -0.018142

  FREE ENERGIE OF THE ION-ELECTRON SYSTEM (eV)
  free  energy   TOTEN  =      -515.18846014 eV

  energy  without entropy=     -515.21590972  energy(sigma->0) =     -515.19761000

 d Force = 0.1218493E-02[ 0.780E-03, 0.166E-02]  d Energy = 0.1251477E-02-0.330E-04
 d Force =-0.2622215E+02[-0.262E+02,-0.262E+02]  d Ewald  =-0.2622215E+02 0.850E-05

 Conjugate gradient step on ions:
 trial-energy change:   -0.001251  1 .order   -0.001218   -0.001657   -0.000780
  (g-gl).g = 0.194E-02      g.g   = 0.170E-02  gl.gl    = 0.421E-02
 g(Force)  = 0.170E-02   g(Stress)= 0.000E+00 ortho     =-0.338E-03
 gamma     =   0.46121
 trial     =   1.06996
 opt step  =   2.02038  (harmonic =   2.02038) maximal distance =0.00735747
 next E    =  -515.188773   (d E  =  -0.00156)

 reached required accuracy - stopping structural energy minimisation