 vasp.5.4.4.18Apr17-6-g9f103f2a35 (build Oct 25 2019 11:13:22) complex

 executed on             LinuxIFC date 2021.10.30  02:08:02

 INCAR:
 POTCAR:    PAW_PBE Pt 04Feb2005
 POTCAR:    PAW_PBE Fe 06Sep2000
 POTCAR:    PAW_PBE Co 02Aug2007
 POTCAR:    PAW_PBE Cu 22Jun2005
 POTCAR:    PAW_PBE Ni 02Aug2007
 POTCAR:    PAW_PBE H 15Jun2001
 POTCAR:    PAW_PBE Pt 04Feb2005
   VRHFIN =Pt: s1d9

   TITEL  = PAW_PBE Pt 04Feb2005
   POMASS =  195.080; ZVAL   =   10.000    mass and valenz
   ENMAX  =  230.283; ENMIN  =  172.712 eV

 POTCAR:    PAW_PBE Fe 06Sep2000
   VRHFIN =Fe:  d7 s1

   TITEL  = PAW_PBE Fe 06Sep2000
   POMASS =   55.847; ZVAL   =    8.000    mass and valenz
   ENMAX  =  267.882; ENMIN  =  200.911 eV

 POTCAR:    PAW_PBE Co 02Aug2007
   VRHFIN =Co: d8 s1

   TITEL  = PAW_PBE Co 02Aug2007
   POMASS =   58.933; ZVAL   =    9.000    mass and valenz
   ENMAX  =  267.968; ENMIN  =  200.976 eV

 POTCAR:    PAW_PBE Cu 22Jun2005
   VRHFIN =Cu: d10 p1

   TITEL  = PAW_PBE Cu 22Jun2005
   POMASS =   63.546; ZVAL   =   11.000    mass and valenz
   ENMAX  =  295.446; ENMIN  =  221.585 eV

 POTCAR:    PAW_PBE Ni 02Aug2007
   VRHFIN =Ni:

   TITEL  = PAW_PBE Ni 02Aug2007
   POMASS =   58.690; ZVAL   =   10.000    mass and valenz
   ENMAX  =  269.532; ENMIN  =  202.149 eV

 POTCAR:    PAW_PBE H 15Jun2001
   VRHFIN =H: ultrasoft test

   TITEL  = PAW_PBE H 15Jun2001
   POMASS =    1.000; ZVAL   =    1.000    mass and valenz
   ENMAX  =  250.000; ENMIN  =  200.000 eV

 Optimization of the real space projectors (new method)

 maximal supplied QI-value         = 14.36
 optimisation between [QCUT,QGAM] = [ 11.92, 23.98] = [ 39.79,161.09] Ry
 Optimized for a Real-space Cutoff    1.49 Angstroem

   l    n(q)    QCUT    max X(q) W(low)/X(q) W(high)/X(q)  e(spline)
   2     10    11.920    66.195    0.79E-04    0.18E-03    0.24E-06
   2     10    11.920    64.643    0.81E-04    0.19E-03    0.24E-06
   0     11    11.920    95.520    0.28E-04    0.54E-04    0.18E-06
   0     11    11.920    63.403    0.27E-04    0.52E-04    0.17E-06
   1     10    11.920    19.961    0.18E-04    0.11E-03    0.23E-06
   1     10    11.920    13.289    0.25E-04    0.87E-04    0.19E-06
 Optimization of the real space projectors (new method)

[...]

   l    n(q)    QCUT    max X(q) W(low)/X(q) W(high)/X(q)  e(spline)
   2      9    11.864    60.317    0.21E-03    0.51E-03    0.25E-06
   2      9    11.864    55.921    0.21E-03    0.51E-03    0.26E-06
   0      9    11.864    51.690    0.22E-03    0.30E-04    0.17E-06
   0      9    11.864    30.015    0.20E-03    0.28E-04    0.15E-06
   1      9    11.864    18.849    0.76E-04    0.33E-03    0.17E-06
   1      9    11.864    14.624    0.60E-04    0.28E-03    0.15E-06
 Optimization of the real space projectors (new method)

 maximal supplied QI-value         = 34.20
 optimisation between [QCUT,QGAM] = [ 11.97, 23.94] = [ 40.13,160.53] Ry
 Optimized for a Real-space Cutoff    1.18 Angstroem

   l    n(q)    QCUT    max X(q) W(low)/X(q) W(high)/X(q)  e(spline)
   0      8    11.971    19.460    0.15E-03    0.31E-03    0.25E-06
   0      8    11.971    12.209    0.13E-03    0.29E-03    0.25E-06
   1      8    11.971     4.655    0.22E-03    0.24E-03    0.21E-06
  PAW_PBE Pt 04Feb2005                  :
  PAW_PBE Fe 06Sep2000                  :
  PAW_PBE Co 02Aug2007                  :
  PAW_PBE Cu 22Jun2005                  :
  PAW_PBE Ni 02Aug2007                  :
  PAW_PBE H 15Jun2001                   :

 POSCAR: 11.26-high
  positions in direct lattice
  velocities in cartesian coordinates
 exchange correlation table for  LEXCH =        8
   RHO(1)=    0.500       N(1)  =     2000
   RHO(2)=  100.500       N(2)  =     4000

 ion  position               nearest neighbor table
   1  0.776  0.870  0.315-  56 2.59  32 2.67  15 2.74  33 2.75  65 2.77  23 2.78   8 2.78  40 2.79
                            16 2.83  41 2.87   3 2.88   2 2.93
   2  0.037  0.869  0.316-  38 2.65  79 2.66  32 2.76  26 2.76   8 2.79  34 2.81  58 2.81  10 2.81
                            41 2.83   3 2.83  20 2.84   1 2.93
   3  0.036  0.617  0.313-  50 2.60  68 2.63  32 2.69   6 2.81   9 2.81   4 2.81   2 2.83  20 2.84
                            33 2.85  34 2.86  16 2.87   1 2.88
   4  0.028  0.371  0.319-  50 2.61  36 2.68  42 2.70  11 2.72  77 2.76   9 2.77  14 2.77  33 2.80
                             3 2.81  26 2.83   6 2.88   5 2.96
   5  0.290  0.106  0.318-  61 2.55  36 2.68  12 2.69  39 2.69  58 2.70  26 2.77  65 2.77  14 2.78
                            17 2.79  23 2.80   6 2.92   4 2.96
   6  0.287  0.368  0.317-  68 2.59  71 2.62  36 2.71  23 2.75  29 2.76   9 2.80  17 2.81   3 2.81
                            34 2.86   4 2.88  22 2.90   5 2.92
   7  0.860  0.689  0.125-  74 2.52  43 2.54  45 2.59  55 2.63  60 2.65  50 2.65  56 2.66  32 2.70
                            72 2.71  25 2.83  64 3.07
   8  0.861  0.955  0.416-  15 2.76  21 2.77   1 2.78  41 2.78   2 2.79  16 2.80  13 2.83  20 2.87
                            10 2.94
   9  0.115  0.456  0.419-  20 2.72   4 2.77  16 2.78  11 2.79   6 2.80  29 2.81   3 2.81  14 2.84
                            17 2.90
  10  0.124  0.953  0.420-  81 1.67  58 2.71  14 2.76  26 2.76  12 2.78   2 2.81  18 2.83  13 2.87
                            20 2.90   8 2.94
  11  0.870  0.449  0.421-   4 2.72  77 2.72  19 2.74  13 2.76  14 2.79   9 2.79  33 2.82  31 2.82
                            16 2.83
  12  0.375  0.947  0.418-   5 2.69  65 2.70  58 2.70  18 2.72  15 2.74  31 2.75  10 2.78  17 2.79
                            14 2.86
  13  0.866  0.205  0.416-  77 2.72  11 2.76  21 2.77  26 2.77  41 2.77  19 2.78  14 2.83   8 2.83
                            10 2.87
  14  0.120  0.201  0.420-  81 1.70  10 2.76   4 2.77   5 2.78  11 2.79  26 2.81  17 2.81  13 2.83
                             9 2.84  12 2.86
  15  0.619  0.946  0.418-   1 2.74  12 2.74  16 2.75  65 2.75  31 2.76   8 2.76  17 2.79  23 2.81
                            21 2.92
  16  0.867  0.703  0.420-  15 2.75  20 2.76  33 2.77   9 2.78  31 2.79   8 2.80   1 2.83  11 2.83
                             3 2.87
  17  0.372  0.197  0.420-  23 2.75  12 2.79   5 2.79  15 2.79   6 2.81  14 2.81  21 2.82  29 2.83
                             9 2.90
  18  0.378  0.703  0.417-  51 2.60  58 2.67  31 2.69  12 2.72  34 2.74  19 2.75  10 2.83  29 2.89
                            20 2.98
  19  0.622  0.456  0.419-  51 2.65  77 2.66  31 2.72  22 2.73  11 2.74  18 2.75  13 2.78  21 2.82
                            29 2.88
  20  0.115  0.699  0.421-   9 2.72  16 2.76  29 2.81  34 2.82   3 2.84   2 2.84   8 2.87  10 2.90
                            18 2.98
  21  0.619  0.206  0.417-  22 2.75  13 2.77   8 2.77  23 2.77  29 2.78  41 2.80  17 2.82  19 2.82
                            15 2.92
  22  0.541  0.377  0.317-  70 2.59  30 2.64  71 2.64  77 2.68  51 2.70  19 2.73  21 2.75  34 2.79
                            41 2.80  29 2.80   6 2.90  23 2.92
  23  0.532  0.121  0.317-  71 2.65  40 2.70  39 2.75  17 2.75   6 2.75  21 2.77   1 2.78   5 2.80
                            15 2.81  41 2.84  22 2.92  65 2.94
  24  0.544  0.120  0.050-  46 2.53  63 2.54  55 2.60  43 2.70  66 2.73  54 2.84  62 2.84  52 2.87
                            67 2.92
  25  0.114  0.439  0.123-  54 2.49  48 2.53  45 2.58  36 2.70  73 2.70  63 2.75  50 2.75  68 2.78
                             7 2.83  72 2.85  64 2.94  76 3.11
  26  0.039  0.114  0.316-  79 2.55  61 2.63  42 2.67   2 2.76  10 2.76  13 2.77   5 2.77  58 2.79
                            14 2.81  41 2.82   4 2.83  77 2.96
  27  0.024  0.132  0.037-  48 2.54  49 2.59  73 2.61  28 2.65  78 2.71  59 2.73  66 2.74  52 2.92
                            44 3.11
  28  0.115  0.958  0.130-  59 2.54  79 2.58  44 2.59  38 2.63  27 2.65  61 2.66  69 2.68  73 2.69
                            47 2.79  49 2.84  35 2.87  64 2.93
  29  0.368  0.451  0.419-   6 2.76  34 2.77  21 2.78  22 2.80   9 2.81  20 2.81  17 2.83  19 2.88
                            18 2.89
  30  0.456  0.540  0.221-  76 2.51  57 2.56  22 2.64  34 2.68  51 2.72  37 2.72  35 2.73  80 2.74
                            71 2.76  38 2.79  70 2.79  68 2.85
  31  0.619  0.700  0.421-  51 2.68  18 2.69  65 2.72  19 2.72  33 2.75  12 2.75  15 2.76  16 2.79
                            11 2.82
  32  0.941  0.791  0.218-  64 2.57  69 2.60   1 2.67   3 2.69   7 2.70   2 2.76  56 2.78  40 2.87
                            50 2.87  79 2.91  68 3.02  38 3.04
  33  0.780  0.622  0.318-  56 2.60  37 2.62  50 2.62  65 2.69  77 2.73  31 2.75  51 2.75   1 2.75
                            16 2.77   4 2.80  11 2.82   3 2.85
  34  0.289  0.621  0.318-  38 2.67  30 2.68  68 2.74  18 2.74  58 2.75  29 2.77  51 2.77  22 2.79
                             2 2.81  20 2.82   6 2.86   3 2.86
  35  0.377  0.709  0.122-  53 2.48  75 2.55  59 2.60  47 2.62  60 2.68  30 2.73  80 2.74  38 2.75
                            57 2.85  76 2.87  28 2.87  64 2.87
  36  0.198  0.277  0.223-  73 2.54  63 2.54   4 2.68   5 2.68  25 2.70   6 2.71  61 2.76  42 2.81
                            68 2.83  50 2.84  39 2.91  71 2.97
  37  0.694  0.548  0.222-  72 2.55  60 2.56  57 2.60  33 2.62  56 2.63  80 2.66  51 2.69  77 2.70
                            30 2.72  50 2.75  70 2.82  42 2.88
  38  0.211  0.792  0.224-  64 2.58  58 2.59  61 2.62  28 2.63   2 2.65  34 2.67  80 2.70  35 2.75
                            30 2.79  79 2.85  68 3.02  32 3.04
  39  0.456  0.016  0.221-  47 2.49  55 2.60  80 2.62  63 2.64  65 2.65  61 2.65   5 2.69  56 2.69
                            23 2.75  40 2.78  36 2.91  71 3.11
  40  0.686  0.047  0.215-  46 2.52  69 2.55  55 2.59  23 2.70  71 2.71  41 2.74  39 2.78   1 2.79
                            70 2.86  32 2.87  56 2.93  79 2.99
  41  0.785  0.121  0.313-  70 2.55  79 2.58  40 2.74  13 2.77   8 2.78  21 2.80  22 2.80  26 2.82
                             2 2.83  23 2.84  77 2.87   1 2.87
  42  0.943  0.286  0.222-  49 2.49  72 2.55  70 2.65  26 2.67  79 2.67  73 2.68  77 2.70   4 2.70
                            50 2.78  36 2.81  37 2.88  61 3.01
  43  0.787  0.882  0.049-  55 2.41  69 2.50   7 2.54  44 2.64  24 2.70  66 2.72  45 2.88  67 2.95

  44  0.036  0.851  0.047-  45 2.41  69 2.53  64 2.55  28 2.59  43 2.64  75 2.68  59 3.07  27 3.11

  45  0.048  0.630  0.044-  44 2.41  75 2.46  64 2.49  25 2.58   7 2.59  54 2.82  43 2.88
  46  0.621  0.226  0.132-  70 2.50  62 2.51  57 2.51  40 2.52  24 2.53  66 2.58  76 2.58  71 2.59
                            49 2.65  69 2.81  63 2.90
  47  0.371  0.944  0.131-  59 2.38  52 2.40  39 2.49  67 2.54  61 2.56  35 2.62  80 2.62  60 2.68
                            73 2.76  55 2.77  28 2.79
  48  0.994  0.372  0.045-  72 2.33  78 2.48  74 2.51  25 2.53  27 2.54  73 2.62
  49  0.863  0.212  0.131-  78 2.43  42 2.49  66 2.56  70 2.57  27 2.59  79 2.61  72 2.63  69 2.64
                            46 2.65  57 2.68  28 2.84  73 2.86
  50  0.946  0.532  0.224-   3 2.60   4 2.61  33 2.62  72 2.64   7 2.65  37 2.75  25 2.75  56 2.78
                            42 2.78  36 2.84  32 2.87  68 2.92
  51  0.537  0.619  0.323-  18 2.60  80 2.64  19 2.65  65 2.67  31 2.68  37 2.69  77 2.69  22 2.70
[...]
   0.105E+02 -.240E+02 -.128E+04   -.106E+02 0.234E+02 0.128E+04   0.148E+00 0.666E+00 0.222E+01   -.332E-01 -.249E-01 -.953E-02
   -.435E+02 0.261E+01 -.135E+04   0.428E+02 -.227E+01 0.135E+04   0.650E+00 -.365E+00 0.138E+01   0.162E-01 0.256E-01 0.215E-02
   0.378E+01 -.808E+02 -.138E+04   -.447E+01 0.797E+02 0.138E+04   0.751E+00 0.118E+01 0.168E+01   -.496E-01 -.556E-01 -.337E-01
   0.523E+02 0.246E+01 -.140E+04   -.520E+02 -.255E+01 0.140E+04   -.268E+00 0.120E+00 0.166E+01   -.285E-01 -.865E-02 -.108E-01
   -.122E+03 -.391E+01 0.154E+04   0.121E+03 0.460E+01 -.154E+04   0.102E+01 -.712E+00 0.735E+00   0.343E-01 0.717E-02 0.743E-01
   -.906E+01 -.583E+00 -.265E+04   0.909E+01 0.353E+00 0.264E+04   0.317E-01 0.253E+00 0.168E+01   -.222E-01 -.242E-02 0.183E-02
   -.184E+02 0.200E+01 -.266E+04   0.180E+02 -.156E+01 0.266E+04   0.442E+00 -.415E+00 0.156E+01   -.285E-01 -.130E-01 -.373E-01
   0.452E+02 0.187E+01 -.266E+04   -.446E+02 -.188E+01 0.266E+04   -.567E+00 0.430E-01 0.712E+00   0.385E-01 0.433E-02 -.331E-01
   -.372E+02 0.276E+00 -.270E+04   0.371E+02 -.734E+00 0.270E+04   0.481E-01 0.483E+00 0.182E+01   0.157E-01 -.759E-02 -.392E-01
   0.217E+02 -.521E+02 -.270E+04   -.210E+02 0.512E+02 0.270E+04   -.682E+00 0.844E+00 0.249E+01   -.372E-02 0.132E-01 -.555E-01
   -.125E+02 0.524E+02 -.265E+04   0.113E+02 -.516E+02 0.265E+04   0.127E+01 -.794E+00 0.195E+01   0.436E-01 -.121E-01 -.531E-03
   -.145E+02 -.115E+02 -.267E+04   0.143E+02 0.114E+02 0.267E+04   0.187E+00 0.116E+00 -.711E-01   -.829E-02 -.872E-02 -.612E-01
   -.471E+02 -.350E+02 -.269E+04   0.470E+02 0.342E+02 0.268E+04   0.829E-01 0.763E+00 0.151E+01   -.368E-01 -.148E-01 -.170E-01
   -.359E+02 0.754E+00 -.267E+04   0.357E+02 -.456E+00 0.266E+04   0.272E+00 -.277E+00 0.138E+01   -.277E-01 -.338E-01 -.163E-02
   0.481E+01 -.279E+02 -.268E+04   -.419E+01 0.273E+02 0.268E+04   -.592E+00 0.630E+00 0.183E+01   -.362E-01 -.122E-01 -.271E-01
   0.595E+02 0.145E+02 -.269E+04   -.585E+02 -.144E+02 0.269E+04   -.107E+01 -.166E+00 0.211E+01   0.300E-01 0.536E-01 -.446E-01
   0.415E+02 0.235E+02 -.272E+04   -.406E+02 -.229E+02 0.272E+04   -.949E+00 -.713E+00 0.209E+01   0.217E-01 0.885E-02 -.134E-01
   0.110E+02 -.455E+01 -.266E+04   -.110E+02 0.446E+01 0.266E+04   0.655E-01 0.684E-01 0.149E+01   -.182E-01 0.466E-02 0.133E-01
   0.110E+02 0.198E+02 -.268E+04   -.109E+02 -.194E+02 0.268E+04   -.155E+00 -.471E+00 0.187E+01   0.122E-01 0.236E-01 -.181E-02
   0.504E+02 0.286E+01 -.143E+04   -.490E+02 -.211E+01 0.143E+04   -.138E+01 -.815E+00 0.139E+01   -.508E-02 0.234E-01 -.877E-02
   -.309E+01 0.133E+02 -.135E+04   0.281E+01 -.131E+02 0.135E+04   0.248E+00 -.269E+00 0.113E+01   -.235E-01 -.647E-02 0.287E-02
   0.821E+02 0.605E+02 0.270E+04   -.818E+02 -.606E+02 -.270E+04   -.300E+00 0.908E-01 -.260E+01   -.314E-02 0.245E-01 0.152E-01
   0.522E+02 -.334E+02 0.159E+04   -.529E+02 0.333E+02 -.160E+04   0.638E+00 0.137E+00 0.144E+01   0.440E-01 -.163E-01 0.628E-01
   -.151E+02 -.125E+02 -.137E+04   0.151E+02 0.122E+02 0.137E+04   -.101E+00 0.414E+00 0.188E+01   0.712E-01 -.381E-01 -.225E-01
   -.789E+02 0.859E+02 0.283E+04   0.796E+02 -.845E+02 -.283E+04   -.637E+00 -.134E+01 -.295E+01   -.610E-02 -.233E-01 0.198E-01
   -.148E+02 0.274E+02 0.149E+04   0.144E+02 -.272E+02 -.149E+04   0.313E+00 -.977E-01 -.335E+00   0.245E-01 0.512E-02 0.757E-01
   0.130E+02 0.674E+01 -.269E+04   -.135E+02 -.655E+01 0.269E+04   0.528E+00 -.164E+00 0.191E+01   -.571E-02 -.243E-01 -.363E-02
   0.126E+02 -.782E+02 0.701E+01   -.123E+02 0.775E+02 -.760E+01   -.394E+00 0.664E+00 0.556E+00   -.291E-02 0.911E-02 0.937E-02
   -.337E+02 0.110E+02 -.273E+04   0.331E+02 -.112E+02 0.273E+04   0.675E+00 0.238E+00 0.183E+01   -.147E-02 -.135E-01 -.273E-01
   0.200E+02 0.311E+02 0.962E+02   -.207E+02 -.318E+02 -.965E+02   0.795E+00 0.738E+00 0.186E+00   0.290E-02 -.213E-01 0.214E-01
   -.831E+02 0.250E+02 -.136E+04   0.823E+02 -.248E+02 0.135E+04   0.865E+00 -.258E+00 0.234E+01   0.107E-01 -.118E-01 0.736E-02
   0.486E+02 -.146E+02 -.138E+04   -.476E+02 0.152E+02 0.138E+04   -.112E+01 -.629E+00 0.135E+01   0.266E-01 0.234E-01 -.958E-02
   0.418E+02 -.786E+02 0.159E+04   -.404E+02 0.786E+02 -.159E+04   -.139E+01 -.256E-01 0.135E+01   -.286E-01 -.453E-02 0.421E-01
   0.414E+02 -.295E+02 0.413E+00   -.417E+02 0.295E+02 -.101E+01   0.421E+00 0.723E-02 0.628E+00   -.176E-01 -.242E-01 0.362E-01
   -.504E+02 -.506E+01 0.731E+01   0.508E+02 0.625E+01 -.804E+01   -.395E+00 -.126E+01 0.665E+00   0.538E-02 -.459E-02 0.470E-01
   0.530E+02 -.495E+01 0.250E+02   -.522E+02 0.609E+01 -.247E+02   -.898E+00 -.116E+01 -.204E+00   0.494E-01 0.474E-01 0.413E-01
   -.283E+02 -.621E+02 0.870E+02   0.275E+02 0.604E+02 -.886E+02   0.969E+00 0.173E+01 0.159E+01   -.680E-01 0.971E-02 0.427E-01
   0.145E+02 0.769E+02 0.140E+03   -.148E+02 -.760E+02 -.141E+03   0.359E+00 -.876E+00 0.155E+01   -.112E-01 0.716E-02 0.157E-01
   0.171E+02 0.737E+02 -.134E+04   -.167E+02 -.734E+02 0.134E+04   -.409E+00 -.323E+00 0.148E+01   0.214E-01 0.482E-02 -.539E-02
   -.109E+03 0.567E+01 0.252E+02   0.108E+03 -.571E+01 -.265E+02   0.910E+00 -.549E-01 0.138E+01   0.370E-01 -.212E-01 0.400E-01
   -.928E+00 0.745E+02 0.220E+04   0.209E+01 -.741E+02 -.220E+04   -.121E+01 -.482E+00 -.366E+01   0.567E-02 0.267E-01 0.816E-02
   -.190E+02 -.163E+02 0.222E+04   0.173E+02 0.145E+02 -.222E+04   0.175E+01 0.198E+01 -.305E+01   0.558E-02 0.538E-02 0.172E-01
   0.122E+03 0.274E+02 0.225E+04   -.120E+03 -.260E+02 -.224E+04   -.203E+01 -.136E+01 -.398E+01   0.353E-01 -.105E-01 0.171E-01
   0.422E+02 0.107E+03 0.113E+04   -.417E+02 -.106E+03 -.112E+04   -.585E+00 -.250E+00 -.636E+00   -.893E-02 0.145E-01 0.139E-01
   0.989E+01 -.406E+02 0.114E+04   -.968E+01 0.404E+02 -.114E+04   -.234E+00 0.159E+00 -.532E+00   -.230E-01 0.233E-01 0.715E-01
   -.212E+03 0.635E+01 0.225E+04   0.209E+03 -.656E+01 -.224E+04   0.269E+01 0.186E+00 -.347E+01   0.311E-01 -.266E-01 0.146E-01
   -.622E+02 0.692E+02 0.113E+04   0.620E+02 -.682E+02 -.113E+04   0.342E+00 -.106E+01 -.676E+00   -.576E-02 -.116E-01 0.405E-01
   -.563E+02 -.847E+01 0.331E+02   0.557E+02 0.853E+01 -.326E+02   0.592E+00 -.549E-01 -.622E+00   0.109E-01 -.167E-01 0.385E-01
   0.247E+02 0.727E+01 -.113E+04   -.247E+02 -.751E+01 0.113E+04   0.220E-01 0.149E+00 -.176E+00   0.913E-04 0.359E-01 0.108E-02
   -.288E+02 -.104E+03 0.220E+04   0.281E+02 0.102E+03 -.220E+04   0.702E+00 0.259E+01 -.314E+01   0.187E-01 0.811E-02 0.225E-01
   0.105E+03 -.140E+03 0.252E+04   -.104E+03 0.139E+03 -.252E+04   -.126E+01 0.105E+01 -.308E+01   -.632E-01 -.883E-02 0.186E-01
   0.201E+03 0.809E+02 0.252E+04   -.200E+03 -.796E+02 -.252E+04   -.115E+01 -.137E+01 -.301E+01   0.238E-01 -.267E-02 0.229E-01
   -.503E+02 -.587E+02 0.131E+04   0.501E+02 0.581E+02 -.131E+04   0.214E+00 0.613E+00 -.542E+00   0.235E-02 0.313E-01 0.268E-01
   -.101E+03 -.151E+01 0.421E+02   0.100E+03 0.129E+01 -.424E+02   0.252E+00 0.250E+00 0.107E+00   -.305E-02 -.600E-02 0.496E-01
   -.166E+01 -.460E+02 0.122E+04   0.189E+01 0.454E+02 -.122E+04   -.223E+00 0.766E+00 -.424E+00   -.356E-01 -.124E-01 0.396E-01
   0.577E+02 -.182E+01 -.126E+04   -.576E+02 0.178E+01 0.126E+04   -.297E+00 0.348E-01 0.411E+00   0.202E-01 0.397E-01 -.322E-01
   0.711E+02 0.477E+02 0.255E+04   -.704E+02 -.458E+02 -.254E+04   -.709E+00 -.187E+01 -.410E+01   -.470E-02 -.300E-02 0.233E-01
   -.579E+01 -.355E+02 0.127E+04   0.599E+01 0.358E+02 -.127E+04   -.229E+00 -.367E+00 -.400E+00   -.267E-01 0.161E-01 0.606E-01
[...]
   0.123E+03 -.516E+02 0.269E+02   -.123E+03 0.509E+02 -.263E+02   -.299E-01 0.803E+00 -.679E+00   -.173E-01 -.174E-01 0.873E-02
   0.386E+02 0.113E+03 0.157E+04   -.384E+02 -.113E+03 -.157E+04   -.257E+00 -.670E+00 -.128E+01   0.288E-02 0.886E-02 0.236E-01
   -.139E+02 0.424E+02 -.198E+02   0.145E+02 -.427E+02 0.198E+02   -.624E+00 0.445E+00 -.383E-01   0.681E-02 0.765E-02 -.698E-03
   0.511E+02 0.731E+02 -.342E+02   -.506E+02 -.726E+02 0.343E+02   -.480E+00 -.640E+00 -.789E-01   -.269E-01 0.570E-02 0.276E-02
   -.150E+03 -.587E+01 0.134E+04   0.149E+03 0.581E+01 -.134E+04   0.758E+00 0.119E+00 -.925E+00   0.707E-02 -.252E-01 0.102E+00
   -.216E+02 -.110E+02 0.146E+04   0.220E+02 0.109E+02 -.146E+04   -.481E+00 0.254E+00 -.770E+00   0.178E-01 -.328E-01 0.920E-01
   -.204E+03 -.115E+03 0.285E+04   0.204E+03 0.114E+03 -.285E+04   0.508E+00 0.133E+01 -.257E+01   0.971E-03 0.148E-01 0.768E-02
   -.194E+02 -.126E+03 0.282E+04   0.174E+02 0.126E+03 -.282E+04   0.197E+01 0.229E+00 -.167E+01   0.917E-02 -.383E-01 0.242E-01
   0.629E+02 -.394E+02 0.140E+04   -.621E+02 0.391E+02 -.140E+04   -.842E+00 0.299E+00 -.567E+00   -.151E-01 -.511E-02 0.490E-03
   -.552E+02 0.173E+02 -.139E+04   0.549E+02 -.172E+02 0.139E+04   0.362E+00 -.257E+00 -.148E-01   0.312E-01 0.903E-02 0.109E-01
   -.597E+02 0.505E+02 0.281E+04   0.601E+02 -.498E+02 -.281E+04   -.314E+00 -.626E+00 -.129E+01   -.472E-01 -.336E-01 0.301E-01
   -.155E+02 0.601E+02 0.147E+02   0.157E+02 -.598E+02 -.144E+02   -.309E+00 -.363E+00 -.281E+00   0.580E-01 0.398E-02 0.211E-01
   0.423E+02 0.504E+01 0.926E+01   -.420E+02 -.485E+01 -.920E+01   -.360E+00 -.320E+00 -.307E+00   -.447E-01 0.588E-01 0.708E-01
   0.279E+01 0.749E+00 -.318E+03   -.285E+01 -.846E+00 0.320E+03   0.821E-01 0.678E-01 -.170E+01   -.285E-03 -.503E-03 -.330E-02
   -.415E+00 0.200E+00 0.484E+01   -.221E-12 -.714E-12 0.121E-10   0.482E+00 -.119E+00 -.595E+01   -.803E-01 -.351E-01 0.114E+01

 POSITION                                       TOTAL-FORCE (eV/Angst)
     13.58744      8.45628      6.92257         0.009409      0.003405     -0.008799
      5.28424      8.45100      6.94286         0.020516      0.003953      0.015735
      3.86678      5.98418      6.88470         0.002792     -0.003662      0.000738
      2.39257      3.59494      7.01888        -0.012324      0.001688     -0.026903
      3.84252      1.03485      7.01500         0.009223     -0.007382     -0.010840
      5.28012      3.56715      6.97973        -0.000450      0.008648     -0.003028
     13.51950      6.69208      2.75694        -0.037260     -0.017943     -0.000333
     15.06737      9.25942      9.16273         0.026973      0.010038     -0.003953
      3.84647      4.43179      9.23026         0.003177      0.009442      0.005348
      6.69012      9.19406      9.22461         0.008835      0.008006     -0.013694
     12.27564      4.37973      9.25724        -0.009915      0.015753      0.011591
      9.52609      9.16559      9.19295        -0.009713     -0.001127     -0.006807
     10.82479      2.02111      9.13163        -0.005390      0.028261      0.002246
      2.49199      2.00490      9.29942         0.003890     -0.009379      0.014377
     12.26358      9.20344      9.19248        -0.004439      0.008824      0.001767
     13.69490      6.84351      9.22942         0.012026      0.005786     -0.016632
      5.30363      1.91322      9.23280         0.000447      0.000305      0.008375
      8.14760      6.82530      9.19704        -0.005788     -0.017579      0.003367
      9.54546      4.44320      9.22710         0.007423      0.002730      0.003803
      5.25436      6.82051      9.20818         0.005976     -0.009793     -0.005722
      8.08906      1.99369      9.17567        -0.014929     -0.022553     -0.006635
      8.18297      3.65616      6.98951        -0.003711     -0.007975     -0.004386
      6.64753      1.18023      6.95753        -0.016217     -0.005330      0.003815
      6.78185      1.16816      1.10976        -0.009495      0.013203      0.001915
      3.74327      4.26289      2.71491         0.020988      0.010399      0.011999
      1.08488      1.10468      6.97055        -0.014032      0.015102     -0.022701
      1.01575      1.28649      0.81183         0.011809     -0.001076      0.021961
      6.67142      9.31568      2.85544         0.003669      0.023771     -0.014957
      6.65165      4.41148      9.22818         0.005962      0.006548     -0.003649
      8.14285      5.24496      4.86976        -0.007325      0.008296     -0.027649
     10.87038      6.80622      9.25591         0.003438      0.017654     -0.004080
     14.99686      7.68362      4.79411        -0.032956     -0.040890     -0.078811
     12.24945      6.05194      6.99695         0.009292     -0.017698      0.009049
      6.73405      6.03506      6.99158        -0.011684      0.005815      0.009669
      8.20780      6.89173      2.69128        -0.001094     -0.015289     -0.009601
      3.77766      2.69345      4.90572        -0.030244     -0.013054      0.011172
     10.86552      5.33036      4.88657         0.011128     -0.002964     -0.023124
      6.80891      7.69639      4.91949        -0.014665      0.019765      0.061171
      5.20720      0.16029      4.85410        -0.012812      0.014483     -0.008238
      7.96508      0.45571      4.72390         0.011230     -0.014718     -0.033354
      9.48289      1.17564      6.88508        -0.010831      0.007029      0.001306
     12.19222      2.77766      4.87496         0.022683     -0.054265      0.069863
     13.78001      8.57392      1.07376        -0.003436     -0.004627     -0.006329
      5.17612      8.26819      1.02395         0.019762      0.004755     -0.009339
      4.07688      6.12594      0.96722         0.011574      0.004856      0.012353
      8.23477      2.19285      2.91186         0.000661     -0.002540      0.000976
      9.46232      9.17873      2.88867        -0.013017      0.006904     -0.009723
     13.23829      3.61532      0.98546         0.004203     -0.012672     -0.000306
     10.87798      2.06279      2.87872        -0.000588     -0.016718      0.001218
     13.60649      5.17210      4.92826         0.010207      0.033375     -0.032067
      9.49545      6.01727      7.10144        -0.001858      0.002331      0.001516
      3.91652      1.06390      1.10530         0.017411     -0.001306      0.037058
      9.69052      5.79723      1.02825        -0.012479     -0.002366      0.000208
      5.55996      3.72993      1.09992        -0.003686     -0.038263     -0.005996
     12.22782      8.97667      2.86865        -0.022758     -0.013090      0.012727
     12.22062      7.58099      4.89646        -0.004703     -0.001812     -0.013870
      9.50033      4.35926      2.89266        -0.001724      0.011258     -0.003188
      8.10712      8.42842      7.03598         0.001376      0.001013      0.006417
      8.20297      8.78072      0.90411         0.008622      0.017082     -0.002732
     10.87946      6.90186      2.86164        -0.037792     -0.000780      0.002213
[...]
     10.84088      8.41789      0.89812        -0.019041      0.013614     -0.005696
      5.29878      5.08233      4.87221         0.008777      0.011217      0.004973
     15.21969      9.46320      2.91158         0.024222     -0.000002      0.018703
      9.54798      2.83243      4.93973        -0.002417      0.004146     -0.013710
      6.74099      2.86414      4.91726         0.017296      0.012419     -0.005952
     12.12718      4.37157      2.88927         0.007266     -0.011134      0.012592
      2.50652      1.86558      2.87455        -0.011873      0.003765     -0.010932
     12.02738      5.81407      0.92547        -0.012376     -0.009083      0.019902
      6.52756      5.95530      1.01982        -0.006776     -0.036824     -0.004971
      6.84854      4.37406      2.90086        -0.019382     -0.019930      0.002047
     10.85826      3.69679      7.02712        -0.002313      0.014588     -0.004328
     10.75754      3.55271      0.95995        -0.002448      0.004123     -0.008477
     10.94499      0.41654      4.90182         0.060151      0.011733      0.036913
      9.50574      7.61774      4.99769        -0.019892      0.009858     -0.012167
      1.77069      0.73076     10.23959         0.023745     -0.030374      0.017391
    total drift:                               -0.013145      0.045677      0.030161

  FREE ENERGIE OF THE ION-ELECTRON SYSTEM (eV)
  free  energy   TOTEN  =      -507.85642863 eV

  energy  without entropy=     -507.86085460  energy(sigma->0) =     -507.85790396

 d Force = 0.1726470E-02[ 0.112E-02, 0.234E-02]  d Energy = 0.1759145E-02-0.327E-04
 d Force = 0.8302401E+00[ 0.809E+00, 0.851E+00]  d Ewald  = 0.8302497E+00-0.962E-05

 Conjugate gradient step on ions:
 trial-energy change:   -0.001759  1 .order   -0.001726   -0.002338   -0.001115
  (g-gl).g = 0.194E-02      g.g   = 0.157E-02  gl.gl    = 0.670E-02
 g(Force)  = 0.157E-02   g(Stress)= 0.000E+00 ortho     =-0.153E-04
 gamma     =   0.28935
 trial     =   1.49694
 opt step  =   2.86309  (harmonic =   2.86309) maximal distance =0.01041229
 next E    =  -507.856905   (d E  =  -0.00224)

 reached required accuracy - stopping structural energy minimisation