 vasp.5.4.4.18Apr17-6-g9f103f2a35 (build Nov 30 2020 22:55:02) complex

 executed on             LinuxIFC date 2022.09.16  22:00:45

 INCAR:
 POTCAR:    PAW_PBE Pt 04Feb2005
 POTCAR:    PAW_PBE Fe 06Sep2000
 POTCAR:    PAW_PBE Co 02Aug2007
 POTCAR:    PAW_PBE Cu 22Jun2005
 POTCAR:    PAW_PBE Ni 02Aug2007
 POTCAR:    PAW_PBE O 08Apr2002

 POTCAR:    PAW_PBE Pt 04Feb2005
   VRHFIN =Pt: s1d9

   TITEL  = PAW_PBE Pt 04Feb2005
   POMASS =  195.080; ZVAL   =   10.000    mass and valenz
   ENMAX  =  230.283; ENMIN  =  172.712 eV

 POTCAR:    PAW_PBE Fe 06Sep2000
   VRHFIN =Fe:  d7 s1

   TITEL  = PAW_PBE Fe 06Sep2000
   POMASS =   55.847; ZVAL   =    8.000    mass and valenz
   ENMAX  =  267.882; ENMIN  =  200.911 eV

 POTCAR:    PAW_PBE Co 02Aug2007
   VRHFIN =Co: d8 s1

   TITEL  = PAW_PBE Co 02Aug2007
   POMASS =   58.933; ZVAL   =    9.000    mass and valenz
   ENMAX  =  267.968; ENMIN  =  200.976 eV

 POTCAR:    PAW_PBE Cu 22Jun2005
   VRHFIN =Cu: d10 p1

   TITEL  = PAW_PBE Cu 22Jun2005
   POMASS =   63.546; ZVAL   =   11.000    mass and valenz
   ENMAX  =  295.446; ENMIN  =  221.585 eV

 POTCAR:    PAW_PBE Ni 02Aug2007
   VRHFIN =Ni:

   TITEL  = PAW_PBE Ni 02Aug2007
   POMASS =   58.690; ZVAL   =   10.000    mass and valenz
   ENMAX  =  269.532; ENMIN  =  202.149 eV

 POTCAR:    PAW_PBE O 08Apr2002
   VRHFIN =O: s2p4

   TITEL  = PAW_PBE O 08Apr2002
   POMASS =   16.000; ZVAL   =    6.000    mass and valenz
   ENMAX  =  400.000; ENMIN  =  300.000 eV

 Optimization of the real space projectors (new method)

 maximal supplied QI-value         = 14.36
 optimisation between [QCUT,QGAM] = [ 11.92, 23.98] = [ 39.79,161.09] Ry
 Optimized for a Real-space Cutoff    1.49 Angstroem

   l    n(q)    QCUT    max X(q) W(low)/X(q) W(high)/X(q)  e(spline)
   2     10    11.920    66.195    0.79E-04    0.18E-03    0.24E-06
   2     10    11.920    64.643    0.81E-04    0.19E-03    0.24E-06
   0     11    11.920    95.520    0.28E-04    0.54E-04    0.18E-06
   0     11    11.920    63.403    0.27E-04    0.52E-04    0.17E-06
   1     10    11.920    19.961    0.18E-04    0.11E-03    0.23E-06
   1     10    11.920    13.289    0.25E-04    0.87E-04    0.19E-06
 Optimization of the real space projectors (new method)

[...]

   l    n(q)    QCUT    max X(q) W(low)/X(q) W(high)/X(q)  e(spline)
   2      9    11.864    60.317    0.21E-03    0.51E-03    0.25E-06
   2      9    11.864    55.921    0.21E-03    0.51E-03    0.26E-06
   0      9    11.864    51.690    0.22E-03    0.30E-04    0.17E-06
   0      9    11.864    30.015    0.20E-03    0.28E-04    0.15E-06
   1      9    11.864    18.849    0.76E-04    0.33E-03    0.17E-06
   1      9    11.864    14.624    0.60E-04    0.28E-03    0.15E-06
 Optimization of the real space projectors (new method)

 maximal supplied QI-value         = 24.76
 optimisation between [QCUT,QGAM] = [ 11.88, 24.01] = [ 39.54,161.47] Ry
 Optimized for a Real-space Cutoff    1.18 Angstroem

   l    n(q)    QCUT    max X(q) W(low)/X(q) W(high)/X(q)  e(spline)
   0      8    11.883    20.381    0.86E-04    0.11E-03    0.31E-06
   0      8    11.883    15.268    0.94E-04    0.12E-03    0.33E-06
   1      8    11.883     5.964    0.19E-03    0.18E-04    0.33E-06
   1      8    11.883     5.382    0.17E-03    0.20E-04    0.29E-06
  PAW_PBE Pt 04Feb2005                  :
  PAW_PBE Fe 06Sep2000                  :
  PAW_PBE Co 02Aug2007                  :
  PAW_PBE Cu 22Jun2005                  :
  PAW_PBE Ni 02Aug2007                  :
  PAW_PBE O 08Apr2002                   :

 POSCAR: 10.56
  positions in cartesian coordinates
 exchange correlation table for  LEXCH =        8
   RHO(1)=    0.500       N(1)  =     2000
   RHO(2)=  100.500       N(2)  =     4000

 ion  position               nearest neighbor table
   1  0.786  0.878  0.320-  19 2.62  49 2.65  61 2.65  33 2.66  28 2.67  29 2.67  60 2.69  59 2.69
                             2 2.72  11 2.72   4 2.79  12 2.82
   2  0.042  0.882  0.315-  79 2.54  77 2.59  60 2.62  28 2.64  30 2.65  52 2.67  33 2.68  22 2.69
                             1 2.72   6 2.74   4 2.83  16 2.90
   3  0.281  0.376  0.322-  39 2.56  33 2.61  64 2.64  31 2.66  19 2.68  43 2.70  13 2.72  30 2.73
                            68 2.75   5 2.77  18 2.82  25 2.83
   4  0.876  0.962  0.424-  11 2.61   6 2.61   9 2.63  17 2.64  16 2.64  12 2.67   1 2.79  60 2.81
                             2 2.83
   5  0.120  0.464  0.428-  12 2.58   7 2.62  16 2.63  13 2.64  10 2.65  25 2.69  33 2.72  39 2.74
                             3 2.77
   6  0.124  0.960  0.420-   8 2.60   4 2.61  16 2.63  14 2.64   9 2.65  10 2.65   2 2.74  52 2.74
                            22 2.85
   7  0.874  0.460  0.428-  10 2.61  15 2.62   5 2.62   9 2.63  27 2.63  12 2.64  39 2.71  75 2.79
                            29 2.82
   8  0.372  0.958  0.422-  81 2.13  14 2.59   6 2.60  43 2.63  27 2.66  10 2.67  52 2.68  13 2.72
                            11 2.74  61 2.75
   9  0.875  0.211  0.421-  17 2.60  10 2.61   4 2.63   7 2.63  15 2.63   6 2.65  75 2.69  60 2.74
                            22 2.82
  10  0.121  0.213  0.422-   9 2.61   7 2.61  39 2.64   6 2.65   5 2.65  13 2.66   8 2.67  43 2.74
                            22 2.76
  11  0.631  0.958  0.425-  81 2.06   4 2.61  12 2.61  17 2.67  27 2.68   1 2.72  13 2.74   8 2.74
                            19 2.87  61 2.89
  12  0.876  0.709  0.427-   5 2.58  11 2.61  16 2.64   7 2.64  27 2.66   4 2.67  33 2.69   1 2.82
                            29 2.83
  13  0.371  0.216  0.426-  81 2.04  25 2.62   5 2.64  10 2.66  17 2.70   3 2.72   8 2.72  11 2.74
                            43 2.83  19 2.88
  14  0.375  0.711  0.423-   8 2.59  27 2.62  25 2.62  15 2.64   6 2.64  16 2.65  44 2.69  52 2.74
                            30 2.76
  15  0.626  0.461  0.423-  27 2.60  17 2.61   7 2.62   9 2.63  25 2.64  14 2.64  44 2.71  75 2.72
                            18 2.78
  16  0.125  0.711  0.426-   5 2.63  25 2.63   6 2.63  12 2.64   4 2.64  14 2.65  33 2.68  30 2.83
                             2 2.90
  17  0.628  0.213  0.421-   9 2.60  15 2.61   4 2.64  25 2.65  11 2.67  13 2.70  18 2.73  60 2.75
                            19 2.88
  18  0.548  0.375  0.317-  67 2.56  60 2.59  75 2.60  68 2.64  44 2.65  26 2.66  30 2.70  19 2.73
                            17 2.73  15 2.78   3 2.82  25 2.89
  19  0.535  0.123  0.314-  80 2.54  68 2.57  43 2.57  59 2.59   1 2.62  61 2.63   3 2.68  18 2.73
                            60 2.76  11 2.87  13 2.88  17 2.88
  20  0.547  0.124  0.040-  37 2.55  57 2.56  48 2.58  62 2.64  63 2.68  47 2.68  45 2.68  56 2.70
                            34 2.71
  21  0.121  0.460  0.128-  40 2.52  36 2.53  47 2.53  42 2.60  69 2.61  64 2.62  70 2.64  50 2.64
                            58 2.67  31 2.70  57 2.71  74 2.72
  22  0.042  0.136  0.314-  65 2.51  55 2.53  77 2.56  43 2.58  39 2.58  75 2.61  60 2.68   2 2.69
                            52 2.74  10 2.76   9 2.82   6 2.85  31 3.40
  23  0.042  0.130  0.033-  70 2.58  40 2.60  41 2.61  45 2.62  62 2.64  76 2.64  24 2.69  35 2.73
                            53 2.78
  24  0.130  0.958  0.132-  79 2.51  77 2.54  35 2.57  53 2.57  55 2.58  70 2.62  38 2.64  58 2.64
                            73 2.65  23 2.69  66 2.70  41 2.72
  25  0.376  0.462  0.427-  14 2.62  13 2.62  16 2.63  15 2.64  17 2.65   5 2.69   3 2.83  30 2.84
                            18 2.89
  26  0.455  0.546  0.219-  73 2.50  74 2.54  51 2.56  79 2.61  64 2.63  30 2.64  18 2.66  68 2.67
                            78 2.67  32 2.68  67 2.72  44 2.74
  27  0.624  0.708  0.423-  15 2.60  14 2.62   7 2.63   8 2.66  12 2.66  44 2.68  11 2.68  29 2.77
                            61 2.77
  28  0.956  0.790  0.221-  58 2.57  66 2.57  50 2.58  42 2.59  49 2.61  64 2.63   2 2.64   1 2.67
                            59 2.70  33 2.73  79 2.76  77 2.77
  29  0.795  0.622  0.319-  39 2.54  42 2.55  75 2.58  32 2.61  44 2.64  33 2.64   1 2.67  61 2.68
                            49 2.69  27 2.77   7 2.82  12 2.83
  30  0.291  0.630  0.318-  79 2.57  64 2.59  52 2.63  44 2.64  26 2.64   2 2.65  33 2.65  18 2.70
                             3 2.73  14 2.76  16 2.83  25 2.84
  31  0.203  0.281  0.225-  70 2.52  55 2.56  65 2.57  43 2.60  57 2.60   3 2.66  39 2.67  80 2.70
                            21 2.70  42 2.71  68 2.75  64 2.79  22 3.40
  32  0.706  0.549  0.221-  54 2.53  69 2.56  51 2.58  49 2.59  42 2.60  29 2.61  78 2.62  65 2.63
                            26 2.68  75 2.69  44 2.69  67 2.70
  33  0.041  0.629  0.326-   3 2.61  39 2.63  29 2.64  30 2.65   1 2.66   2 2.68  16 2.68  12 2.69
                            64 2.70   5 2.72  42 2.73  28 2.73
  34  0.797  0.862  0.042-  50 2.38  66 2.51  48 2.53  36 2.55  71 2.56  63 2.61  20 2.71  35 2.76
                            62 2.76
  35  0.056  0.866  0.038-  58 2.54  72 2.55  36 2.56  24 2.57  66 2.62  53 2.65  23 2.73  62 2.73
                            34 2.76
  36  0.046  0.628  0.037-  21 2.53  34 2.55  35 2.56  58 2.58  50 2.61  47 2.63  72 2.64  40 2.69
                            71 2.72
  37  0.627  0.222  0.129-  51 2.51  74 2.51  67 2.52  56 2.53  41 2.55  20 2.55  68 2.56  59 2.56
                            62 2.59  66 2.66  57 2.73  48 2.89
  38  0.382  0.955  0.130-  53 2.47  80 2.48  45 2.49  78 2.53  48 2.54  73 2.55  63 2.55  54 2.56
                            55 2.59  57 2.62  24 2.64  70 2.67
  39  0.036  0.383  0.324-  29 2.54   3 2.56  22 2.58  75 2.59  33 2.63  10 2.64  42 2.66  31 2.67
                             7 2.71   5 2.74  65 2.75  43 2.81
  40  0.031  0.382  0.038-  69 2.44  21 2.52  71 2.53  76 2.56  70 2.57  23 2.60  36 2.69  45 2.78
                            47 2.78
  41  0.872  0.215  0.128-  76 2.45  65 2.52  77 2.53  67 2.54  37 2.55  69 2.57  62 2.57  51 2.59
                            23 2.61  70 2.65  66 2.66  24 2.72
  42  0.955  0.545  0.224-  29 2.55  50 2.56  28 2.59  21 2.60  32 2.60  69 2.61  49 2.63  65 2.64
                            64 2.65  39 2.66  31 2.71  33 2.73
  43  0.297  0.113  0.321-  52 2.51  55 2.51  61 2.54  19 2.57  22 2.58  31 2.60   8 2.63  80 2.65
                             3 2.70  10 2.74  39 2.81  13 2.83
  44  0.540  0.630  0.322-  61 2.55  52 2.57  78 2.63  30 2.64  29 2.64  18 2.65  75 2.65  27 2.68
                            32 2.69  14 2.69  15 2.71  26 2.74
  45  0.295  0.119  0.039-  70 2.49  38 2.49  57 2.57  53 2.60  23 2.62  63 2.64  20 2.68  47 2.75
                            40 2.78
  46  0.548  0.625  0.044-  51 2.38  73 2.39  54 2.41  71 2.56  53 2.56  63 2.58  76 2.59  56 2.62
                            72 2.64
  47  0.296  0.379  0.039-  74 2.41  21 2.53  57 2.61  72 2.61  56 2.62  36 2.63  20 2.68  45 2.75
                            40 2.78
  48  0.625  0.950  0.132-  49 2.40  80 2.48  54 2.48  34 2.53  38 2.54  59 2.55  50 2.56  63 2.57
                            20 2.58  57 2.65  66 2.68  37 2.89
  49  0.706  0.794  0.220-  48 2.40  50 2.48  54 2.49  80 2.53  32 2.59  28 2.61  78 2.61  42 2.63
                            61 2.64   1 2.65  29 2.69  59 2.69
  50  0.866  0.706  0.129-  34 2.38  71 2.42  54 2.48  49 2.48  42 2.56  48 2.56  69 2.58  28 2.58
[...]
     12.86756      6.45280      2.83379        -0.017616      0.150250      0.006708
      9.04201      4.20780      2.79628         0.016346      0.006369      0.008410
      7.76705      7.99954      7.01224        -0.014780      0.001103      0.018503
      7.81315      7.93922      0.88653        -0.066627      0.189207     -0.033571
     10.39144      6.53566      2.82198        -0.001634     -0.001569      0.035137
      2.51347      0.25826      5.00083         0.047546     -0.034000     -0.049661
      7.74264      3.48454      0.76157        -0.000381      0.005304     -0.019504
      5.07835      1.87760      2.91701        -0.049676     -0.065187     -0.146421
      5.16037      6.44715      2.89923        -0.007740     -0.001133     -0.052896
      7.70892      0.45986      4.84799         0.021218     -0.055876      0.027049
      9.05413      1.18222      6.96901         0.000133     -0.000264     -0.003798
[...]
      9.07350      2.65252      4.91360         0.028932     -0.028162     -0.039521
      6.37169      2.66558      4.85827        -0.072857      0.016016     -0.000213
     11.65891      4.17486      2.81483        -0.040115     -0.008546      0.013772
      2.44098      1.89237      2.83279        -0.037127      0.011204     -0.012653
     11.64953      5.68621      0.88546         0.049715      0.092692     -0.045536
      6.44743      5.71949      0.92597        -0.058278      0.074666     -0.031011
      7.82927      6.50651      2.83621        -0.018278      0.036465     -0.028261
      6.41922      4.13007      2.78290        -0.013325     -0.015125      0.069789
     10.36787      3.46565      7.04857         0.003770      0.005719     -0.024568
     10.34410      3.45013      0.86804         0.005272     -0.044568     -0.045261
     10.37063      0.48410      4.87151        -0.002637     -0.029909     -0.074534
      9.04079      7.29017      4.93700        -0.001662      0.013043      0.007939
      6.46265      7.29503      4.94074        -0.000297      0.026486     -0.042777
      5.04247      0.27633      4.88406        -0.064126     -0.006115     -0.009976
      5.09878      0.41574     10.67227        -0.047190     -0.027649      0.201947
    total drift:                                0.001366     -0.021456     -0.018826

  FREE ENERGIE OF THE ION-ELECTRON SYSTEM (eV)
  free  energy   TOTEN  =      -511.15202936 eV

  energy  without entropy=     -511.15202936  energy(sigma->0) =     -511.15202936

 d Force =-0.2422129E-03[-0.606E-02, 0.557E-02]  d Energy = 0.4706453E-04-0.289E-03
 d Force =-0.6128615E+02[-0.614E+02,-0.612E+02]  d Ewald  =-0.6128695E+02 0.803E-03

 Finite differences progress:
  Degree of freedom:   3/  3
  Displacement:        2/  2
  Total:               6/  6

 SECOND DERIVATIVES (NOT SYMMETRIZED)
              81X         81Y         81Z
 81X    -5.027770    0.925740    1.568955
 81Y     0.844239   -6.030884    1.316503
 81Z     1.497512    1.253529  -12.924851

 Eigenvectors and eigenvalues of the dynamical matrix

   1 f  =   14.296136 THz    89.825271 2PiTHz  476.867747 cm-1    59.124087 meV
             X         Y         Z           dx          dy          dz
     12.939291  8.033637  7.030214            0           0           0
      5.094854  8.064966  6.938151            0           0           0
      4.954995  3.442778  7.087967            0           0           0
     14.332111  8.798755  9.325654            0           0           0
      3.717039  4.247157  9.426685            0           0           0
      6.382292  8.779595  9.245854            0           0           0
     11.659114  4.208241  9.413408            0           0           0
      8.986274  8.763032  9.279301            0           0           0
     10.351854  1.933820  9.265151            0           0           0
      2.402610  1.947216  9.273136            0           0           0
     11.725806  8.761420  9.356657            0           0           0
     12.996326  6.483366  9.389300            0           0           0
      5.060006  1.975767  9.373858            0           0           0
      7.717001  6.500332  9.304644            0           0           0
      9.044817  4.218828  9.305424            0           0           0
      5.072341  6.498406  9.377661            0           0           0
      7.753647  1.946796  9.266006            0           0           0
      7.767597  3.429637  6.970994            0           0           0
      6.297549  1.127418  6.918315            0           0           0
      6.428579  1.129740  0.878720            0           0           0
      3.705484  4.208436  2.816869            0           0           0
      1.168031  1.248189  6.903030            0           0           0
      1.135691  1.190800  0.725566            0           0           0
      6.436066  8.760995  2.900314            0           0           0
      6.406860  4.228619  9.390380            0           0           0
      7.681351  4.990728  4.814740            0           0           0
     10.332740  6.474876  9.303743            0           0           0
     14.264242  7.225928  4.862987            0           0           0
     11.673647  5.687532  7.016828            0           0           0
      6.397994  5.757594  6.994184            0           0           0
      3.621194  2.565893  4.960228            0           0           0
     10.360912  5.024302  4.856517            0           0           0
      3.752571  5.756083  7.162987            0           0           0
     12.969068  7.879772  0.925674            0           0           0
      5.163396  7.917194  0.830298            0           0           0
      3.807011  5.745024  0.813805            0           0           0
      7.798522  2.032451  2.832513            0           0           0
      9.077547  8.733730  2.857427            0           0           0
      2.400461  3.504048  7.137589            0           0           0
      2.344093  3.490514  0.825101            0           0           0
     10.348141  1.969830  2.822490            0           0           0
     12.960353  4.985870  4.925592            0           0           0
      3.730006  1.032847  7.059785            0           0           0
      9.031803  5.758668  7.077007            0           0           0
      3.748243  1.091821  0.867003            0           0           0
      9.091210  5.718673  0.960427            0           0           0
      5.124479  3.470454  0.855627            0           0           0
     11.620923  8.687580  2.905895            0           0           0
     11.653130  7.264496  4.842290            0           0           0
     12.867560  6.452796  2.833790            0           0           0
      9.042010  4.207796  2.796278            0           0           0
      7.767048  7.999537  7.012242            0           0           0
      7.813155  7.939223  0.886525            0           0           0
     10.391439  6.535663  2.821980            0           0           0
      2.513474  0.258257  5.000827            0           0           0
      7.742638  3.484538  0.761574            0           0           0
      5.078354  1.877603  2.917008            0           0           0
      5.160365  6.447147  2.899226            0           0           0
      7.708921  0.459858  4.847993            0           0           0
      9.054131  1.182224  6.969012            0           0           0
[...]
      9.073503  2.652522  4.913605            0           0           0
      6.371693  2.665576  4.858272            0           0           0
     11.658911  4.174860  2.814827            0           0           0
      2.440982  1.892366  2.832794            0           0           0
     11.649530  5.686214  0.885461            0           0           0
      6.447433  5.719494  0.925972            0           0           0
      7.829267  6.506514  2.836212            0           0           0
      6.419224  4.130068  2.782896            0           0           0
     10.367869  3.465655  7.048569            0           0           0
     10.344097  3.450125  0.868038            0           0           0
     10.370626  0.484098  4.871515            0           0           0
      9.040790  7.290173  4.936995            0           0           0
      6.462653  7.295032  4.940739            0           0           0
      5.042471  0.276335  4.884059            0           0           0
      5.098780  0.415742 10.687269    -0.163002   -0.150857    0.975024

[...]

   3 f  =    7.885445 THz    49.545712 2PiTHz  263.030126 cm-1    32.611591 meV
             X         Y         Z           dx          dy          dz
     12.939291  8.033637  7.030214            0           0           0
      5.094854  8.064966  6.938151            0           0           0
      4.954995  3.442778  7.087967            0           0           0
     14.332111  8.798755  9.325654            0           0           0
      3.717039  4.247157  9.426685            0           0           0
      6.382292  8.779595  9.245854            0           0           0
     11.659114  4.208241  9.413408            0           0           0
      8.986274  8.763032  9.279301            0           0           0
     10.351854  1.933820  9.265151            0           0           0
      2.402610  1.947216  9.273136            0           0           0
     11.725806  8.761420  9.356657            0           0           0
     12.996326  6.483366  9.389300            0           0           0
      5.060006  1.975767  9.373858            0           0           0
      7.717001  6.500332  9.304644            0           0           0
      9.044817  4.218828  9.305424            0           0           0
      5.072341  6.498406  9.377661            0           0           0
      7.753647  1.946796  9.266006            0           0           0
      7.767597  3.429637  6.970994            0           0           0
      6.297549  1.127418  6.918315            0           0           0
      6.428579  1.129740  0.878720            0           0           0
      3.705484  4.208436  2.816869            0           0           0
      1.168031  1.248189  6.903030            0           0           0
      1.135691  1.190800  0.725566            0           0           0
      6.436066  8.760995  2.900314            0           0           0
      6.406860  4.228619  9.390380            0           0           0
      7.681351  4.990728  4.814740            0           0           0
     10.332740  6.474876  9.303743            0           0           0
     14.264242  7.225928  4.862987            0           0           0
     11.673647  5.687532  7.016828            0           0           0
      6.397994  5.757594  6.994184            0           0           0
      3.621194  2.565893  4.960228            0           0           0
     10.360912  5.024302  4.856517            0           0           0
      3.752571  5.756083  7.162987            0           0           0
     12.969068  7.879772  0.925674            0           0           0
      5.163396  7.917194  0.830298            0           0           0
      3.807011  5.745024  0.813805            0           0           0
      7.798522  2.032451  2.832513            0           0           0
      9.077547  8.733730  2.857427            0           0           0
      2.400461  3.504048  7.137589            0           0           0
      2.344093  3.490514  0.825101            0           0           0
     10.348141  1.969830  2.822490            0           0           0
     12.960353  4.985870  4.925592            0           0           0
      3.730006  1.032847  7.059785            0           0           0
      9.031803  5.758668  7.077007            0           0           0
      3.748243  1.091821  0.867003            0           0           0
      9.091210  5.718673  0.960427            0           0           0
      5.124479  3.470454  0.855627            0           0           0
     11.620923  8.687580  2.905895            0           0           0
     11.653130  7.264496  4.842290            0           0           0
     12.867560  6.452796  2.833790            0           0           0
      9.042010  4.207796  2.796278            0           0           0
      7.767048  7.999537  7.012242            0           0           0
      7.813155  7.939223  0.886525            0           0           0
     10.391439  6.535663  2.821980            0           0           0
      2.513474  0.258257  5.000827            0           0           0
      7.742638  3.484538  0.761574            0           0           0
      5.078354  1.877603  2.917008            0           0           0
      5.160365  6.447147  2.899226            0           0           0
      7.708921  0.459858  4.847993            0           0           0
      9.054131  1.182224  6.969012            0           0           0
[...]
      9.073503  2.652522  4.913605            0           0           0
      6.371693  2.665576  4.858272            0           0           0
     11.658911  4.174860  2.814827            0           0           0
      2.440982  1.892366  2.832794            0           0           0
     11.649530  5.686214  0.885461            0           0           0
      6.447433  5.719494  0.925972            0           0           0
      7.829267  6.506514  2.836212            0           0           0
      6.419224  4.130068  2.782896            0           0           0
     10.367869  3.465655  7.048569            0           0           0
     10.344097  3.450125  0.868038            0           0           0
     10.370626  0.484098  4.871515            0           0           0
      9.040790  7.290173  4.936995            0           0           0
      6.462653  7.295032  4.940739            0           0           0
      5.042471  0.276335  4.884059            0           0           0
      5.098780  0.415742 10.687269     0.827753    0.516863    0.218352

 Finite differences POTIM=  1.500000000000000E-002
  LATTYP: Found a hexagonal cell.
 ALAT       =    10.5600004196
 C/A-ratio  =     2.0833332505

  Lattice vectors:

 A1 = (   5.2800002098,  -9.1452286274,   0.0000000000)
 A2 = ( -10.5600004196,   0.0000000000,   0.0000000000)
 A3 = (   0.0000000000,   0.0000000000, -22.0000000000)

Analysis of symmetry for initial positions (statically):
 Subroutine PRICEL returns:
 Original cell was already a primitive cell.

[...]

The static configuration has the point symmetry C_1 .

Analysis of symmetry for dynamics (positions and initial velocities):
 Subroutine PRICEL returns:
 Original cell was already a primitive cell.

[...]

The dynamic configuration has the point symmetry C_1 .

Analysis of constrained symmetry for selective dynamics:
 Subroutine PRICEL returns:
 Original cell was already a primitive cell.

[...]

The constrained configuration has the point symmetry C_1 .

Analysis of structural, dynamic, and magnetic symmetry:
 Subroutine PRICEL returns:
 Original cell was already a primitive cell.

 Routine SETGRP: Setting up the symmetry group for a
 hexagonal supercell.

 Subroutine GETGRP returns: Found  1 space group operations
 (whereof  1 operations were pure point group operations)
 out of a pool of 24 trial point group operations.

The magnetic configuration has the point symmetry C_1 .

 Subroutine INISYM returns: Found  1 space group operations
 (whereof  1 operations are pure point group operations),
 and found     1 'primitive' translations

 KPOINTS: mesh auto

Automatic generation of k-mesh.
Space group operators:
 irot       det(A)        alpha          n_x          n_y          n_z        tau_x        tau_y        tau_z
    1     1.000000     0.000001     1.000000     0.000000     0.000000     0.000000     0.000000     0.000000

 Subroutine IBZKPT returns following result:

 Found      4 irreducible k-points:

 Following reciprocal coordinates:
            Coordinates               Weight
  0.000000  0.000000  0.000000      1.000000
  0.500000  0.000000  0.000000      1.000000
  0.000000  0.500000  0.000000      1.000000
  0.500000  0.500000  0.000000      1.000000

 Following cartesian coordinates:
            Coordinates               Weight
  0.000000  0.000000  0.000000      1.000000
  0.047348 -0.027337  0.000000      1.000000
  0.000000  0.054673  0.000000      1.000000
  0.047348  0.027337  0.000000      1.000000

 TETIRR: Found     12 inequivalent tetrahedra from       24
 BZINTS: Fermi energy:  2.029053;783.000000 electrons
         Band energy:-740.127181;  BLOECHL correction: -0.082839