 vasp.5.4.4.18Apr17-6-g9f103f2a35 (build Nov 06 2019 15:09:28) complex

 executed on             LinuxIFC date 2021.10.26  21:05:36

 INCAR:
 POTCAR:    PAW_PBE Pt 04Feb2005
 POTCAR:    PAW_PBE H 15Jun2001
 POTCAR:    PAW_PBE Pt 04Feb2005
   VRHFIN =Pt: s1d9

   TITEL  = PAW_PBE Pt 04Feb2005
   POMASS =  195.080; ZVAL   =   10.000    mass and valenz
   ENMAX  =  230.283; ENMIN  =  172.712 eV

 POTCAR:    PAW_PBE H 15Jun2001
   VRHFIN =H: ultrasoft test

   TITEL  = PAW_PBE H 15Jun2001
   POMASS =    1.000; ZVAL   =    1.000    mass and valenz
   ENMAX  =  250.000; ENMIN  =  200.000 eV

 Optimization of the real space projectors (new method)

 maximal supplied QI-value         = 14.36
 optimisation between [QCUT,QGAM] = [ 11.92, 23.98] = [ 39.79,161.09] Ry
 Optimized for a Real-space Cutoff    1.49 Angstroem

   l    n(q)    QCUT    max X(q) W(low)/X(q) W(high)/X(q)  e(spline)
   2     10    11.920    66.195    0.79E-04    0.18E-03    0.24E-06
   2     10    11.920    64.643    0.81E-04    0.19E-03    0.24E-06
   0     11    11.920    95.520    0.28E-04    0.54E-04    0.18E-06
   0     11    11.920    63.403    0.27E-04    0.52E-04    0.17E-06
   1     10    11.920    19.961    0.18E-04    0.11E-03    0.23E-06
   1     10    11.920    13.289    0.25E-04    0.87E-04    0.19E-06
 Optimization of the real space projectors (new method)

 maximal supplied QI-value         = 34.20
 optimisation between [QCUT,QGAM] = [ 11.97, 23.94] = [ 40.13,160.53] Ry
 Optimized for a Real-space Cutoff    1.18 Angstroem

   l    n(q)    QCUT    max X(q) W(low)/X(q) W(high)/X(q)  e(spline)
   0      8    11.971    19.460    0.15E-03    0.31E-03    0.25E-06
   0      8    11.971    12.209    0.13E-03    0.29E-03    0.25E-06
   1      8    11.971     4.655    0.22E-03    0.24E-03    0.21E-06
  PAW_PBE Pt 04Feb2005                  :
  PAW_PBE H 15Jun2001                   :

 POSCAR: Pt   H
  positions in direct lattice
 exchange correlation table for  LEXCH =        8
   RHO(1)=    0.500       N(1)  =     2000
   RHO(2)=  100.500       N(2)  =     4000

 VTST: version 3.2, (02/03/18)

 CHAIN: initializing optimizer

 OPT: Using VASP QUASI-newton optimizer
 CHAIN: Read ICHAIN            0
 CHAIN: Running the NEB
 NEB:          SPRING     -5.000000
 NEB:          LCLIMB      T
 NEB:     LTANGENTOLD      F
 NEB:           LDNEB      F
 NEB:        LDNEBORG      F
 NEB:        LNEBCELL      F
 NEB:          EFIRST      0.000000
 NEB:           ELAST      0.000000

 POSCAR: Pt   H
  positions in direct lattice

 POSCAR: Pt   H
  positions in direct lattice

 ion  position               nearest neighbor table
   1  0.785  0.869  0.327-  71 2.74  20 2.74  55 2.74  35 2.78  27 2.79  34 2.79   2 2.81  72 2.81
                            43 2.81   3 2.81  73 2.81  56 2.81
   2  0.035  0.869  0.327-  55 2.74  65 2.74  68 2.74  39 2.78  29 2.78  27 2.79  72 2.81   1 2.81
                            23 2.81  47 2.81  57 2.81   3 2.81
   3  0.035  0.619  0.327-  55 2.73  12 2.74  76 2.74  39 2.78  28 2.79  35 2.79   9 2.80  15 2.80
                             1 2.81  56 2.81   2 2.81  57 2.81
   4  0.787  0.868  0.023-  21 2.78  78 2.78  19 2.79   6 2.80   5 2.80  58 2.80  75 2.80  44 2.80
                            74 2.80
   5  0.037  0.868  0.023-  49 2.79  70 2.79  78 2.79  48 2.80  74 2.80   4 2.80  24 2.81   6 2.81
                            59 2.81
   6  0.037  0.618  0.023-  46 2.78  70 2.78  21 2.79   4 2.80  59 2.80  58 2.81  18 2.81   5 2.81
                            10 2.81
   7  0.619  0.202  0.126-  71 2.74  79 2.74  80 2.74  42 2.78  44 2.79  74 2.79  19 2.80  53 2.80
                            78 2.80  11 2.81  61 2.81  22 2.81
   8  0.370  0.951  0.126-  69 2.74  66 2.74  26 2.74  16 2.78  24 2.78  75 2.79  25 2.80  60 2.80
                            19 2.81  49 2.81  54 2.81  53 2.81
   9  0.035  0.369  0.327-  12 2.74  77 2.74  62 2.74  30 2.77  28 2.79  33 2.79  13 2.80   3 2.80
                            47 2.80  15 2.80  56 2.81  63 2.81
  10  0.037  0.368  0.023-  54 2.78  46 2.78  45 2.79  64 2.80  58 2.81  18 2.81   6 2.81  48 2.81
                            16 2.81
  11  0.869  0.202  0.126-  77 2.74  65 2.74  79 2.75  64 2.78  74 2.79  48 2.79  49 2.80  78 2.80
                            54 2.81   7 2.81  22 2.81  45 2.81
  12  0.952  0.536  0.226-  21 2.73   3 2.74  45 2.74   9 2.74  46 2.74  56 2.75  20 2.80  55 2.81
                            77 2.81  67 2.81  62 2.81  76 2.81
  13  0.285  0.119  0.327-  62 2.74  26 2.74  69 2.74  31 2.77  36 2.79  33 2.79   9 2.80  47 2.80
                            43 2.80  15 2.80  73 2.81  23 2.81
  14  0.535  0.619  0.328-  51 2.75  66 2.75  67 2.76  41 2.80  57 2.80  63 2.80  23 2.80  56 2.80
                            73 2.81  52 2.81  38 2.82  37 2.83
  15  0.285  0.369  0.327-  76 2.74  62 2.74  80 2.74  50 2.77  36 2.79  28 2.80   3 2.80   9 2.80
                            43 2.80  13 2.80  41 2.81  57 2.81
  16  0.287  0.118  0.023-  53 2.78   8 2.78  54 2.79  75 2.80  44 2.81  24 2.81  18 2.81  48 2.81
                            10 2.81
  17  0.537  0.618  0.023-  22 2.78  25 2.78  60 2.79  24 2.80  59 2.80  64 2.81  42 2.81  58 2.81
                            75 2.81
  18  0.287  0.368  0.023-  53 2.78  61 2.79  46 2.79  59 2.80   6 2.81  10 2.81  42 2.81  16 2.81
                            44 2.81
  19  0.619  0.952  0.126-  71 2.74  20 2.74  69 2.74  44 2.78  75 2.79   4 2.79   7 2.80  53 2.80
                            78 2.80   8 2.81  21 2.81  25 2.81
  20  0.702  0.785  0.227-  25 2.74  56 2.74  19 2.74   1 2.74  73 2.74  21 2.75  66 2.80  67 2.80
                            12 2.80  69 2.80  71 2.81  55 2.81
  21  0.869  0.702  0.126-  12 2.73  55 2.74  20 2.75   4 2.78  58 2.79   6 2.79  70 2.80  46 2.80
                            78 2.80  19 2.81  45 2.81  25 2.81
  22  0.619  0.452  0.126-  79 2.73  67 2.74  51 2.75  17 2.78  42 2.79  64 2.79  61 2.80  45 2.80
                            60 2.80  25 2.81  11 2.81   7 2.81
  23  0.285  0.869  0.327-  68 2.74  66 2.74  26 2.75  31 2.78  37 2.79  29 2.79  73 2.80  57 2.80
                            14 2.80   2 2.81  47 2.81  13 2.81
  24  0.287  0.868  0.023-   8 2.78  60 2.79  49 2.79  59 2.80  17 2.80  48 2.80   5 2.81  16 2.81
                            75 2.81
  25  0.619  0.702  0.126-  20 2.74  67 2.74  66 2.74  17 2.78  75 2.79  58 2.79   8 2.80  45 2.80
                            60 2.81  22 2.81  19 2.81  21 2.81
  26  0.202  0.035  0.226-  49 2.73  13 2.74  54 2.74   8 2.74  47 2.74  23 2.75  68 2.80  65 2.81
                            69 2.81  66 2.81  62 2.81  77 2.81
  27  0.868  0.953  0.430-   1 2.79  72 2.79  39 2.79   2 2.79  40 2.79  29 2.80  32 2.80  34 2.80
                            35 2.80
  28  0.117  0.453  0.430-  50 2.77  30 2.78   3 2.79   9 2.79  15 2.80  39 2.80  35 2.80  33 2.80
                            36 2.81
  29  0.116  0.954  0.430-  37 2.77   2 2.78  47 2.78  32 2.79  23 2.79  27 2.80  33 2.80  31 2.81
                            39 2.81
  30  0.870  0.452  0.430-   9 2.77  28 2.78  33 2.78  56 2.78  63 2.79  35 2.81  32 2.81  38 2.82
                            52 2.83
  31  0.366  0.956  0.430-  13 2.77  36 2.78  33 2.78  23 2.78  73 2.79  34 2.81  37 2.81  29 2.81
                            52 2.83
  32  0.868  0.202  0.430-  38 2.77  72 2.78  63 2.79  29 2.79  47 2.79  33 2.80  27 2.80  30 2.81
                            40 2.82
  33  0.118  0.203  0.430-  31 2.78  30 2.78  47 2.79   9 2.79  13 2.79  32 2.80  36 2.80  29 2.80
                            28 2.80
  34  0.617  0.953  0.430-  52 2.78  40 2.78  73 2.79  43 2.79   1 2.79  36 2.80  27 2.80  35 2.81
                            31 2.81
  35  0.868  0.703  0.430-  52 2.77   1 2.78  39 2.78  56 2.79   3 2.79  28 2.80  27 2.80  30 2.81
                            34 2.81
  36  0.368  0.202  0.430-  50 2.77  31 2.78  13 2.79  15 2.79  43 2.79  34 2.80  40 2.80  33 2.80
                            28 2.81
  37  0.363  0.707  0.432-  81 1.68  29 2.77  23 2.79  39 2.80  57 2.80  31 2.81  14 2.83  50 2.86
                            52 2.87  38 2.89
  38  0.621  0.449  0.432-  81 1.68  32 2.77  63 2.79  40 2.79  41 2.80  30 2.82  14 2.82  50 2.86
                            52 2.87  37 2.89
  39  0.116  0.703  0.430-   3 2.78   2 2.78  35 2.78  57 2.79  27 2.79  37 2.80  28 2.80  29 2.81
                            50 2.82
  40  0.618  0.201  0.430-  43 2.78  34 2.78  72 2.78  41 2.79  27 2.79  38 2.79  36 2.80  32 2.82
                            50 2.82
  41  0.535  0.370  0.327-  51 2.74  80 2.75  79 2.75  40 2.79  50 2.80  38 2.80  14 2.80  57 2.80
                            63 2.80  15 2.81  72 2.81  43 2.81
  42  0.537  0.368  0.023-   7 2.78  22 2.79  61 2.79  74 2.80  44 2.80  64 2.80  17 2.81  18 2.81
                            59 2.81
  43  0.535  0.119  0.327-  80 2.74  69 2.74  71 2.74  40 2.78  34 2.79  36 2.79  15 2.80  13 2.80
                             1 2.81  73 2.81  72 2.81  41 2.81
  44  0.537  0.118  0.023-  19 2.78   7 2.79  53 2.79  74 2.80  42 2.80  75 2.80   4 2.80  16 2.81
                            18 2.81
  45  0.869  0.452  0.126-  77 2.73  12 2.74  67 2.75  58 2.78  64 2.78  10 2.79  25 2.80  22 2.80
                            21 2.81  11 2.81  46 2.81  54 2.81
  46  0.119  0.452  0.126-  62 2.74  76 2.74  12 2.74   6 2.78  10 2.78  18 2.79  21 2.80  70 2.80
                            53 2.81  54 2.81  61 2.81  45 2.81
  47  0.035  0.119  0.327-  65 2.74  77 2.74  26 2.74  29 2.78  32 2.79  33 2.79  13 2.80   9 2.80
                            72 2.81   2 2.81  23 2.81  63 2.81
  48  0.037  0.118  0.023-  54 2.78  49 2.78  11 2.79   5 2.80  74 2.80  24 2.80  64 2.81  10 2.81
                            16 2.81
  49  0.119  0.952  0.126-  26 2.73  68 2.74  65 2.74  48 2.78   5 2.79  24 2.79  70 2.80  11 2.80
                            78 2.80  54 2.81  60 2.81   8 2.81
  50  0.365  0.451  0.430-  15 2.77  28 2.77  36 2.77  57 2.79  41 2.80  39 2.82  40 2.82  38 2.86
                            37 2.86
  51  0.452  0.536  0.227-  60 2.74  41 2.74  61 2.74  57 2.75  22 2.75  14 2.75  68 2.80  67 2.80
                            66 2.80  76 2.80  79 2.80  80 2.80
  52  0.620  0.705  0.431-  35 2.77  34 2.78  73 2.79  56 2.79  14 2.81  30 2.83  31 2.83  38 2.87
                            37 2.87
  53  0.369  0.202  0.126-  69 2.74  80 2.74  62 2.74  18 2.78  16 2.78  44 2.79   7 2.80  19 2.80
                            61 2.81  46 2.81  54 2.81   8 2.81
  54  0.119  0.202  0.126-  26 2.74  62 2.74  77 2.75  10 2.78  48 2.78  16 2.79  49 2.81  11 2.81
                            46 2.81  53 2.81   8 2.81  45 2.81
  55  0.952  0.786  0.227-   3 2.73   2 2.74  21 2.74  78 2.74  70 2.74   1 2.74  12 2.81  76 2.81
                            65 2.81  71 2.81  68 2.81  20 2.81
  56  0.785  0.619  0.327-  67 2.74  20 2.74  12 2.75  30 2.78  35 2.79  52 2.79  63 2.80  14 2.80
                            73 2.81   9 2.81   3 2.81   1 2.81
  57  0.285  0.619  0.327-  68 2.74  51 2.75  76 2.75  39 2.79  50 2.79  37 2.80  41 2.80  14 2.80
                            23 2.80  15 2.81   2 2.81   3 2.81
[...]
   -.241E+01 0.507E+01 -.259E+04   0.233E+01 -.493E+01 0.259E+04   0.847E-01 -.125E+00 0.143E+01   -.207E-03 -.249E-01 -.458E-01
   -.690E-01 0.255E+00 -.259E+04   0.910E-01 -.252E+00 0.259E+04   0.258E-01 0.544E-02 0.139E+01   -.429E-01 -.791E-02 -.341E-01
   -.238E+01 -.261E+01 -.259E+04   0.231E+01 0.263E+01 0.259E+04   0.153E-01 -.116E-01 0.136E+01   0.623E-01 -.710E-02 -.450E-01
   -.342E+01 -.695E+00 -.259E+04   0.339E+01 0.668E+00 0.259E+04   0.217E-02 0.802E-02 0.136E+01   0.340E-01 0.205E-01 -.524E-01
   0.198E+01 -.589E-01 -.259E+04   -.197E+01 0.192E-01 0.259E+04   -.192E-01 0.427E-01 0.134E+01   0.144E-01 -.281E-02 -.306E-01
   0.150E+02 -.111E+02 -.258E+04   -.148E+02 0.110E+02 0.258E+04   -.207E+00 0.563E-01 -.656E-01   -.203E-05 0.836E-02 -.318E-02
   -.198E+01 0.186E+02 -.258E+04   0.201E+01 -.184E+02 0.258E+04   -.539E-01 -.216E+00 -.572E-01   0.307E-01 -.260E-01 -.522E-02
   -.425E+00 -.273E+00 -.259E+04   0.302E+00 0.241E+00 0.259E+04   0.126E+00 -.738E-03 0.144E+01   -.202E-03 0.352E-01 -.430E-01
   -.582E+00 -.877E-01 -.259E+04   0.464E+00 0.612E-02 0.259E+04   0.677E-01 0.963E-01 0.145E+01   0.549E-01 -.180E-01 -.392E-01
   -.119E+01 -.287E+01 -.132E+04   0.127E+01 0.295E+01 0.132E+04   -.116E+00 -.693E-01 0.621E+00   0.416E-01 -.195E-01 0.242E+00
   0.196E-01 -.685E+00 0.260E+04   -.300E-01 0.680E+00 -.260E+04   -.993E-02 0.184E-01 -.146E+01   0.174E-01 -.106E-01 0.303E-01
   0.267E+00 -.725E+00 -.131E+04   -.301E+00 0.773E+00 0.131E+04   -.297E-01 -.299E-01 0.740E+00   0.645E-01 -.159E-01 0.228E+00
   0.350E+00 -.557E+00 0.260E+04   -.375E+00 0.537E+00 -.260E+04   -.122E-01 0.158E-01 -.140E+01   0.364E-01 0.498E-02 0.212E-01
   -.328E+00 0.251E+00 0.132E+04   0.316E+00 -.203E+00 -.132E+04   0.242E-01 -.188E-01 -.719E+00   -.146E-01 -.283E-01 0.344E+00
   0.538E+00 0.448E+00 0.132E+04   -.525E+00 -.496E+00 -.132E+04   0.853E-03 0.153E-01 -.699E+00   -.159E-01 0.340E-01 0.335E+00
   -.248E+00 -.293E+00 -.131E+04   0.292E+00 0.304E+00 0.131E+04   0.186E-01 0.820E-02 0.705E+00   -.615E-01 -.196E-01 0.231E+00
   -.893E+00 -.816E+00 0.260E+04   0.927E+00 0.809E+00 -.260E+04   0.133E-01 0.196E-01 -.139E+01   -.494E-01 -.105E-01 0.486E-01
   -.462E+00 0.436E+00 0.132E+04   0.538E+00 -.426E+00 -.132E+04   -.823E-02 -.200E-01 -.731E+00   -.693E-01 0.996E-02 0.343E+00
   -.647E+01 -.359E+01 -.259E+04   0.575E+01 0.319E+01 0.258E+04   0.727E+00 0.411E+00 0.173E+01   0.230E-01 0.894E-02 -.826E-02
   -.883E+00 -.360E+00 -.340E+01   0.869E+00 0.357E+00 0.305E+01   0.170E-01 0.102E-01 -.425E-01   -.143E-02 -.627E-02 0.402E+00
   0.140E+01 0.839E+00 -.258E+04   -.348E+00 -.199E+00 0.258E+04   -.110E+01 -.644E+00 0.175E+01   0.382E-01 -.781E-02 0.138E-03
   0.767E+00 0.227E+00 0.132E+04   -.788E+00 -.236E+00 -.132E+04   0.131E-01 -.127E-02 -.695E+00   0.627E-02 0.112E-01 0.333E+00
   -.506E+00 -.129E+00 0.133E+04   0.599E+00 0.154E+00 -.133E+04   -.269E-01 -.150E-01 -.618E+00   -.685E-01 -.108E-01 0.340E+00
   -.387E+00 0.172E+00 0.429E+01   0.373E+00 -.208E+00 -.468E+01   -.784E-02 -.244E-02 -.108E-01   0.212E-01 0.387E-01 0.393E+00
   0.131E+01 0.174E+01 -.131E+04   -.142E+01 -.173E+01 0.131E+04   0.832E-01 -.816E-02 0.681E+00   0.282E-01 -.184E-02 0.244E+00
   -.325E+01 0.292E+00 -.132E+04   0.337E+01 -.245E+00 0.132E+04   -.116E+00 -.711E-01 0.620E+00   -.122E-01 0.276E-01 0.239E+00
   0.949E+00 0.601E+00 0.260E+04   -.952E+00 -.588E+00 -.260E+04   -.137E-01 -.433E-02 -.144E+01   0.147E-01 -.765E-02 0.277E-01
   -.599E+00 0.125E+00 0.260E+04   0.619E+00 -.155E+00 -.260E+04   0.337E-02 -.141E-02 -.146E+01   -.248E-01 0.325E-01 0.350E-01
   0.939E-01 -.607E-01 0.132E+04   -.488E-01 0.419E-01 -.132E+04   0.221E-02 0.728E-02 -.714E+00   -.484E-01 0.118E-01 0.338E+00
[...]
   -.431E+00 0.117E+00 0.102E+01   0.521E+00 -.145E+00 -.138E+01   -.374E-01 -.167E-02 -.335E-01   -.541E-01 0.285E-01 0.393E+00
   0.422E+00 0.220E+00 0.490E+01   -.457E+00 -.227E+00 -.527E+01   0.176E-01 0.145E-01 -.322E-01   0.183E-01 -.709E-02 0.404E+00
   -.749E+00 0.168E+00 0.132E+04   0.753E+00 -.221E+00 -.132E+04   0.108E-01 -.362E-03 -.734E+00   -.157E-01 0.538E-01 0.338E+00
   0.415E-01 -.312E+00 0.437E+01   -.109E+00 0.330E+00 -.477E+01   -.398E-02 -.767E-02 -.999E-02   0.713E-01 -.113E-01 0.399E+00
   -.419E+00 -.885E+00 -.131E+04   0.386E+00 0.904E+00 0.131E+04   -.144E-02 0.529E-02 0.723E+00   0.346E-01 -.261E-01 0.224E+00
   0.229E+01 0.397E+00 -.131E+04   -.236E+01 -.450E+00 0.131E+04   0.392E-01 0.697E-01 0.682E+00   0.329E-01 -.144E-01 0.247E+00
   0.272E+00 0.574E-01 0.260E+04   -.291E+00 -.164E-01 -.260E+04   -.939E-02 -.270E-01 -.147E+01   0.271E-01 -.132E-01 0.519E-01
   0.122E+01 0.453E+00 0.260E+04   -.120E+01 -.458E+00 -.260E+04   -.204E-01 0.280E-02 -.144E+01   0.326E-03 0.352E-02 0.141E-01
   -.130E+01 -.416E+00 0.463E+01   0.127E+01 0.340E+00 -.509E+01   0.331E-01 0.310E-01 0.700E-01   -.918E-02 0.456E-01 0.392E+00
   0.136E+01 -.129E+01 0.509E+01   -.127E+01 0.129E+01 -.556E+01   -.478E-01 0.258E-01 0.662E-01   -.460E-01 -.317E-01 0.401E+00
   -.116E+00 -.213E+00 0.132E+04   0.728E-01 0.198E+00 -.132E+04   0.195E-02 0.309E-02 -.715E+00   0.402E-01 0.121E-01 0.348E+00
   -.346E-01 -.670E+00 0.907E+00   0.270E-01 0.750E+00 -.127E+01   -.170E-01 -.348E-01 -.338E-01   0.239E-01 -.462E-01 0.401E+00
   -.113E+01 -.995E+00 0.441E+01   0.105E+01 0.987E+00 -.487E+01   0.445E-01 0.113E-01 0.695E-01   0.392E-01 -.382E-02 0.396E+00
   -.342E+01 -.195E+01 -.308E+03   0.375E+01 0.213E+01 0.310E+03   -.365E+00 -.207E+00 -.164E+01   -.187E-02 -.149E-02 -.153E-01
   0.828E+00 0.456E+00 -.107E+02   -.254E-12 -.804E-12 -.830E-11   -.882E+00 -.521E+00 -.490E+01   0.748E-01 0.517E-01 0.156E+02

 POSITION                                       TOTAL-FORCE (eV/Angst)
     13.68596      8.44697      7.18869         0.003677     -0.000300     -0.002299
      5.26892      8.44655      7.18903         0.001964     -0.001943     -0.001017
      3.86844      6.01641      7.18449         0.001934      0.000584     -0.000680
     13.69374      8.43892      0.50438        -0.003213      0.002490     -0.001628
      5.27888      8.43883      0.50330        -0.002046      0.002234     -0.001230
      3.87530      6.01010      0.50324        -0.001653      0.001835     -0.001606
      8.08149      1.96192      2.77146        -0.001466      0.001856     -0.000842
      9.48353      9.24764      2.77202        -0.001111      0.000425      0.001322
      2.46109      3.58603      7.18470         0.001559     -0.001016     -0.000537
      2.47258      3.58140      0.50704        -0.002640      0.002018     -0.002038
     10.88623      1.96260      2.77026        -0.002708     -0.000001      0.001449
     13.68690      5.20505      4.97966        -0.001003     -0.001031     -0.000336
      3.86387      1.15610      7.18520         0.001183     -0.000939     -0.000168
      9.47366      6.01444      7.21357         0.001934     -0.000467      0.003828
      5.27068      3.58835      7.18318         0.002046     -0.000583      0.000027
      3.87664      1.14944      0.50722        -0.002980      0.002402     -0.001091
      9.48723      6.00955      0.50948        -0.003606      0.002057     -0.002176
      5.27931      3.58091      0.50383        -0.002143      0.002425     -0.002992
     12.28914      9.25285      2.77204        -0.001745      0.000369     -0.000628
     12.28443      7.63368      4.98060         0.000425     -0.000326     -0.000321
     13.69271      6.82248      2.77170        -0.002281      0.000971     -0.000253
      9.48162      4.39268      2.77572        -0.002321      0.000858      0.001527
      8.07496      8.43881      7.19947         0.002034      0.000475      0.000234
      8.08318      8.43884      0.50496        -0.003497      0.002226     -0.001172
     10.88436      6.82176      2.77467        -0.001384      0.000979      0.001766
      2.46472      0.34791      4.97537        -0.001521     -0.000641      0.000486
     15.08813      9.25942      9.45608         0.003394     -0.000151     -0.003127
      3.85965      4.39970      9.45382         0.004608      0.000508     -0.001827
      6.66783      9.25861      9.45394         0.003484     -0.000497     -0.000665
     12.30196      4.39165      9.45264         0.005182      0.001393      0.001050
      9.47915      9.28047      9.45300         0.006335     -0.001109      0.001257
     10.87724      1.96844      9.45417         0.003840     -0.002865     -0.000525
      2.45828      1.96831      9.45146         0.004374     -0.000167     -0.000798
     12.28488      9.26516      9.45625         0.005290     -0.000018     -0.001464
     13.69121      6.82946      9.45657         0.005711      0.000252     -0.002516
      5.26547      1.96617      9.45383         0.004321     -0.000386     -0.002532
      8.06081      6.85822      9.51726         0.006482      0.002957      0.002852
      9.49516      4.37532      9.51769         0.009349     -0.000852      0.002964
      5.25555      6.82860      9.45557         0.002225     -0.000055     -0.000354
      8.06634      1.96059      9.45579         0.002907     -0.002373      0.000195
      8.08037      3.59063      7.20194         0.003810      0.000141      0.001982
      8.08430      3.57935      0.50540        -0.003161      0.002739     -0.002073
      6.67296      1.15907      7.18450         0.002018     -0.000168     -0.001070
      6.68181      1.14917      0.50332        -0.001884      0.001535     -0.002437
     12.28521      4.39508      2.77229        -0.002374      0.000611      0.000898
      3.87363      4.39362      2.76977        -0.001994      0.001058      0.000426
      1.05831      1.15560      7.18734         0.000949     -0.000817     -0.001245
      1.06720      1.14825      0.50040        -0.003435      0.002016      0.000435
      6.67694      9.25232      2.77033        -0.001979     -0.000617      0.001388
      6.63282      4.37842      9.44695         0.005825     -0.000723      0.001179
      8.07713      5.20510      4.98968         0.000320      0.000769      0.003236
     10.92349      6.85534      9.45919         0.007223      0.000654     -0.001549
      5.27659      1.96372      2.76946        -0.001340      0.000957      0.000635
      2.46857      1.96326      2.76322        -0.002223      0.000171      0.000378
     15.09182      7.63547      4.98049         0.000199     -0.000853     -0.002544
     12.28198      6.01729      7.19072         0.002604     -0.000235      0.000326
      6.67741      6.01973      7.20192         0.002314     -0.000214      0.001500
     12.29350      6.01089      0.50514        -0.001562      0.001826     -0.001410
      6.68114      6.00978      0.50583        -0.001735      0.001669     -0.001525
      8.07991      6.82127      2.77523        -0.000737      0.000490      0.001764
[...]
     10.88116      5.20364      4.98606        -0.000761     -0.000565      0.003373
      6.67690      7.63414      4.98456        -0.000105     -0.001896      0.001308
      5.27046      0.34425      4.97975        -0.000698     -0.000078      0.000296
      5.27416      6.82442      2.77130        -0.000761     -0.000249     -0.000164
      8.07837      0.34549      4.98062        -0.000365      0.000559     -0.002113
      9.47718      1.15722      7.18967         0.000972      0.000588     -0.000071
     10.87995      8.44591      7.19052         0.002163     -0.000341      0.000304
      9.48682      1.15063      0.50394        -0.002107      0.001586     -0.000956
     10.89138      8.43961      0.50471        -0.003012      0.002312     -0.002372
      5.27293      5.20635      4.97732        -0.000268     -0.000311      0.000460
     12.28712      2.77261      4.97589        -0.000891     -0.000780     -0.000237
     15.09434      9.25183      2.77024        -0.001437      0.000241     -0.001478
      9.48108      2.77690      4.98474        -0.000524      0.000486      0.001391
      6.67607      2.77546      4.97741        -0.000092      0.000179      0.000904
      9.04221      5.77041     10.49633        -0.037027     -0.025955      0.010580
    total drift:                                0.021572     -0.013408     -0.023321

  FREE ENERGIE OF THE ION-ELECTRON SYSTEM (eV)
  free  energy   TOTEN  =      -517.03993872 eV

  energy  without entropy=     -517.18247454  energy(sigma->0) =     -517.08745066

 d Force =-0.1073957E-03[-0.140E-03,-0.749E-04]  d Energy =-0.7953679E-04-0.279E-04
 d Force = 0.1934452E+02[ 0.193E+02, 0.193E+02]  d Ewald  = 0.1934452E+02-0.336E-06

 NEB: the previous image is higher in energy: F
 NEB: the next image is higher in energy    : F
 NEB: image is at an extrema
 NEB: diff energy (min, max):     0.023870  517.039939

 NEB: Tangent
     -0.00243      0.00345      0.01020
     -0.00315      0.00403      0.00785
     -0.00799      0.00122      0.00702
      0.01601     -0.00832     -0.00038
      0.00811     -0.00157      0.00259
      0.01186     -0.00360      0.00282
      0.00067     -0.00453      0.00548
      0.00336     -0.00249      0.00209
      0.00336      0.00622      0.00604
      0.00742     -0.01214     -0.00091
      0.00504     -0.00409      0.00396
     -0.00143      0.00571      0.00063
      0.00213      0.00865      0.00453
      0.00307      0.00804     -0.00048
     -0.00694      0.00169      0.01015
      0.01049     -0.00992     -0.00132
      0.00671     -0.00821     -0.00033
      0.00744     -0.00623      0.00470
      0.00592     -0.00177      0.00278
     -0.00404      0.00030      0.00762
      0.00568     -0.00102      0.00423
      0.00740     -0.00276     -0.00185
     -0.00069      0.01425     -0.00088
      0.00874     -0.00820      0.00089
      0.00511     -0.00091     -0.00088
      0.00201     -0.00809      0.00811
     -0.00877      0.00353      0.01192
      0.00201      0.00597      0.01981
     -0.01679      0.01752      0.01130
      0.01036     -0.01490     -0.00107
     -0.02045      0.02950     -0.00196
      0.00434     -0.00384      0.01269
     -0.00039      0.00812      0.02212
     -0.00705      0.00707      0.00540
     -0.01271      0.00508      0.00705
     -0.00385      0.00976      0.01823
     -0.06380     -0.00323     -0.03551
     -0.04699     -0.03821     -0.03640
     -0.00691      0.00402      0.01005
     -0.00529      0.00977      0.00674
     -0.01134      0.00440     -0.00484
      0.01354     -0.01444     -0.00185
     -0.00672      0.00217      0.00463
      0.01550     -0.00854      0.00092
      0.00415     -0.00270      0.00206
      0.00074     -0.00169      0.00194
      0.00386      0.00789      0.00243
      0.01245     -0.00920      0.00482
      0.00257      0.00057      0.00747
      0.00443      0.01450      0.01212
      0.00322      0.00416     -0.00569
     -0.02170     -0.00579      0.07176
      0.00293     -0.00473      0.00123
      0.00216     -0.00500      0.01322
     -0.00059     -0.00053      0.00700
     -0.00839      0.00213      0.01600
     -0.00768     -0.00077     -0.00295
      0.00993     -0.00713      0.00066
      0.00804     -0.00778     -0.00157
      0.00448     -0.00030      0.00040
[...]
     -0.00033      0.00654      0.00029
      0.00124     -0.00027      0.00091
      0.00247     -0.00186     -0.00006
      0.00192     -0.00298      0.00417
     -0.00354      0.00211      0.00695
     -0.00153      0.00458      0.00947
     -0.00539      0.00051      0.01906
      0.00958     -0.00984     -0.00011
      0.01203     -0.00608     -0.00083
      0.00412      0.00365      0.00471
     -0.00833      0.00830      0.00700
      0.00340     -0.00110      0.00527
     -0.00186      0.00392     -0.00072
      0.00167      0.00423      0.00425
      0.79731      0.47267     -0.33529

 NEB: forces: par spring, perp REAL, dneb     0.289932    0.029601    0.000000
 NEB: distance to prev, next image, angle between     0.584751    0.526765  158.434941
 NEB: projections on to tangent (spring, REAL)    -0.289932   -0.048303

 stress matrix after NEB project (eV)
    -84.78971      0.34206      0.50102
      0.34207    -84.97948     -0.48523
      0.50102     -0.48523     -1.56485
  FORCES: max atom, RMS     0.049638    0.006295
  FORCE total and by dimension    0.056651    0.039997
  Stress total and by dimension  120.060241   84.979476
 Quasi-Newton relaxation of ions (Broydens 2nd method)
  g(Force)  = 0.222E-03   g(Stress)= 0.000E+00

 retain information from N=  2 steps
 eigenvalues of (default step * inverse Hessian matrix)
  average eigenvalue of G=   4.3812
 eigenvalue spectrum of G is  4.3812  4.3812

 reached required accuracy - stopping structural energy minimisation