 vasp.5.4.4.18Apr17-6-g9f103f2a35 (build Oct 25 2019 11:13:22) complex

 executed on             LinuxIFC date 2022.02.21  20:13:31

 INCAR:
 POTCAR:    PAW_PBE Pt 04Feb2005
 POTCAR:    PAW_PBE Fe 06Sep2000
 POTCAR:    PAW_PBE Co 02Aug2007
 POTCAR:    PAW_PBE Cu 22Jun2005
 POTCAR:    PAW_PBE Ni 02Aug2007
 POTCAR:    PAW_PBE N 08Apr2002
 POTCAR:    PAW_PBE Pt 04Feb2005
   VRHFIN =Pt: s1d9

   TITEL  = PAW_PBE Pt 04Feb2005
   POMASS =  195.080; ZVAL   =   10.000    mass and valenz
   ENMAX  =  230.283; ENMIN  =  172.712 eV

 POTCAR:    PAW_PBE Fe 06Sep2000
   VRHFIN =Fe:  d7 s1

   TITEL  = PAW_PBE Fe 06Sep2000
   POMASS =   55.847; ZVAL   =    8.000    mass and valenz
   ENMAX  =  267.882; ENMIN  =  200.911 eV

 POTCAR:    PAW_PBE Co 02Aug2007
   VRHFIN =Co: d8 s1

   TITEL  = PAW_PBE Co 02Aug2007
   POMASS =   58.933; ZVAL   =    9.000    mass and valenz
   ENMAX  =  267.968; ENMIN  =  200.976 eV

 POTCAR:    PAW_PBE Cu 22Jun2005
   VRHFIN =Cu: d10 p1

   TITEL  = PAW_PBE Cu 22Jun2005
   POMASS =   63.546; ZVAL   =   11.000    mass and valenz
   ENMAX  =  295.446; ENMIN  =  221.585 eV

 POTCAR:    PAW_PBE Ni 02Aug2007
   VRHFIN =Ni:

   TITEL  = PAW_PBE Ni 02Aug2007
   POMASS =   58.690; ZVAL   =   10.000    mass and valenz
   ENMAX  =  269.532; ENMIN  =  202.149 eV

 POTCAR:    PAW_PBE N 08Apr2002
   VRHFIN =N: s2p3

   TITEL  = PAW_PBE N 08Apr2002
   POMASS =   14.001; ZVAL   =    5.000    mass and valenz
   ENMAX  =  400.000; ENMIN  =  300.000 eV

 Optimization of the real space projectors (new method)

 maximal supplied QI-value         = 14.36
 optimisation between [QCUT,QGAM] = [ 11.92, 23.98] = [ 39.79,161.09] Ry
 Optimized for a Real-space Cutoff    1.49 Angstroem

   l    n(q)    QCUT    max X(q) W(low)/X(q) W(high)/X(q)  e(spline)
   2     10    11.920    66.195    0.79E-04    0.18E-03    0.24E-06
   2     10    11.920    64.643    0.81E-04    0.19E-03    0.24E-06
   0     11    11.920    95.520    0.28E-04    0.54E-04    0.18E-06
   0     11    11.920    63.403    0.27E-04    0.52E-04    0.17E-06
   1     10    11.920    19.961    0.18E-04    0.11E-03    0.23E-06
   1     10    11.920    13.289    0.25E-04    0.87E-04    0.19E-06
 Optimization of the real space projectors (new method)

[...]

   l    n(q)    QCUT    max X(q) W(low)/X(q) W(high)/X(q)  e(spline)
   2      9    11.864    60.317    0.21E-03    0.51E-03    0.25E-06
   2      9    11.864    55.921    0.21E-03    0.51E-03    0.26E-06
   0      9    11.864    51.690    0.22E-03    0.30E-04    0.17E-06
   0      9    11.864    30.015    0.20E-03    0.28E-04    0.15E-06
   1      9    11.864    18.849    0.76E-04    0.33E-03    0.17E-06
   1      9    11.864    14.624    0.60E-04    0.28E-03    0.15E-06
 Optimization of the real space projectors (new method)

 maximal supplied QI-value         = 25.13
 optimisation between [QCUT,QGAM] = [ 11.81, 23.88] = [ 39.08,159.64] Ry
 Optimized for a Real-space Cutoff    1.41 Angstroem

   l    n(q)    QCUT    max X(q) W(low)/X(q) W(high)/X(q)  e(spline)
   0     10    11.813    79.467    0.48E-04    0.30E-04    0.67E-06
   0     10    11.813    66.151    0.47E-04    0.30E-04    0.67E-06
   1     10    11.813    20.169    0.11E-03    0.17E-03    0.11E-05
   1     10    11.813    14.454    0.11E-03    0.17E-03    0.11E-05
  PAW_PBE Pt 04Feb2005                  :
  PAW_PBE Fe 06Sep2000                  :
  PAW_PBE Co 02Aug2007                  :
  PAW_PBE Cu 22Jun2005                  :
  PAW_PBE Ni 02Aug2007                  :
  PAW_PBE N 08Apr2002                   :

 POSCAR: 10.56
  positions in direct lattice
  velocities in cartesian coordinates
 exchange correlation table for  LEXCH =        8
   RHO(1)=    0.500       N(1)  =     2000
   RHO(2)=  100.500       N(2)  =     4000

 ion  position               nearest neighbor table
   1  0.788  0.878  0.317-  28 2.61  49 2.62  19 2.64  33 2.65  59 2.65  61 2.66  29 2.67  60 2.68
                             2 2.72   4 2.77  11 2.78  12 2.84
   2  0.044  0.881  0.317-  79 2.56  30 2.62  77 2.62  60 2.63  52 2.65  28 2.67  33 2.67  22 2.68
                             1 2.72   4 2.82   6 2.89  16 3.13
   3  0.279  0.380  0.320-  39 2.56  64 2.57  33 2.59  31 2.63  30 2.70  19 2.70  43 2.72  68 2.72
                             5 2.78  13 2.80  18 2.82  25 2.83
   4  0.868  0.965  0.422-  17 2.58  11 2.60   9 2.65  12 2.67   6 2.70  16 2.76  60 2.77   1 2.77
                             2 2.82
   5  0.122  0.463  0.428-  16 2.61  12 2.62   7 2.63  10 2.63  25 2.66  13 2.67  33 2.71  39 2.74
                             3 2.78
   6  0.122  0.967  0.429-  81 2.10  10 2.61   9 2.64   8 2.65   4 2.70  14 2.73  16 2.75   2 2.89
                            22 2.93  52 2.94
   7  0.875  0.460  0.427-   9 2.61  15 2.62   5 2.63  10 2.63  12 2.63  27 2.65  39 2.69  75 2.78
                            29 2.79
   8  0.376  0.960  0.419-  43 2.58  11 2.62  13 2.62  14 2.62  27 2.63   6 2.65  10 2.66  52 2.70
                            61 2.70
   9  0.871  0.214  0.420-  15 2.59   7 2.61  17 2.63   6 2.64   4 2.65  75 2.66  10 2.68  60 2.72
                            22 2.80
  10  0.125  0.212  0.422-   6 2.61  13 2.61   5 2.63   7 2.63   8 2.66  39 2.66   9 2.68  43 2.73
                            22 2.77
  11  0.624  0.960  0.424-   4 2.60   8 2.62  27 2.63  13 2.63  12 2.64  17 2.65   1 2.78  19 2.83
                            61 2.84
  12  0.874  0.710  0.426-   5 2.62  27 2.63   7 2.63  11 2.64  16 2.66   4 2.67  33 2.67  29 2.80
                             1 2.84
  13  0.374  0.209  0.425-  10 2.61   8 2.62  11 2.63  25 2.65  17 2.65   5 2.67  43 2.77   3 2.80
                            19 2.83
  14  0.381  0.709  0.422-  81 2.19  27 2.58  15 2.61   8 2.62  44 2.65  25 2.67   6 2.73  16 2.74
                            30 2.74  52 2.75
  15  0.627  0.461  0.423-   9 2.59  14 2.61   7 2.62  27 2.63  17 2.65  25 2.66  44 2.70  75 2.72
                            18 2.76
  16  0.126  0.706  0.439-  81 2.02   5 2.61  25 2.64  12 2.66  14 2.74   6 2.75   4 2.76  33 2.90
                            30 3.04   2 3.13
  17  0.624  0.211  0.423-   4 2.58  25 2.62   9 2.63  13 2.65  15 2.65  11 2.65  18 2.77  60 2.80
                            19 2.87
  18  0.548  0.375  0.317-  67 2.56  60 2.59  75 2.61  44 2.64  68 2.65  26 2.67  30 2.71  19 2.73
                            15 2.76  17 2.77   3 2.82  25 2.86
  19  0.535  0.124  0.315-  80 2.55  43 2.57  68 2.57  59 2.60   1 2.64  61 2.64   3 2.70  18 2.73
                            60 2.76  13 2.83  11 2.83  17 2.87
  20  0.547  0.124  0.040-  37 2.55  57 2.56  48 2.58  62 2.64  63 2.68  47 2.68  45 2.68  56 2.70
                            34 2.71
  21  0.121  0.460  0.128-  40 2.52  36 2.53  47 2.53  42 2.60  69 2.61  64 2.62  70 2.64  50 2.64
                            58 2.67  31 2.70  57 2.71  74 2.72
  22  0.045  0.134  0.315-  55 2.54  65 2.55  43 2.57  77 2.59  39 2.59  75 2.61   2 2.68  60 2.68
                            52 2.71  10 2.77   9 2.80   6 2.93  31 3.42
  23  0.042  0.130  0.033-  70 2.58  40 2.60  41 2.61  45 2.62  62 2.64  76 2.64  24 2.69  35 2.73
                            53 2.78
  24  0.130  0.958  0.132-  79 2.51  77 2.54  35 2.57  53 2.57  55 2.58  70 2.62  38 2.64  58 2.64
                            73 2.65  23 2.69  66 2.70  41 2.72
  25  0.375  0.459  0.426-  17 2.62  16 2.64  13 2.65   5 2.66  15 2.66  14 2.67  30 2.82   3 2.83
                            18 2.86
  26  0.455  0.546  0.219-  73 2.50  74 2.54  51 2.56  79 2.61  64 2.63  18 2.67  68 2.67  78 2.67
                            30 2.67  32 2.68  67 2.72  44 2.75
  27  0.624  0.711  0.424-  14 2.58   8 2.63  15 2.63  11 2.63  12 2.63   7 2.65  44 2.71  61 2.79
                            29 2.79
  28  0.956  0.790  0.221-  58 2.57  66 2.57  50 2.58  42 2.59  49 2.61   1 2.61  64 2.63   2 2.67
                            59 2.70  33 2.73  79 2.76  77 2.77
  29  0.794  0.622  0.319-  39 2.54  42 2.56  75 2.58  32 2.61  44 2.64  33 2.65   1 2.67  61 2.67
                            49 2.69   7 2.79  27 2.79  12 2.80
  30  0.290  0.631  0.319-  79 2.58  52 2.61  64 2.61   2 2.62  33 2.64  44 2.64  26 2.67   3 2.70
                            18 2.71  14 2.74  25 2.82  16 3.04
  31  0.203  0.281  0.225-  70 2.52  55 2.56  65 2.57  43 2.60  57 2.60   3 2.63  39 2.66  80 2.70
                            21 2.70  42 2.71  68 2.75  64 2.79  22 3.42
  32  0.706  0.549  0.221-  54 2.53  69 2.56  51 2.58  49 2.59  42 2.60  29 2.61  78 2.62  65 2.63
                            26 2.68  44 2.69  75 2.69  67 2.70
  33  0.040  0.630  0.326-   3 2.59  30 2.64  39 2.64   1 2.65  29 2.65  12 2.67   2 2.67  64 2.71
                             5 2.71  28 2.73  42 2.74  16 2.90
  34  0.797  0.862  0.042-  50 2.38  66 2.51  48 2.53  36 2.55  71 2.56  63 2.61  20 2.71  35 2.76
                            62 2.76
  35  0.056  0.866  0.038-  58 2.54  72 2.55  36 2.56  24 2.57  66 2.62  53 2.65  23 2.73  62 2.73
                            34 2.76
  36  0.046  0.628  0.037-  21 2.53  34 2.55  35 2.56  58 2.58  50 2.61  47 2.63  72 2.64  40 2.69
                            71 2.72
  37  0.627  0.222  0.129-  51 2.51  74 2.51  67 2.52  56 2.53  41 2.55  20 2.55  68 2.56  59 2.56
                            62 2.59  66 2.66  57 2.73  48 2.89
  38  0.382  0.955  0.130-  53 2.47  80 2.48  45 2.49  78 2.53  48 2.54  73 2.55  63 2.55  54 2.56
                            55 2.59  57 2.62  24 2.64  70 2.67
  39  0.036  0.382  0.324-  29 2.54   3 2.56  75 2.58  22 2.59  33 2.64  10 2.66  31 2.66  42 2.67
                             7 2.69   5 2.74  65 2.75  43 2.79
  40  0.031  0.382  0.038-  69 2.44  21 2.52  71 2.53  76 2.56  70 2.57  23 2.60  36 2.69  45 2.78
                            47 2.78
  41  0.872  0.215  0.128-  76 2.45  65 2.52  77 2.53  67 2.54  37 2.55  69 2.57  62 2.57  51 2.59
                            23 2.61  70 2.65  66 2.66  24 2.72
  42  0.955  0.545  0.224-  29 2.56  50 2.56  28 2.59  21 2.60  32 2.60  69 2.61  49 2.63  65 2.64
                            64 2.65  39 2.67  31 2.71  33 2.74
  43  0.297  0.115  0.321-  55 2.53  52 2.54  61 2.56  19 2.57  22 2.57   8 2.58  31 2.60  80 2.66
                             3 2.72  10 2.73  13 2.77  39 2.79
  44  0.541  0.629  0.322-  61 2.56  52 2.58  78 2.64  29 2.64  18 2.64  30 2.64  14 2.65  75 2.66
                            32 2.69  15 2.70  27 2.71  26 2.75
  45  0.295  0.119  0.039-  70 2.49  38 2.49  57 2.57  53 2.60  23 2.62  63 2.64  20 2.68  47 2.75
                            40 2.78
  46  0.548  0.625  0.044-  51 2.38  73 2.39  54 2.41  71 2.56  53 2.56  63 2.58  76 2.59  56 2.62
                            72 2.64
  47  0.296  0.379  0.039-  74 2.41  21 2.53  57 2.61  72 2.61  56 2.62  36 2.63  20 2.68  45 2.75
                            40 2.78
  48  0.625  0.950  0.132-  49 2.40  80 2.48  54 2.48  34 2.53  38 2.54  59 2.55  50 2.56  63 2.57
                            20 2.58  57 2.65  66 2.68  37 2.89
  49  0.706  0.794  0.220-  48 2.40  50 2.48  54 2.49  80 2.53  32 2.59  28 2.61  78 2.61   1 2.62
                            61 2.62  42 2.63  29 2.69  59 2.69
[...]
   0.370E+02 -.153E+02 -.152E+04   -.386E+02 0.158E+02 0.152E+04   0.172E+01 -.449E+00 0.204E+01   -.761E-01 -.697E-02 0.782E-01
   0.112E+02 0.162E+02 -.288E+04   -.121E+02 -.156E+02 0.288E+04   0.878E+00 -.649E+00 0.746E+00   -.548E-02 0.429E-02 0.316E-01
   0.596E+01 0.240E+02 -.290E+04   -.617E+01 -.233E+02 0.290E+04   0.246E+00 -.675E+00 0.142E+01   -.499E-01 -.449E-01 0.181E-02
   -.227E+01 -.990E+02 -.278E+04   0.224E+01 0.998E+02 0.279E+04   0.905E-01 -.892E+00 -.670E+00   -.413E-01 0.840E-01 0.954E-01
   -.163E+02 -.566E+01 -.293E+04   0.165E+02 0.538E+01 0.293E+04   -.250E+00 0.311E+00 0.129E+01   0.864E-01 -.721E-01 0.443E-02
   -.505E+00 -.270E+02 -.286E+04   0.116E+01 0.275E+02 0.286E+04   -.698E+00 -.621E+00 0.205E+01   0.256E-01 0.950E-01 0.120E+00
   -.147E+02 -.719E+01 -.292E+04   0.145E+02 0.745E+01 0.291E+04   0.158E-01 -.231E+00 0.105E+01   0.583E-01 -.407E-01 0.363E-01
   -.169E+02 -.157E+02 -.288E+04   0.173E+02 0.160E+02 0.288E+04   -.282E+00 -.336E+00 0.160E+01   -.105E-01 0.397E-01 0.432E-01
   -.379E+01 -.588E+01 -.293E+04   0.403E+01 0.555E+01 0.293E+04   -.300E+00 0.235E+00 0.597E+00   0.315E-01 0.279E-01 0.477E-01
   0.163E+02 0.368E+01 -.288E+04   -.157E+02 -.405E+01 0.288E+04   -.659E+00 0.360E+00 0.106E+01   0.367E-01 0.142E-01 0.163E-01
   -.138E+00 -.141E+02 -.291E+04   -.291E+00 0.138E+02 0.291E+04   0.481E+00 0.244E+00 0.698E+00   -.389E-01 -.276E-02 0.495E-01
   -.799E+02 0.667E+02 -.285E+04   0.810E+02 -.669E+02 0.285E+04   -.108E+01 0.246E+00 -.241E+00   -.249E-01 0.555E-01 0.745E-01
   0.838E+01 0.267E+01 -.289E+04   -.820E+01 -.212E+01 0.289E+04   -.252E+00 -.440E+00 0.131E+01   0.540E-01 -.797E-01 0.248E-01
   0.995E+02 0.627E+02 -.288E+04   -.100E+03 -.633E+02 0.288E+04   0.850E+00 0.599E+00 -.353E+00   -.719E-01 0.354E-01 0.231E-01
   0.300E+02 -.599E+01 -.292E+04   -.297E+02 0.635E+01 0.292E+04   -.296E+00 -.318E+00 0.948E+00   -.563E-02 -.714E-01 0.349E-01
   0.730E+02 -.728E+02 -.151E+04   -.718E+02 0.732E+02 0.150E+04   -.119E+01 -.329E+00 0.174E+01   -.313E-02 -.849E-01 0.378E-01
   0.298E+02 -.451E+02 -.150E+04   -.310E+02 0.447E+02 0.150E+04   0.112E+01 0.401E+00 0.256E+01   0.278E-01 0.641E-02 0.976E-01
   0.333E+02 0.314E+02 0.304E+04   -.335E+02 -.316E+02 -.304E+04   0.142E+00 0.171E+00 -.236E+01   -.454E-03 0.681E-01 -.461E-01
   0.345E+02 -.924E+01 0.161E+04   -.354E+02 0.100E+02 -.161E+04   0.922E+00 -.647E+00 0.930E+00   0.390E-01 -.510E-01 0.157E-02
   -.694E+02 0.120E+02 -.147E+04   0.704E+02 -.120E+02 0.146E+04   -.879E+00 -.956E-01 0.210E+01   -.208E-01 0.107E+00 0.966E-01
   -.542E+02 0.513E+02 0.309E+04   0.548E+02 -.505E+02 -.309E+04   -.683E+00 -.895E+00 -.203E+01   -.168E-02 0.275E-01 -.187E-01
   0.598E+00 -.518E+02 0.160E+04   -.348E+00 0.513E+02 -.160E+04   -.304E+00 0.388E+00 -.747E+00   -.513E-02 0.601E-01 -.654E-05
   0.748E+01 0.188E+02 -.286E+04   -.773E+01 -.196E+02 0.286E+04   0.306E+00 0.844E+00 0.750E+00   -.820E-01 -.662E-01 0.335E-01
   -.144E+02 -.118E+02 0.205E+02   0.144E+02 0.121E+02 -.220E+02   -.187E+00 -.241E+00 0.153E+01   -.324E-01 -.960E-01 -.186E-02
   -.319E+02 0.981E+01 -.290E+04   0.312E+02 -.101E+02 0.290E+04   0.674E+00 0.290E+00 0.130E+01   0.799E-01 0.423E-01 0.509E-01
   0.119E+02 0.684E+02 0.151E+02   -.129E+02 -.696E+02 -.157E+02   0.119E+01 0.112E+01 0.431E+00   0.998E-02 -.179E-01 0.831E-01
   -.702E+02 0.934E+01 -.146E+04   0.705E+02 -.105E+02 0.146E+04   -.383E+00 0.128E+01 0.273E+01   0.101E+00 -.654E-01 0.880E-01
   0.387E+02 0.199E+02 -.156E+04   -.382E+02 -.189E+02 0.156E+04   -.410E+00 -.935E+00 0.236E+01   -.112E+00 -.453E-01 0.560E-01
   0.197E+02 -.663E+02 -.608E+02   -.206E+02 0.658E+02 0.611E+02   0.105E+01 0.530E+00 -.340E+00   -.430E-01 0.240E-01 0.490E-01
   -.233E+02 -.214E+02 0.235E+02   0.241E+02 0.222E+02 -.243E+02   -.811E+00 -.746E+00 0.676E+00   0.274E-01 -.144E+00 0.103E+00
   0.616E+01 0.996E+01 -.125E+04   -.613E+01 -.103E+02 0.125E+04   0.125E-01 0.406E+00 0.598E+00   -.369E-01 -.197E-01 0.645E-01
   -.601E+02 -.260E+01 0.244E+04   0.604E+02 0.128E+01 -.244E+04   -.449E+00 0.132E+01 -.268E+01   0.392E-01 0.267E-01 -.621E-01
   0.305E+02 -.139E+02 0.247E+04   -.304E+02 0.125E+02 -.247E+04   -.445E-01 0.144E+01 -.229E+01   -.117E-01 0.266E-01 -.243E-01
   0.226E+02 -.400E+01 0.248E+04   -.228E+02 0.459E+01 -.247E+04   0.172E+00 -.577E+00 -.290E+01   0.107E-01 -.334E-01 -.260E-01
   0.708E+01 0.516E+02 0.130E+04   -.623E+01 -.510E+02 -.130E+04   -.924E+00 -.699E+00 -.112E+00   0.103E-01 0.486E-01 -.645E-02
   0.345E+02 -.545E+02 0.129E+04   -.343E+02 0.541E+02 -.129E+04   -.135E+00 0.254E+00 -.391E+00   -.642E-01 0.117E+00 -.276E-02
   -.573E+02 -.271E+02 -.122E+04   0.574E+02 0.273E+02 0.122E+04   -.979E-01 -.169E+00 0.679E+00   -.625E-02 -.385E-02 0.665E-01
   -.935E+02 0.205E+02 0.248E+04   0.932E+02 -.202E+02 -.248E+04   0.286E+00 -.223E+00 -.262E+01   0.190E-01 -.297E-01 -.205E-01
   -.339E+02 0.467E+02 0.131E+04   0.331E+02 -.463E+02 -.131E+04   0.809E+00 -.544E+00 -.392E+00   -.285E-02 0.250E-01 -.562E-02
   -.484E+02 0.196E+01 -.333E+02   0.481E+02 -.151E+01 0.330E+02   0.266E+00 -.455E+00 0.142E-01   0.354E-01 -.571E-01 0.934E-01
   0.134E+02 -.833E+02 -.122E+04   -.136E+02 0.829E+02 0.122E+04   0.181E+00 0.289E+00 0.105E+01   -.749E-02 0.956E-01 0.770E-01
   0.218E+02 0.250E+02 -.121E+04   -.221E+02 -.249E+02 0.121E+04   0.242E+00 -.148E+00 0.529E+00   0.449E-01 -.574E-01 0.527E-01
   0.147E+02 -.467E+02 0.245E+04   -.154E+02 0.459E+02 -.245E+04   0.696E+00 0.702E+00 -.275E+01   -.332E-02 0.425E-01 -.202E-01
   0.477E+01 -.195E+02 0.276E+04   -.476E+01 0.198E+02 -.276E+04   0.447E-01 -.217E+00 -.233E+01   -.368E-01 -.911E-01 -.117E+00
   0.119E+03 0.289E+02 0.279E+04   -.120E+03 -.281E+02 -.279E+04   0.507E+00 -.730E+00 -.237E+01   0.592E-03 -.238E-01 -.570E-02
   -.369E+02 -.277E+02 0.143E+04   0.364E+02 0.266E+02 -.143E+04   0.447E+00 0.109E+01 -.416E+00   0.534E-01 0.118E+00 -.487E-02
   -.627E+02 0.685E+02 0.404E+02   0.626E+02 -.684E+02 -.414E+02   -.294E-01 -.198E+00 0.803E+00   0.888E-01 0.136E-01 0.149E+00
   -.901E+02 0.194E+02 0.142E+04   0.895E+02 -.189E+02 -.142E+04   0.542E+00 -.477E+00 -.709E-01   0.130E+00 -.292E-01 0.825E-02
   -.201E+02 0.935E+01 0.140E+04   0.203E+02 -.948E+01 -.140E+04   -.179E+00 0.307E+00 -.461E-01   -.402E-01 -.103E+00 -.393E-01
   0.502E+02 0.152E+02 -.138E+04   -.500E+02 -.156E+02 0.138E+04   -.244E+00 0.292E+00 0.173E+01   -.415E-01 0.693E-01 0.648E-01
   0.532E+02 -.806E+02 0.277E+04   -.529E+02 0.804E+02 -.276E+04   -.357E+00 0.186E+00 -.241E+01   -.357E-02 0.314E-01 -.664E-01
   -.136E+02 0.222E+01 0.139E+04   0.137E+02 -.193E+01 -.139E+04   -.119E+00 -.256E+00 -.410E+00   -.264E-01 -.538E-01 -.389E-01
   0.206E+02 -.677E+02 -.760E+00   -.198E+02 0.671E+02 0.104E+01   -.774E+00 0.570E+00 -.357E+00   -.219E-01 0.103E+00 -.148E-01
   0.311E+02 0.338E+02 0.345E+04   -.311E+02 -.330E+02 -.344E+04   0.626E-01 -.899E+00 -.355E+01   0.130E-01 -.620E-02 0.870E-03
   0.633E+02 0.726E+01 0.175E+04   -.635E+02 -.803E+01 -.175E+04   0.114E+00 0.707E+00 -.121E+00   -.198E-01 0.837E-01 -.165E-01
   0.102E+03 -.312E+02 0.173E+04   -.101E+03 0.313E+02 -.173E+04   -.180E+00 0.205E-01 0.450E-01   -.356E-01 -.305E-01 0.243E-01
   0.134E+02 0.713E+02 0.104E+03   -.140E+02 -.712E+02 -.105E+03   0.548E+00 -.189E+00 0.692E+00   0.289E-01 0.408E-01 0.900E-01
   0.142E+02 0.548E+02 -.167E+04   -.138E+02 -.544E+02 0.167E+04   -.501E+00 -.403E+00 0.148E+01   0.133E-01 -.713E-02 0.105E+00
[...]
   0.581E+02 -.415E+02 0.211E+02   -.575E+02 0.411E+02 -.215E+02   -.649E+00 0.446E+00 0.358E+00   -.545E-02 0.840E-02 0.214E-01
   -.743E+02 0.143E+01 0.156E+04   0.738E+02 -.114E+01 -.156E+04   0.404E+00 -.836E-01 -.562E-01   0.199E-01 -.133E+00 0.883E-02
   -.125E+02 0.194E+02 0.163E+04   0.128E+02 -.197E+02 -.163E+04   -.364E+00 0.228E+00 -.437E+00   0.418E-02 0.129E-01 0.225E-01
   -.101E+03 -.414E+01 0.309E+04   0.101E+03 0.428E+01 -.309E+04   -.525E+00 -.397E-01 -.137E+01   0.159E-01 -.714E-01 -.132E+00
   0.704E+02 -.525E+02 0.309E+04   -.708E+02 0.531E+02 -.309E+04   0.373E+00 -.546E+00 -.806E+00   -.259E-02 -.645E-01 -.310E-01
   0.167E+02 -.401E+02 0.156E+04   -.163E+02 0.399E+02 -.156E+04   -.391E+00 0.242E+00 0.678E-02   -.747E-01 -.466E-01 -.351E-01
   0.520E+02 0.823E+00 0.160E+04   -.515E+02 -.752E+00 -.160E+04   -.473E+00 0.473E-01 -.128E+00   -.149E-01 -.620E-01 -.137E-01
   -.411E+02 -.734E+02 -.152E+04   0.410E+02 0.734E+02 0.152E+04   0.931E-01 -.521E-02 0.750E+00   0.884E-01 -.702E-01 0.586E-01
   -.540E+02 0.296E+02 0.307E+04   0.545E+02 -.290E+02 -.307E+04   -.443E+00 -.565E+00 -.190E+01   -.399E-01 -.166E-01 -.245E-01
   -.485E+02 0.797E+02 0.887E+02   0.490E+02 -.794E+02 -.889E+02   -.393E+00 -.463E+00 0.184E+00   0.602E-02 0.457E-01 0.529E-01
   0.479E+01 0.626E+02 0.175E+02   -.479E+01 -.618E+02 -.177E+02   0.377E-01 -.864E+00 -.174E-01   -.277E-01 0.490E-01 0.560E-01
   0.528E+02 0.113E+02 -.226E+02   -.525E+02 -.108E+02 0.226E+02   -.335E+00 -.573E+00 0.517E-01   -.724E-01 0.121E-01 0.625E-02
   0.254E+02 -.519E+02 0.531E+02   -.258E+02 0.514E+02 -.534E+02   0.315E+00 0.471E+00 0.181E+00   -.122E-01 0.926E-01 0.575E-01
   -.130E+02 -.225E+02 -.168E+04   0.145E+02 0.244E+02 0.171E+04   -.144E+01 -.196E+01 -.253E+02   -.304E-01 0.459E-01 0.677E-02
   -.154E+00 0.181E+01 0.183E+02   -.941E-13 0.163E-12 0.216E-10   0.147E+00 -.189E+01 -.203E+02   0.109E-01 0.560E-01 0.201E+01

 POSITION                                       TOTAL-FORCE (eV/Angst)
     12.95486      8.03373      6.97691        -0.005911     -0.004074      0.006873
      5.11835      8.04683      6.97928         0.002355     -0.001060      0.022957
      4.95671      3.49648      7.03229         0.001652     -0.001248      0.004453
     14.25236      8.81961      9.29282        -0.005149     -0.029953     -0.011912
      3.72731      4.22249      9.42926        -0.001881     -0.030397     -0.004528
      6.37505      8.82624      9.36367        -0.016820     -0.002344     -0.002389
     11.66120      4.20321      9.35335         0.003446     -0.012236      0.007442
      9.06195      8.78571      9.19598        -0.022984     -0.012048      0.003879
     10.33851      1.93360      9.24006        -0.005205      0.001809     -0.022980
      2.43588      1.93318      9.28788         0.007720      0.008112     -0.009703
     11.65717      8.77872      9.32000         0.015129     -0.032596     -0.004543
     12.98022      6.49323      9.36841        -0.011893      0.007932      0.001360
      5.04668      1.90812      9.35038         0.003906      0.002331     -0.003958
      7.75271      6.47631      9.52427        -0.004696      0.003549      0.011388
      9.04168      4.21663      9.26855        -0.024734     -0.012714      0.032560
      5.00257      6.47795      9.69308        -0.005687      0.018292      0.012588
      7.70975      1.92922      9.30123         0.000876     -0.000639     -0.001977
      7.77367      3.43036      6.97186         0.001356      0.007471      0.007785
      6.29784      1.14218      6.92464         0.009679      0.005786     -0.003176
      6.42858      1.12974      0.87872        -0.022260     -0.010233      0.002059
      3.70548      4.20844      2.81687         0.006164      0.003497     -0.025522
      1.17516      1.23053      6.92532         0.000051      0.011672      0.004095
      1.13569      1.19080      0.72557        -0.000287      0.029737      0.008974
      6.43607      8.76100      2.90031        -0.009895     -0.008891      0.005003
      6.37592      4.16467      9.35134        -0.020538     -0.013157      0.007158
      7.68135      4.99073      4.81474        -0.077565      0.040125      0.050613
     10.32630      6.49011      9.28674         0.006183      0.029503      0.029572
     14.26424      7.22593      4.86299         0.120444     -0.044481     -0.007425
     11.68535      5.68608      7.01110        -0.013032      0.013486     -0.010973
      6.44195      5.78084      7.05726        -0.003713      0.019203      0.014165
      3.62119      2.56589      4.96023        -0.000090      0.022971     -0.018808
     10.36091      5.02430      4.85652         0.035546     -0.027974     -0.052079
      3.77788      5.77133      7.19100        -0.001413     -0.001566     -0.008223
     12.96907      7.87977      0.92567        -0.011922     -0.006393     -0.006359
      5.16340      7.91719      0.83030        -0.003200      0.014631      0.005164
      3.80701      5.74502      0.81381         0.009648      0.000847     -0.029363
      7.79852      2.03245      2.83251        -0.040244     -0.021370      0.006867
      9.07755      8.73373      2.85743         0.006361      0.001546      0.011702
      2.40305      3.49600      7.13919         0.002808      0.000718     -0.004613
      2.34409      3.49051      0.82510         0.021209      0.008212     -0.025612
     10.34814      1.96983      2.82249        -0.019670      0.000094      0.010303
     12.96035      4.98587      4.92559         0.072738     -0.034838     -0.024985
      3.73858      1.06598      7.06065         0.002901     -0.006702      0.004002
      9.04385      5.75305      7.06808        -0.008529      0.006700      0.014132
      3.74824      1.09182      0.86700         0.010044      0.004119     -0.031162
      9.09121      5.71867      0.96043         0.000072      0.014684     -0.027822
      5.12448      3.47045      0.85563        -0.012329      0.025722     -0.010804
     11.62092      8.68758      2.90590        -0.000177      0.004772      0.023433
     11.65313      7.26450      4.84229         0.010830     -0.009209     -0.057352
     12.86756      6.45280      2.83379         0.033123      0.016209      0.016221
      9.04201      4.20780      2.79628        -0.030067      0.035841      0.016787
      7.76710      7.99918      6.98276         0.001395     -0.007403      0.007648
      7.81315      7.93922      0.88653        -0.003948      0.003122      0.003380
     10.39144      6.53566      2.82198         0.016093     -0.003233      0.008059
      2.51347      0.25826      5.00083        -0.004303     -0.014054     -0.007878
      7.74264      3.48454      0.76157         0.001726     -0.004108      0.002695
      5.07835      1.87760      2.91701         0.000334     -0.016623     -0.007694
      5.16037      6.44715      2.89923        -0.000921      0.002555     -0.009660
      7.70892      0.45986      4.84799         0.005906      0.013371     -0.009601
      9.05948      1.17782      6.96591        -0.001259      0.008639     -0.008366
[...]
      9.07350      2.65252      4.91360         0.040723     -0.033867     -0.046503
      6.37169      2.66558      4.85827        -0.023207      0.029333     -0.010483
     11.65891      4.17486      2.81483        -0.021863      0.006703     -0.047416
      2.44098      1.89237      2.83279        -0.011817      0.016728      0.027330
     11.64953      5.68621      0.88546         0.001947      0.033315     -0.005069
      6.44743      5.71949      0.92597         0.002678      0.009639      0.002671
      7.82927      6.50651      2.83621        -0.034935      0.014672     -0.010454
      6.41922      4.13007      2.78290        -0.016289      0.009619     -0.014048
     10.37696      3.45375      7.04015         0.001187      0.002241     -0.002425
     10.34410      3.45013      0.86804        -0.002969     -0.027231     -0.013309
     10.37063      0.48410      4.87151         0.018241     -0.070764      0.077032
      9.04079      7.29017      4.93700        -0.008127     -0.034464     -0.061832
      6.46265      7.29503      4.94074         0.001198     -0.043727      0.112371
      5.04247      0.27633      4.88406        -0.011849      0.014081     -0.006043
      6.44040      7.37002     10.66411        -0.012495      0.017081     -0.031378
    total drift:                                0.004463     -0.019427     -0.013050

  FREE ENERGIE OF THE ION-ELECTRON SYSTEM (eV)
  free  energy   TOTEN  =      -514.72434238 eV

  energy  without entropy=     -514.74633321  energy(sigma->0) =     -514.73167265

 d Force = 0.1120160E-02[ 0.640E-03, 0.160E-02]  d Energy = 0.9707170E-03 0.149E-03
 d Force = 0.2444235E+01[ 0.245E+01, 0.243E+01]  d Ewald  = 0.2444229E+01 0.539E-05

 Conjugate gradient step on ions:
 trial-energy change:   -0.000971  1 .order   -0.001120   -0.001600   -0.000640
  (g-gl).g = 0.121E-02      g.g   = 0.126E-02  gl.gl    = 0.232E-02
 g(Force)  = 0.126E-02   g(Stress)= 0.000E+00 ortho     = 0.139E-03
 gamma     =   0.52394
 trial     =   1.20039
 opt step  =   2.00121  (harmonic =   2.00121) maximal distance =0.00749091
 next E    =  -514.724705   (d E  =  -0.00133)

 reached required accuracy - stopping structural energy minimisation