 vasp.5.4.4.18Apr17-6-g9f103f2a35 (build Nov 30 2020 22:55:02) complex

 executed on             LinuxIFC date 2021.11.25  12:51:47

 INCAR:
 POTCAR:    PAW_PBE Pt 04Feb2005
 POTCAR:    PAW_PBE H 15Jun2001

 POTCAR:    PAW_PBE Pt 04Feb2005
   VRHFIN =Pt: s1d9

   TITEL  = PAW_PBE Pt 04Feb2005
   POMASS =  195.080; ZVAL   =   10.000    mass and valenz
   ENMAX  =  230.283; ENMIN  =  172.712 eV

 POTCAR:    PAW_PBE H 15Jun2001
   VRHFIN =H: ultrasoft test

   TITEL  = PAW_PBE H 15Jun2001
   POMASS =    1.000; ZVAL   =    1.000    mass and valenz
   ENMAX  =  250.000; ENMIN  =  200.000 eV

 Optimization of the real space projectors (new method)

 maximal supplied QI-value         = 14.36
 optimisation between [QCUT,QGAM] = [ 11.92, 23.98] = [ 39.79,161.09] Ry
 Optimized for a Real-space Cutoff    1.49 Angstroem

   l    n(q)    QCUT    max X(q) W(low)/X(q) W(high)/X(q)  e(spline)
   2     10    11.920    66.195    0.79E-04    0.18E-03    0.24E-06
   2     10    11.920    64.643    0.81E-04    0.19E-03    0.24E-06
   0     11    11.920    95.520    0.28E-04    0.54E-04    0.18E-06
   0     11    11.920    63.403    0.27E-04    0.52E-04    0.17E-06
   1     10    11.920    19.961    0.18E-04    0.11E-03    0.23E-06
   1     10    11.920    13.289    0.25E-04    0.87E-04    0.19E-06
 Optimization of the real space projectors (new method)

 maximal supplied QI-value         = 34.20
 optimisation between [QCUT,QGAM] = [ 11.97, 23.94] = [ 40.13,160.53] Ry
 Optimized for a Real-space Cutoff    1.18 Angstroem

   l    n(q)    QCUT    max X(q) W(low)/X(q) W(high)/X(q)  e(spline)
   0      8    11.971    19.460    0.15E-03    0.31E-03    0.25E-06
   0      8    11.971    12.209    0.13E-03    0.29E-03    0.25E-06
   1      8    11.971     4.655    0.22E-03    0.24E-03    0.21E-06
  PAW_PBE Pt 04Feb2005                  :
  PAW_PBE H 15Jun2001                   :

 POSCAR: Pt111
  positions in cartesian coordinates
 exchange correlation table for  LEXCH =        8
   RHO(1)=    0.500       N(1)  =     2000
   RHO(2)=  100.500       N(2)  =     4000

 ion  position               nearest neighbor table
   1  0.785  0.869  0.327-  71 2.74  20 2.74  55 2.74  35 2.79  27 2.79  34 2.79  43 2.80  73 2.80
                            56 2.80   3 2.80  72 2.80   2 2.81
   2  0.035  0.869  0.327-  65 2.74  55 2.74  68 2.74  29 2.78  27 2.79  39 2.79  72 2.80   1 2.81
                            47 2.81  57 2.81   3 2.81  23 2.81
   3  0.035  0.619  0.327-  55 2.74  12 2.74  76 2.74  28 2.78  35 2.79  39 2.79  56 2.80  57 2.80
                             9 2.80   1 2.80   2 2.81  15 2.81
   4  0.787  0.868  0.023-  21 2.78  78 2.78  19 2.79  44 2.81  74 2.81  75 2.81   5 2.81   6 2.81
                            58 2.81
   5  0.037  0.868  0.023-  49 2.78  70 2.79  78 2.79  24 2.80  74 2.81  59 2.81   4 2.81  48 2.81
                             6 2.81
   6  0.037  0.618  0.023-  46 2.78  70 2.79  21 2.79  18 2.81  10 2.81  58 2.81  59 2.81   4 2.81
                             5 2.81
   7  0.619  0.202  0.126-  71 2.74  79 2.74  80 2.74  42 2.78  44 2.79  74 2.79  53 2.80  61 2.80
                            22 2.80  11 2.80  19 2.81  78 2.81
   8  0.369  0.952  0.126-  66 2.74  69 2.74  26 2.74  24 2.78  16 2.78  75 2.79  25 2.80  60 2.81
                            19 2.81  49 2.81  54 2.81  53 2.81
   9  0.035  0.369  0.327-  12 2.74  77 2.74  62 2.74  33 2.78  28 2.79  30 2.79  15 2.80   3 2.80
                            63 2.81  56 2.81  13 2.81  47 2.81
  10  0.037  0.368  0.023-  54 2.78  46 2.79  45 2.79  16 2.80  48 2.80  18 2.80   6 2.81  64 2.81
                            58 2.81
  11  0.869  0.202  0.126-  65 2.74  77 2.74  79 2.74  64 2.78  74 2.78  48 2.79   7 2.80  45 2.81
                            22 2.81  78 2.81  54 2.81  49 2.81
  12  0.952  0.536  0.227-   9 2.74  21 2.74  45 2.74   3 2.74  56 2.74  46 2.74  20 2.80  67 2.80
                            55 2.81  76 2.81  77 2.81  62 2.81
  13  0.285  0.119  0.327-  62 2.74  26 2.74  69 2.74  36 2.79  31 2.79  33 2.79  15 2.80  73 2.80
                            43 2.81  23 2.81   9 2.81  47 2.81
  14  0.535  0.619  0.327-  51 2.74  66 2.74  67 2.74  52 2.79  38 2.79  37 2.79  56 2.81  73 2.81
                            63 2.81  23 2.81  41 2.81  57 2.81
  15  0.285  0.369  0.327-  76 2.74  62 2.74  80 2.74  36 2.78  28 2.79  50 2.79  13 2.80   9 2.80
                            57 2.81  41 2.81   3 2.81  43 2.81
  16  0.286  0.118  0.023-   8 2.78  53 2.79  54 2.79  48 2.80  10 2.80  18 2.80  24 2.81  44 2.81
                            75 2.81
  17  0.537  0.618  0.023-  25 2.78  22 2.78  60 2.79  42 2.80  59 2.81  64 2.81  58 2.81  75 2.81
                            24 2.81
  18  0.287  0.368  0.023-  53 2.78  61 2.79  46 2.79  10 2.80  16 2.80   6 2.81  44 2.81  59 2.81
                            42 2.81
  19  0.619  0.952  0.126-  20 2.74  71 2.74  69 2.74  44 2.78  75 2.78   4 2.79  21 2.81  53 2.81
                            78 2.81   8 2.81  25 2.81   7 2.81
  20  0.702  0.786  0.227-   1 2.74  19 2.74  25 2.74  56 2.74  73 2.74  21 2.74  12 2.80  67 2.81
                            69 2.81  66 2.81  55 2.81  71 2.81
  21  0.869  0.702  0.126-  12 2.74  55 2.74  20 2.74   4 2.78  58 2.78   6 2.79  78 2.81  19 2.81
                            46 2.81  45 2.81  70 2.81  25 2.81
  22  0.619  0.452  0.126-  79 2.74  67 2.74  51 2.74  17 2.78  42 2.79  64 2.79  60 2.80  61 2.80
                             7 2.80  25 2.80  11 2.81  45 2.81
  23  0.285  0.869  0.327-  26 2.74  68 2.74  66 2.74  37 2.78  31 2.78  29 2.79  47 2.80  13 2.81
                            73 2.81  14 2.81   2 2.81  57 2.81
  24  0.287  0.868  0.023-   8 2.78  60 2.79  49 2.79   5 2.80  48 2.81  16 2.81  75 2.81  59 2.81
                            17 2.81
  25  0.619  0.702  0.126-  67 2.74  20 2.74  66 2.74  17 2.78  75 2.78  58 2.79   8 2.80  60 2.80
                            45 2.80  22 2.80  19 2.81  21 2.81
  26  0.202  0.035  0.227-  54 2.74  13 2.74  23 2.74  49 2.74  47 2.74   8 2.74  66 2.80  68 2.80
                            69 2.81  65 2.81  62 2.81  77 2.81
  27  0.868  0.953  0.430-  72 2.78   1 2.79   2 2.79  35 2.81  40 2.81  34 2.81  39 2.81  29 2.81
                            32 2.81
  28  0.118  0.453  0.430-   3 2.78  15 2.79   9 2.79  36 2.80  50 2.80  39 2.80  33 2.81  35 2.81
                            30 2.81
  29  0.118  0.953  0.430-   2 2.78  23 2.79  47 2.79  37 2.80  31 2.80  33 2.81  27 2.81  39 2.81
                            32 2.81
  30  0.868  0.453  0.430-  63 2.78  56 2.78   9 2.79  38 2.80  32 2.80  52 2.81  33 2.81  35 2.81
                            28 2.81
  31  0.368  0.953  0.430-  23 2.78  13 2.79  73 2.79  37 2.80  52 2.80  29 2.80  34 2.81  33 2.81
                            36 2.81
  32  0.868  0.203  0.430-  63 2.78  72 2.78  47 2.79  38 2.80  30 2.80  33 2.81  40 2.81  29 2.81
                            27 2.81
  33  0.118  0.203  0.430-   9 2.78  47 2.79  13 2.79  32 2.81  29 2.81  28 2.81  30 2.81  36 2.81
                            31 2.81
  34  0.618  0.953  0.430-  43 2.78  73 2.78   1 2.79  52 2.80  40 2.80  27 2.81  31 2.81  36 2.81
                            35 2.81
  35  0.868  0.703  0.430-  56 2.78   3 2.79   1 2.79  39 2.80  27 2.81  52 2.81  28 2.81  30 2.81
                            34 2.81
  36  0.368  0.203  0.430-  15 2.78  13 2.79  43 2.79  50 2.80  28 2.80  40 2.80  34 2.81  33 2.81
                            31 2.81
  37  0.367  0.703  0.430-  23 2.78  57 2.78  14 2.79  29 2.80  39 2.80  31 2.80  50 2.81  52 2.81
                            38 2.81
  38  0.618  0.453  0.430-  41 2.78  63 2.79  14 2.79  32 2.80  40 2.80  30 2.80  50 2.81  52 2.81
                            37 2.81
  39  0.118  0.703  0.430-   2 2.79   3 2.79  57 2.79  37 2.80  35 2.80  28 2.80  27 2.81  50 2.81
                            29 2.81
  40  0.618  0.203  0.430-  41 2.79  43 2.79  72 2.79  38 2.80  36 2.80  34 2.80  50 2.81  27 2.81
                            32 2.81
  41  0.535  0.369  0.327-  51 2.74  80 2.74  79 2.74  38 2.78  40 2.79  50 2.79  43 2.80  72 2.81
                            15 2.81  63 2.81  57 2.81  14 2.81
  42  0.537  0.368  0.023-   7 2.78  22 2.79  61 2.79  17 2.80  59 2.81  64 2.81  44 2.81  18 2.81
                            74 2.81
  43  0.535  0.119  0.327-  80 2.74  69 2.74  71 2.74  34 2.78  40 2.79  36 2.79  73 2.80   1 2.80
                            41 2.80  13 2.81  72 2.81  15 2.81
  44  0.537  0.118  0.023-  19 2.78   7 2.79  53 2.79  75 2.81  18 2.81   4 2.81  16 2.81  42 2.81
                            74 2.81
  45  0.869  0.452  0.126-  77 2.74  12 2.74  67 2.74  58 2.78  64 2.78  10 2.79  25 2.80  11 2.81
                            21 2.81  22 2.81  54 2.81  46 2.81
  46  0.119  0.452  0.126-  62 2.74  76 2.74  12 2.74   6 2.78  10 2.79  18 2.79  70 2.80  61 2.81
                            21 2.81  53 2.81  54 2.81  45 2.81
  47  0.035  0.119  0.327-  77 2.74  65 2.74  26 2.74  33 2.79  29 2.79  32 2.79  23 2.80  63 2.81
                             2 2.81  72 2.81  13 2.81   9 2.81
  48  0.037  0.118  0.023-  54 2.78  49 2.79  11 2.79  16 2.80  10 2.80  24 2.81  64 2.81  74 2.81
                             5 2.81
  49  0.119  0.952  0.126-  68 2.74  26 2.74  65 2.74   5 2.78  48 2.79  24 2.79  70 2.80  60 2.81
                            78 2.81   8 2.81  54 2.81  11 2.81
  50  0.368  0.453  0.430-  15 2.79  57 2.79  41 2.79  36 2.80  28 2.80  40 2.81  38 2.81  39 2.81
                            37 2.81
  51  0.452  0.536  0.227-  14 2.74  41 2.74  60 2.74  61 2.74  57 2.74  22 2.74  76 2.81  68 2.81
                            66 2.81  80 2.81  67 2.81  79 2.81
  52  0.618  0.703  0.430-  73 2.79  14 2.79  56 2.79  34 2.80  31 2.80  30 2.81  35 2.81  37 2.81
                            38 2.81
  53  0.369  0.202  0.126-  69 2.74  80 2.74  62 2.74  18 2.78  16 2.79  44 2.79   7 2.80  61 2.81
                            19 2.81  46 2.81  54 2.81   8 2.81
  54  0.119  0.202  0.126-  62 2.74  26 2.74  77 2.74  10 2.78  48 2.78  16 2.79  45 2.81  11 2.81
                            46 2.81  49 2.81   8 2.81  53 2.81
  55  0.952  0.786  0.227-  78 2.74   3 2.74  21 2.74   2 2.74   1 2.74  70 2.74  65 2.80  12 2.81
                            68 2.81  71 2.81  76 2.81  20 2.81
  56  0.785  0.619  0.327-  20 2.74  67 2.74  12 2.74  35 2.78  30 2.78  52 2.79   3 2.80   1 2.80
                             9 2.81  14 2.81  63 2.81  73 2.81
  57  0.285  0.619  0.327-  76 2.74  68 2.74  51 2.74  37 2.78  50 2.79  39 2.79   3 2.80   2 2.81
                            15 2.81  23 2.81  41 2.81  14 2.81
  58  0.787  0.618  0.023-  45 2.78  21 2.78  25 2.79  64 2.81   6 2.81  17 2.81  10 2.81  75 2.81
                             4 2.81
  59  0.287  0.618  0.023-  61 2.78  60 2.78  70 2.79  17 2.81  42 2.81   5 2.81   6 2.81  24 2.81
                            18 2.81
  60  0.369  0.702  0.126-  51 2.74  66 2.74  68 2.74  59 2.78  24 2.79  17 2.79  22 2.80  61 2.80
                            25 2.80  70 2.81  49 2.81   8 2.81
  61  0.369  0.452  0.126-  80 2.74  51 2.74  76 2.74  59 2.78  18 2.79  42 2.79  22 2.80  60 2.80
[...]
     12.278215  9.260926  9.459571            0           0           0
     13.682460  6.830298  9.459843            0           0           0
      5.265460  1.973614  9.460656            0           0           0
      8.067523  6.832259  9.458642            0           0           0
      9.472726  4.397942  9.458138            0           0           0
      5.263893  6.830283  9.464679            0           0           0
      8.069462  1.970740  9.464918            0           0           0
      8.072983  3.586221  7.193673            0           0           0
      8.087257  3.577945  0.508935            0           0           0
      6.670774  1.157048  7.195014            0           0           0
      6.683841  1.147677  0.507403            0           0           0
     12.288936  4.392502  2.774198            0           0           0
      3.874422  4.392862  2.775032            0           0           0
      1.059422  1.158511  7.191260            0           0           0
      1.074423  1.148495  0.507595            0           0           0
      6.678693  9.249618  2.774766            0           0           0
      6.666882  4.400130  9.463394            0           0           0
      8.077098  5.205856  4.987699            0           0           0
     10.876984  6.831783  9.461038            0           0           0
      5.277751  1.962610  2.774768            0           0           0
      2.470019  1.962320  2.775751            0           0           0
     15.091758  7.635441  4.984018            0           0           0
     12.283809  6.018506  7.195012            0           0           0
      6.668447  6.018401  7.194051            0           0           0
     12.295424  6.006566  0.507649            0           0           0
      6.684366  6.007147  0.509448            0           0           0
      8.081680  6.820137  2.777117            0           0           0
[...]
      6.674556  7.636390  4.985664            0           0           0
      5.272297  0.345884  4.983513            0           0           0
      5.276584  6.821264  2.775457            0           0           0
      8.077579  0.346093  4.984085            0           0           0
      9.476583  1.157541  7.195726            0           0           0
     10.880346  8.449929  7.194104            0           0           0
      9.490837  1.147516  0.507632            0           0           0
     10.892532  8.437254  0.507264            0           0           0
      5.270988  5.205025  4.985665            0           0           0
     12.284501  2.776920  4.983451            0           0           0
     15.095859  9.251151  2.773262            0           0           0
      9.481206  2.774953  4.985421            0           0           0
      6.673639  2.775448  4.985704            0           0           0
      8.440835  5.426678 12.292567     0.617907    0.273050   -0.297725
      9.092370  5.803796 12.312937     0.589220    0.316394   -0.087793

   4 f/i=    1.747915 THz    10.982477 2PiTHz   58.304181 cm-1     7.228800 meV
             X         Y         Z           dx          dy          dz
     13.684623  8.447985  7.192018            0           0           0
      5.266938  8.449056  7.195439            0           0           0
      3.863796  6.018572  7.195074            0           0           0
     13.698303  8.437401  0.506411            0           0           0
      5.281991  8.437445  0.507322            0           0           0
      3.878382  6.006618  0.507685            0           0           0
      8.081465  1.963254  2.775217            0           0           0
      9.484539  9.249895  2.774550            0           0           0
      2.462911  3.588759  7.191597            0           0           0
      2.476417  3.576515  0.507054            0           0           0
     10.886058  1.962993  2.774528            0           0           0
     13.688422  5.206669  4.983571            0           0           0
      3.865590  1.159293  7.191913            0           0           0
      9.478580  6.019349  7.192781            0           0           0
      5.266683  3.587807  7.195401            0           0           0
      3.877563  1.148287  0.507451            0           0           0
      9.489552  6.007022  0.508807            0           0           0
      5.280687  3.577063  0.507974            0           0           0
     12.290240  9.251169  2.773677            0           0           0
     12.285839  7.634833  4.983903            0           0           0
     13.693114  6.821946  2.773292            0           0           0
      9.482814  4.392634  2.777340            0           0           0
      8.073849  8.449361  7.195845            0           0           0
      8.086899  8.437625  0.507704            0           0           0
     10.885991  6.821383  2.775016            0           0           0
      2.466424  0.344306  4.983749            0           0           0
     15.083813  9.260336  9.460023            0           0           0
      3.863460  4.400273  9.460369            0           0           0
      6.667281  9.260355  9.460452            0           0           0
     12.277028  4.401035  9.460737            0           0           0
      9.472210  9.258970  9.460869            0           0           0
     10.875810  1.971821  9.460553            0           0           0
      2.458697  1.971306  9.458262            0           0           0
     12.278215  9.260926  9.459571            0           0           0
     13.682460  6.830298  9.459843            0           0           0
      5.265460  1.973614  9.460656            0           0           0
      8.067523  6.832259  9.458642            0           0           0
      9.472726  4.397942  9.458138            0           0           0
      5.263893  6.830283  9.464679            0           0           0
      8.069462  1.970740  9.464918            0           0           0
      8.072983  3.586221  7.193673            0           0           0
      8.087257  3.577945  0.508935            0           0           0
      6.670774  1.157048  7.195014            0           0           0
      6.683841  1.147677  0.507403            0           0           0
     12.288936  4.392502  2.774198            0           0           0
      3.874422  4.392862  2.775032            0           0           0
      1.059422  1.158511  7.191260            0           0           0
      1.074423  1.148495  0.507595            0           0           0
      6.678693  9.249618  2.774766            0           0           0
      6.666882  4.400130  9.463394            0           0           0
      8.077098  5.205856  4.987699            0           0           0
     10.876984  6.831783  9.461038            0           0           0
      5.277751  1.962610  2.774768            0           0           0
      2.470019  1.962320  2.775751            0           0           0
     15.091758  7.635441  4.984018            0           0           0
     12.283809  6.018506  7.195012            0           0           0
      6.668447  6.018401  7.194051            0           0           0
     12.295424  6.006566  0.507649            0           0           0
      6.684366  6.007147  0.509448            0           0           0
      8.081680  6.820137  2.777117            0           0           0
[...]
      6.674556  7.636390  4.985664            0           0           0
      5.272297  0.345884  4.983513            0           0           0
      5.276584  6.821264  2.775457            0           0           0
      8.077579  0.346093  4.984085            0           0           0
      9.476583  1.157541  7.195726            0           0           0
     10.880346  8.449929  7.194104            0           0           0
      9.490837  1.147516  0.507632            0           0           0
     10.892532  8.437254  0.507264            0           0           0
      5.270988  5.205025  4.985665            0           0           0
     12.284501  2.776920  4.983451            0           0           0
     15.095859  9.251151  2.773262            0           0           0
      9.481206  2.774953  4.985421            0           0           0
      6.673639  2.775448  4.985704            0           0           0
      8.440835  5.426678 12.292567    -0.414724    0.800719    0.004872
      9.092370  5.803796 12.312937     0.252237   -0.350647   -0.015882

[...]

   6 f/i=    4.808147 THz    30.210478 2PiTHz  160.382513 cm-1    19.884904 meV
             X         Y         Z           dx          dy          dz
     13.684623  8.447985  7.192018            0           0           0
      5.266938  8.449056  7.195439            0           0           0
      3.863796  6.018572  7.195074            0           0           0
     13.698303  8.437401  0.506411            0           0           0
      5.281991  8.437445  0.507322            0           0           0
      3.878382  6.006618  0.507685            0           0           0
      8.081465  1.963254  2.775217            0           0           0
      9.484539  9.249895  2.774550            0           0           0
      2.462911  3.588759  7.191597            0           0           0
      2.476417  3.576515  0.507054            0           0           0
     10.886058  1.962993  2.774528            0           0           0
     13.688422  5.206669  4.983571            0           0           0
      3.865590  1.159293  7.191913            0           0           0
      9.478580  6.019349  7.192781            0           0           0
      5.266683  3.587807  7.195401            0           0           0
      3.877563  1.148287  0.507451            0           0           0
      9.489552  6.007022  0.508807            0           0           0
      5.280687  3.577063  0.507974            0           0           0
     12.290240  9.251169  2.773677            0           0           0
     12.285839  7.634833  4.983903            0           0           0
     13.693114  6.821946  2.773292            0           0           0
      9.482814  4.392634  2.777340            0           0           0
      8.073849  8.449361  7.195845            0           0           0
      8.086899  8.437625  0.507704            0           0           0
     10.885991  6.821383  2.775016            0           0           0
      2.466424  0.344306  4.983749            0           0           0
     15.083813  9.260336  9.460023            0           0           0
      3.863460  4.400273  9.460369            0           0           0
      6.667281  9.260355  9.460452            0           0           0
     12.277028  4.401035  9.460737            0           0           0
      9.472210  9.258970  9.460869            0           0           0
     10.875810  1.971821  9.460553            0           0           0
      2.458697  1.971306  9.458262            0           0           0
     12.278215  9.260926  9.459571            0           0           0
     13.682460  6.830298  9.459843            0           0           0
      5.265460  1.973614  9.460656            0           0           0
      8.067523  6.832259  9.458642            0           0           0
      9.472726  4.397942  9.458138            0           0           0
      5.263893  6.830283  9.464679            0           0           0
      8.069462  1.970740  9.464918            0           0           0
      8.072983  3.586221  7.193673            0           0           0
      8.087257  3.577945  0.508935            0           0           0
      6.670774  1.157048  7.195014            0           0           0
      6.683841  1.147677  0.507403            0           0           0
     12.288936  4.392502  2.774198            0           0           0
      3.874422  4.392862  2.775032            0           0           0
      1.059422  1.158511  7.191260            0           0           0
      1.074423  1.148495  0.507595            0           0           0
      6.678693  9.249618  2.774766            0           0           0
      6.666882  4.400130  9.463394            0           0           0
      8.077098  5.205856  4.987699            0           0           0
     10.876984  6.831783  9.461038            0           0           0
      5.277751  1.962610  2.774768            0           0           0
      2.470019  1.962320  2.775751            0           0           0
     15.091758  7.635441  4.984018            0           0           0
     12.283809  6.018506  7.195012            0           0           0
      6.668447  6.018401  7.194051            0           0           0
     12.295424  6.006566  0.507649            0           0           0
      6.684366  6.007147  0.509448            0           0           0
      8.081680  6.820137  2.777117            0           0           0
[...]
      6.674556  7.636390  4.985664            0           0           0
      5.272297  0.345884  4.983513            0           0           0
      5.276584  6.821264  2.775457            0           0           0
      8.077579  0.346093  4.984085            0           0           0
      9.476583  1.157541  7.195726            0           0           0
     10.880346  8.449929  7.194104            0           0           0
      9.490837  1.147516  0.507632            0           0           0
     10.892532  8.437254  0.507264            0           0           0
      5.270988  5.205025  4.985665            0           0           0
     12.284501  2.776920  4.983451            0           0           0
     15.095859  9.251151  2.773262            0           0           0
      9.481206  2.774953  4.985421            0           0           0
      6.673639  2.775448  4.985704            0           0           0
      8.440835  5.426678 12.292567     0.082980    0.043551    0.707253
      9.092370  5.803796 12.312937     0.090308    0.107192   -0.686560

 Finite differences POTIM=  1.500000000000000E-002
  LATTYP: Found a hexagonal cell.
 ALAT       =    11.2227001190
 C/A-ratio  =     1.9603125600

  Lattice vectors:

 A1 = (   5.6113500595,  -9.7191434021,   0.0000000000)
 A2 = ( -11.2227001190,   0.0000000000,   0.0000000000)
 A3 = (   0.0000000000,   0.0000000000, -22.0000000000)

Analysis of symmetry for initial positions (statically):
 Subroutine PRICEL returns:
 Original cell was already a primitive cell.

[...]

The static configuration has the point symmetry C_1 .

Analysis of symmetry for dynamics (positions and initial velocities):
 Subroutine PRICEL returns:
 Original cell was already a primitive cell.

[...]

The dynamic configuration has the point symmetry C_1 .

Analysis of constrained symmetry for selective dynamics:
 Subroutine PRICEL returns:
 Original cell was already a primitive cell.

[...]

The constrained configuration has the point symmetry C_1 .

Analysis of structural, dynamic, and magnetic symmetry:
 Subroutine PRICEL returns:
 Original cell was already a primitive cell.

 Routine SETGRP: Setting up the symmetry group for a
 hexagonal supercell.

 Subroutine GETGRP returns: Found  1 space group operations
 (whereof  1 operations were pure point group operations)
 out of a pool of 24 trial point group operations.

The magnetic configuration has the point symmetry C_1 .

 Subroutine INISYM returns: Found  1 space group operations
 (whereof  1 operations are pure point group operations),
 and found     1 'primitive' translations

 KPOINTS: mesh auto

Automatic generation of k-mesh.
Space group operators:
 irot       det(A)        alpha          n_x          n_y          n_z        tau_x        tau_y        tau_z
    1     1.000000     0.000000     1.000000     0.000000     0.000000     0.000000     0.000000     0.000000

 Subroutine IBZKPT returns following result:

 Found      4 irreducible k-points:

 Following reciprocal coordinates:
            Coordinates               Weight
  0.000000  0.000000  0.000000      1.000000
  0.500000  0.000000  0.000000      1.000000
  0.000000  0.500000  0.000000      1.000000
  0.500000  0.500000  0.000000      1.000000

 Following cartesian coordinates:
            Coordinates               Weight
  0.000000  0.000000  0.000000      1.000000
  0.044553 -0.025722  0.000000      1.000000
  0.000000  0.051445  0.000000      1.000000
  0.044553  0.025722  0.000000      1.000000

 TETIRR: Found     12 inequivalent tetrahedra from       24
 BZINTS: Fermi energy:  2.807486;802.000000 electrons
         Band energy:-366.435258;  BLOECHL correction: -0.484376