 vasp.5.4.4.18Apr17-6-g9f103f2a35 (build Oct 25 2019 11:13:22) complex

 executed on             LinuxIFC date 2022.02.22  08:34:56

 INCAR:
 POTCAR:    PAW_PBE Pt 04Feb2005
 POTCAR:    PAW_PBE Fe 06Sep2000
 POTCAR:    PAW_PBE Co 02Aug2007
 POTCAR:    PAW_PBE Cu 22Jun2005
 POTCAR:    PAW_PBE Ni 02Aug2007
 POTCAR:    PAW_PBE C 08Apr2002
 POTCAR:    PAW_PBE Pt 04Feb2005
   VRHFIN =Pt: s1d9

   TITEL  = PAW_PBE Pt 04Feb2005
   POMASS =  195.080; ZVAL   =   10.000    mass and valenz
   ENMAX  =  230.283; ENMIN  =  172.712 eV

 POTCAR:    PAW_PBE Fe 06Sep2000
   VRHFIN =Fe:  d7 s1

   TITEL  = PAW_PBE Fe 06Sep2000
   POMASS =   55.847; ZVAL   =    8.000    mass and valenz
   ENMAX  =  267.882; ENMIN  =  200.911 eV

 POTCAR:    PAW_PBE Co 02Aug2007
   VRHFIN =Co: d8 s1

   TITEL  = PAW_PBE Co 02Aug2007
   POMASS =   58.933; ZVAL   =    9.000    mass and valenz
   ENMAX  =  267.968; ENMIN  =  200.976 eV

 POTCAR:    PAW_PBE Cu 22Jun2005
   VRHFIN =Cu: d10 p1

   TITEL  = PAW_PBE Cu 22Jun2005
   POMASS =   63.546; ZVAL   =   11.000    mass and valenz
   ENMAX  =  295.446; ENMIN  =  221.585 eV

 POTCAR:    PAW_PBE Ni 02Aug2007
   VRHFIN =Ni:

   TITEL  = PAW_PBE Ni 02Aug2007
   POMASS =   58.690; ZVAL   =   10.000    mass and valenz
   ENMAX  =  269.532; ENMIN  =  202.149 eV

 POTCAR:    PAW_PBE C 08Apr2002
   VRHFIN =C: s2p2

   TITEL  = PAW_PBE C 08Apr2002
   POMASS =   12.011; ZVAL   =    4.000    mass and valenz
   ENMAX  =  400.000; ENMIN  =  300.000 eV

 Optimization of the real space projectors (new method)

 maximal supplied QI-value         = 14.36
 optimisation between [QCUT,QGAM] = [ 11.92, 23.98] = [ 39.79,161.09] Ry
 Optimized for a Real-space Cutoff    1.49 Angstroem

   l    n(q)    QCUT    max X(q) W(low)/X(q) W(high)/X(q)  e(spline)
   2     10    11.920    66.195    0.79E-04    0.18E-03    0.24E-06
   2     10    11.920    64.643    0.81E-04    0.19E-03    0.24E-06
   0     11    11.920    95.520    0.28E-04    0.54E-04    0.18E-06
   0     11    11.920    63.403    0.27E-04    0.52E-04    0.17E-06
   1     10    11.920    19.961    0.18E-04    0.11E-03    0.23E-06
   1     10    11.920    13.289    0.25E-04    0.87E-04    0.19E-06
 Optimization of the real space projectors (new method)

[...]

   l    n(q)    QCUT    max X(q) W(low)/X(q) W(high)/X(q)  e(spline)
   2      9    11.864    60.317    0.21E-03    0.51E-03    0.25E-06
   2      9    11.864    55.921    0.21E-03    0.51E-03    0.26E-06
   0      9    11.864    51.690    0.22E-03    0.30E-04    0.17E-06
   0      9    11.864    30.015    0.20E-03    0.28E-04    0.15E-06
   1      9    11.864    18.849    0.76E-04    0.33E-03    0.17E-06
   1      9    11.864    14.624    0.60E-04    0.28E-03    0.15E-06
 Optimization of the real space projectors (new method)

 maximal supplied QI-value         = 25.13
 optimisation between [QCUT,QGAM] = [ 11.81, 23.88] = [ 39.08,159.64] Ry
 Optimized for a Real-space Cutoff    1.18 Angstroem

   l    n(q)    QCUT    max X(q) W(low)/X(q) W(high)/X(q)  e(spline)
   0      8    11.813   115.676    0.10E-03    0.16E-03    0.35E-06
   0      8    11.813    87.132    0.10E-03    0.16E-03    0.35E-06
   1      8    11.813     4.429    0.16E-03    0.13E-04    0.22E-06
   1      8    11.813     2.733    0.13E-03    0.10E-04    0.18E-06
  PAW_PBE Pt 04Feb2005                  :
  PAW_PBE Fe 06Sep2000                  :
  PAW_PBE Co 02Aug2007                  :
  PAW_PBE Cu 22Jun2005                  :
  PAW_PBE Ni 02Aug2007                  :
  PAW_PBE C 08Apr2002                   :

 POSCAR: 10.56
  positions in direct lattice
  velocities in cartesian coordinates
 exchange correlation table for  LEXCH =        8
   RHO(1)=    0.500       N(1)  =     2000
   RHO(2)=  100.500       N(2)  =     4000

 ion  position               nearest neighbor table
   1  0.788  0.878  0.317-  28 2.61  49 2.62  19 2.64  33 2.65  59 2.65  61 2.66  29 2.67  60 2.68
                             2 2.72   4 2.77  11 2.78  12 2.84
   2  0.044  0.881  0.317-  79 2.56  30 2.62  77 2.62  60 2.63  52 2.65  28 2.67  33 2.67  22 2.68
                             1 2.72   4 2.82   6 2.89  16 3.13
   3  0.279  0.380  0.320-  39 2.56  64 2.57  33 2.59  31 2.63  30 2.70  19 2.70  43 2.72  68 2.72
                             5 2.78  13 2.80  18 2.82  25 2.83
   4  0.868  0.965  0.422-  81 2.24  17 2.58  11 2.60   9 2.65  12 2.67   6 2.70  16 2.76  60 2.77
                             1 2.77   2 2.82
   5  0.122  0.463  0.428-  16 2.61  12 2.62   7 2.63  10 2.63  25 2.66  13 2.67  33 2.71  39 2.74
                             3 2.78
   6  0.122  0.967  0.429-  10 2.61   9 2.64   8 2.65   4 2.70  14 2.73  16 2.75   2 2.89  22 2.93
                            52 2.94
   7  0.875  0.460  0.427-   9 2.61  15 2.62   5 2.63  10 2.63  12 2.63  27 2.65  39 2.69  75 2.78
                            29 2.79
   8  0.376  0.960  0.419-  43 2.58  11 2.62  13 2.62  14 2.62  27 2.63   6 2.65  10 2.66  52 2.70
                            61 2.70
   9  0.871  0.214  0.420-  15 2.59   7 2.61  17 2.63   6 2.64   4 2.65  75 2.66  10 2.68  60 2.72
                            22 2.80
  10  0.125  0.212  0.422-   6 2.61  13 2.61   5 2.63   7 2.63   8 2.66  39 2.66   9 2.68  43 2.73
                            22 2.77
  11  0.624  0.960  0.424-   4 2.60   8 2.62  27 2.63  13 2.63  12 2.64  17 2.65   1 2.78  19 2.83
                            61 2.84
  12  0.874  0.710  0.426-  81 2.10   5 2.62  27 2.63   7 2.63  11 2.64  16 2.66   4 2.67  33 2.67
                            29 2.80   1 2.84
  13  0.374  0.209  0.425-  10 2.61   8 2.62  11 2.63  25 2.65  17 2.65   5 2.67  43 2.77   3 2.80
                            19 2.83
  14  0.381  0.709  0.422-  27 2.58  15 2.61   8 2.62  44 2.65  25 2.67   6 2.73  16 2.74  30 2.74
                            52 2.75
  15  0.627  0.461  0.423-   9 2.59  14 2.61   7 2.62  27 2.63  17 2.65  25 2.66  44 2.70  75 2.72
                            18 2.76
  16  0.126  0.706  0.439-  81 1.95   5 2.61  25 2.64  12 2.66  14 2.74   6 2.75   4 2.76  33 2.90
                            30 3.04   2 3.13
  17  0.624  0.211  0.423-   4 2.58  25 2.62   9 2.63  13 2.65  15 2.65  11 2.65  18 2.77  60 2.80
                            19 2.87
  18  0.548  0.375  0.317-  67 2.56  60 2.59  75 2.61  44 2.64  68 2.65  26 2.67  30 2.71  19 2.73
                            15 2.76  17 2.77   3 2.82  25 2.86
  19  0.535  0.124  0.315-  80 2.55  43 2.57  68 2.57  59 2.60   1 2.64  61 2.64   3 2.70  18 2.73
                            60 2.76  13 2.83  11 2.83  17 2.87
  20  0.547  0.124  0.040-  37 2.55  57 2.56  48 2.58  62 2.64  63 2.68  47 2.68  45 2.68  56 2.70
                            34 2.71
  21  0.121  0.460  0.128-  40 2.52  36 2.53  47 2.53  42 2.60  69 2.61  64 2.62  70 2.64  50 2.64
                            58 2.67  31 2.70  57 2.71  74 2.72
  22  0.045  0.134  0.315-  55 2.54  65 2.55  43 2.57  77 2.59  39 2.59  75 2.61   2 2.68  60 2.68
                            52 2.71  10 2.77   9 2.80   6 2.93  31 3.42
  23  0.042  0.130  0.033-  70 2.58  40 2.60  41 2.61  45 2.62  62 2.64  76 2.64  24 2.69  35 2.73
                            53 2.78
  24  0.130  0.958  0.132-  79 2.51  77 2.54  35 2.57  53 2.57  55 2.58  70 2.62  38 2.64  58 2.64
                            73 2.65  23 2.69  66 2.70  41 2.72
  25  0.375  0.459  0.426-  17 2.62  16 2.64  13 2.65   5 2.66  15 2.66  14 2.67  30 2.82   3 2.83
                            18 2.86
  26  0.455  0.546  0.219-  73 2.50  74 2.54  51 2.56  79 2.61  64 2.63  18 2.67  68 2.67  78 2.67
                            30 2.67  32 2.68  67 2.72  44 2.75
  27  0.624  0.711  0.424-  14 2.58   8 2.63  15 2.63  11 2.63  12 2.63   7 2.65  44 2.71  61 2.79
                            29 2.79
  28  0.956  0.790  0.221-  58 2.57  66 2.57  50 2.58  42 2.59  49 2.61   1 2.61  64 2.63   2 2.67
                            59 2.70  33 2.73  79 2.76  77 2.77
  29  0.794  0.622  0.319-  39 2.54  42 2.56  75 2.58  32 2.61  44 2.64  33 2.65   1 2.67  61 2.67
                            49 2.69   7 2.79  27 2.79  12 2.80
  30  0.290  0.631  0.319-  79 2.58  52 2.61  64 2.61   2 2.62  33 2.64  44 2.64  26 2.67   3 2.70
                            18 2.71  14 2.74  25 2.82  16 3.04
  31  0.203  0.281  0.225-  70 2.52  55 2.56  65 2.57  43 2.60  57 2.60   3 2.63  39 2.66  80 2.70
                            21 2.70  42 2.71  68 2.75  64 2.79  22 3.42
  32  0.706  0.549  0.221-  54 2.53  69 2.56  51 2.58  49 2.59  42 2.60  29 2.61  78 2.62  65 2.63
                            26 2.68  44 2.69  75 2.69  67 2.70
  33  0.040  0.630  0.326-   3 2.59  30 2.64  39 2.64   1 2.65  29 2.65  12 2.67   2 2.67  64 2.71
                             5 2.71  28 2.73  42 2.74  16 2.90
  34  0.797  0.862  0.042-  50 2.38  66 2.51  48 2.53  36 2.55  71 2.56  63 2.61  20 2.71  35 2.76
                            62 2.76
  35  0.056  0.866  0.038-  58 2.54  72 2.55  36 2.56  24 2.57  66 2.62  53 2.65  23 2.73  62 2.73
                            34 2.76
  36  0.046  0.628  0.037-  21 2.53  34 2.55  35 2.56  58 2.58  50 2.61  47 2.63  72 2.64  40 2.69
                            71 2.72
  37  0.627  0.222  0.129-  51 2.51  74 2.51  67 2.52  56 2.53  41 2.55  20 2.55  68 2.56  59 2.56
                            62 2.59  66 2.66  57 2.73  48 2.89
  38  0.382  0.955  0.130-  53 2.47  80 2.48  45 2.49  78 2.53  48 2.54  73 2.55  63 2.55  54 2.56
                            55 2.59  57 2.62  24 2.64  70 2.67
  39  0.036  0.382  0.324-  29 2.54   3 2.56  75 2.58  22 2.59  33 2.64  10 2.66  31 2.66  42 2.67
                             7 2.69   5 2.74  65 2.75  43 2.79
  40  0.031  0.382  0.038-  69 2.44  21 2.52  71 2.53  76 2.56  70 2.57  23 2.60  36 2.69  45 2.78
                            47 2.78
  41  0.872  0.215  0.128-  76 2.45  65 2.52  77 2.53  67 2.54  37 2.55  69 2.57  62 2.57  51 2.59
                            23 2.61  70 2.65  66 2.66  24 2.72
  42  0.955  0.545  0.224-  29 2.56  50 2.56  28 2.59  21 2.60  32 2.60  69 2.61  49 2.63  65 2.64
                            64 2.65  39 2.67  31 2.71  33 2.74
  43  0.297  0.115  0.321-  55 2.53  52 2.54  61 2.56  19 2.57  22 2.57   8 2.58  31 2.60  80 2.66
                             3 2.72  10 2.73  13 2.77  39 2.79
  44  0.541  0.629  0.322-  61 2.56  52 2.58  78 2.64  29 2.64  18 2.64  30 2.64  14 2.65  75 2.66
                            32 2.69  15 2.70  27 2.71  26 2.75
  45  0.295  0.119  0.039-  70 2.49  38 2.49  57 2.57  53 2.60  23 2.62  63 2.64  20 2.68  47 2.75
                            40 2.78
  46  0.548  0.625  0.044-  51 2.38  73 2.39  54 2.41  71 2.56  53 2.56  63 2.58  76 2.59  56 2.62
                            72 2.64
  47  0.296  0.379  0.039-  74 2.41  21 2.53  57 2.61  72 2.61  56 2.62  36 2.63  20 2.68  45 2.75
                            40 2.78
  48  0.625  0.950  0.132-  49 2.40  80 2.48  54 2.48  34 2.53  38 2.54  59 2.55  50 2.56  63 2.57
                            20 2.58  57 2.65  66 2.68  37 2.89
  49  0.706  0.794  0.220-  48 2.40  50 2.48  54 2.49  80 2.53  32 2.59  28 2.61  78 2.61   1 2.62
                            61 2.62  42 2.63  29 2.69  59 2.69
[...]

 FORCES acting on ions
    electron-ion (+dipol)            ewald-force                    non-local-force                 convergence-correction
   -.422E+02 0.861E+02 -.151E+04   0.422E+02 -.865E+02 0.151E+04   0.391E-01 0.425E+00 0.201E+01   -.902E-02 -.203E-01 -.132E+00
   0.260E+02 0.730E+02 -.150E+04   -.258E+02 -.733E+02 0.149E+04   -.205E+00 0.329E+00 0.232E+01   -.856E-02 -.191E-01 -.708E-01
   0.371E+02 -.147E+02 -.152E+04   -.388E+02 0.150E+02 0.152E+04   0.167E+01 -.257E+00 0.200E+01   0.119E-01 0.172E-01 -.999E-01
   -.642E+01 -.683E+02 -.286E+04   0.650E+01 0.685E+02 0.286E+04   -.669E-01 -.149E+00 -.150E+01   0.142E-01 -.200E-01 -.636E-02
   -.106E+02 0.117E+02 -.287E+04   0.101E+02 -.124E+02 0.287E+04   0.531E+00 0.750E+00 0.163E+01   0.161E-02 0.158E-01 0.983E-02
   -.334E+01 -.365E+00 -.285E+04   0.418E+01 0.657E+00 0.285E+04   -.844E+00 -.341E+00 0.111E+01   0.950E-02 -.141E-01 -.723E-03
   -.865E+01 0.658E+01 -.293E+04   0.878E+01 -.671E+01 0.293E+04   -.125E+00 0.893E-01 0.139E+01   -.245E-02 0.200E-01 0.164E-01
   0.120E+02 -.207E+02 -.292E+04   -.123E+02 0.208E+02 0.292E+04   0.276E+00 -.348E-01 0.167E+01   -.463E-02 -.263E-01 0.266E-02
   -.248E+02 0.278E+01 -.292E+04   0.245E+02 -.253E+01 0.292E+04   0.259E+00 -.270E+00 0.109E+01   0.292E-02 -.319E-01 0.508E-02
   -.129E+02 0.250E+01 -.289E+04   0.132E+02 -.216E+01 0.289E+04   -.284E+00 -.293E+00 0.142E+01   0.569E-02 -.322E-01 0.441E-01
   -.705E+00 -.106E+02 -.289E+04   0.747E-01 0.110E+02 0.289E+04   0.602E+00 -.424E+00 0.875E+00   -.202E-01 -.191E-01 -.246E-02
   0.623E+02 0.463E+02 -.286E+04   -.622E+02 -.465E+02 0.286E+04   -.703E-01 0.147E+00 -.119E+01   0.230E-02 0.167E-01 -.440E-01
   0.605E+01 -.158E+02 -.292E+04   -.625E+01 0.156E+02 0.292E+04   0.211E+00 0.167E+00 0.684E+00   -.777E-02 -.163E-01 0.824E-02
   0.488E+01 0.884E+01 -.291E+04   -.462E+01 -.887E+01 0.291E+04   -.280E+00 -.950E-02 0.135E+01   0.672E-02 0.492E-01 -.516E-03
   0.217E+02 -.128E+02 -.291E+04   -.213E+02 0.129E+02 0.290E+04   -.351E+00 -.121E+00 0.116E+01   -.190E-02 0.192E-01 0.236E-01
   -.732E+02 0.431E+02 -.286E+04   0.730E+02 -.434E+02 0.286E+04   0.143E+00 0.314E+00 -.124E+01   -.921E-02 0.213E-01 0.669E-01
   0.317E+02 -.197E+02 -.291E+04   -.315E+02 0.198E+02 0.291E+04   -.282E+00 -.106E+00 0.101E+01   0.685E-02 -.579E-02 0.837E-02
   0.679E+02 -.763E+02 -.151E+04   -.666E+02 0.765E+02 0.151E+04   -.122E+01 -.231E+00 0.173E+01   -.710E-03 -.604E-02 -.116E+00
   0.316E+02 -.414E+02 -.150E+04   -.327E+02 0.410E+02 0.150E+04   0.105E+01 0.464E+00 0.240E+01   -.305E-03 -.486E-01 -.134E+00
   0.333E+02 0.318E+02 0.304E+04   -.334E+02 -.319E+02 -.304E+04   0.113E+00 0.167E+00 -.239E+01   0.434E-02 -.445E-01 0.246E-01
   0.354E+02 -.948E+01 0.161E+04   -.363E+02 0.102E+02 -.161E+04   0.923E+00 -.681E+00 0.942E+00   -.287E-01 0.315E-01 -.967E-01
   -.716E+02 0.119E+02 -.146E+04   0.724E+02 -.112E+02 0.146E+04   -.839E+00 -.665E+00 0.268E+01   0.227E-02 -.548E-01 -.882E-01
   -.541E+02 0.513E+02 0.309E+04   0.548E+02 -.504E+02 -.309E+04   -.671E+00 -.871E+00 -.207E+01   0.265E-02 -.581E-02 -.938E-03
   0.312E+00 -.518E+02 0.160E+04   -.105E+00 0.514E+02 -.160E+04   -.316E+00 0.421E+00 -.769E+00   0.352E-01 -.245E-01 -.110E+00
   -.959E+00 0.164E+02 -.291E+04   0.783E+00 -.161E+02 0.291E+04   0.202E+00 -.370E+00 0.693E+00   -.537E-02 0.141E-01 0.648E-02
   -.197E+02 -.123E+02 0.169E+02   0.198E+02 0.126E+02 -.182E+02   -.125E+00 -.267E+00 0.147E+01   0.165E-01 0.252E-01 -.164E+00
   0.478E+01 0.113E+02 -.291E+04   -.514E+01 -.115E+02 0.291E+04   0.377E+00 0.204E+00 0.125E+01   -.880E-02 0.396E-01 -.176E-01
   0.194E+02 0.663E+02 0.116E+02   -.203E+02 -.674E+02 -.119E+02   0.104E+01 0.102E+01 0.412E+00   -.565E-01 0.617E-02 -.145E+00
   -.696E+02 0.474E+01 -.148E+04   0.703E+02 -.580E+01 0.148E+04   -.710E+00 0.107E+01 0.252E+01   -.666E-03 0.609E-01 -.123E+00
   0.319E+02 0.228E+02 -.154E+04   -.320E+02 -.220E+02 0.154E+04   0.817E-01 -.870E+00 0.192E+01   -.210E-01 0.325E-01 -.877E-01
   0.208E+02 -.642E+02 -.638E+02   -.217E+02 0.637E+02 0.642E+02   0.986E+00 0.493E+00 -.259E+00   0.973E-02 -.377E-01 -.156E+00
   -.248E+02 -.248E+02 0.149E+02   0.255E+02 0.254E+02 -.155E+02   -.740E+00 -.679E+00 0.850E+00   0.375E-02 0.362E-01 -.152E+00
   0.174E+02 0.412E+01 -.125E+04   -.176E+02 -.451E+01 0.125E+04   0.220E+00 0.447E+00 0.935E+00   0.368E-02 0.346E-01 -.642E-01
   -.599E+02 -.253E+01 0.244E+04   0.603E+02 0.128E+01 -.244E+04   -.391E+00 0.129E+01 -.266E+01   -.203E-01 -.130E-01 0.368E-01
   0.306E+02 -.139E+02 0.247E+04   -.305E+02 0.125E+02 -.247E+04   -.758E-01 0.146E+01 -.226E+01   0.177E-01 -.138E-01 -.238E-02
   0.229E+02 -.420E+01 0.247E+04   -.230E+02 0.471E+01 -.247E+04   0.127E+00 -.566E+00 -.281E+01   -.149E-01 0.210E-01 0.726E-02
   0.676E+01 0.521E+02 0.130E+04   -.589E+01 -.514E+02 -.130E+04   -.934E+00 -.704E+00 -.132E+00   0.109E-02 -.171E-01 -.702E-01
   0.338E+02 -.539E+02 0.128E+04   -.337E+02 0.536E+02 -.128E+04   -.116E+00 0.237E+00 -.395E+00   0.166E-01 -.123E-01 -.641E-01
   -.537E+02 -.258E+02 -.122E+04   0.538E+02 0.260E+02 0.122E+04   -.153E+00 -.281E+00 0.790E+00   -.696E-04 -.213E-02 -.665E-01
   -.933E+02 0.204E+02 0.248E+04   0.931E+02 -.201E+02 -.248E+04   0.266E+00 -.277E+00 -.261E+01   -.280E-01 0.135E-01 -.186E-02
   -.335E+02 0.465E+02 0.130E+04   0.326E+02 -.460E+02 -.130E+04   0.833E+00 -.548E+00 -.392E+00   -.455E-02 0.225E-01 -.900E-01
   -.437E+02 -.105E+01 -.368E+02   0.435E+02 0.138E+01 0.369E+02   0.220E+00 -.403E+00 -.336E-01   -.158E-01 0.551E-01 -.131E+00
   0.148E+02 -.798E+02 -.123E+04   -.149E+02 0.797E+02 0.123E+04   0.134E+00 0.178E+00 0.131E+01   0.633E-03 -.478E-01 -.896E-01
   0.139E+02 0.288E+02 -.122E+04   -.140E+02 -.288E+02 0.122E+04   0.868E-01 -.647E-01 0.455E+00   0.558E-02 0.281E-01 -.843E-01
   0.147E+02 -.464E+02 0.245E+04   -.153E+02 0.457E+02 -.245E+04   0.660E+00 0.684E+00 -.272E+01   -.818E-02 -.344E-01 0.203E-02
   0.445E+01 -.197E+02 0.276E+04   -.452E+01 0.199E+02 -.275E+04   0.942E-01 -.212E+00 -.229E+01   -.184E-01 0.106E-02 -.100E-01
   0.119E+03 0.289E+02 0.279E+04   -.120E+03 -.282E+02 -.279E+04   0.456E+00 -.729E+00 -.235E+01   0.332E-02 0.120E-01 -.124E-01
   -.370E+02 -.269E+02 0.143E+04   0.365E+02 0.258E+02 -.143E+04   0.445E+00 0.109E+01 -.424E+00   0.107E-01 -.234E-01 -.448E-01
   -.638E+02 0.685E+02 0.307E+02   0.638E+02 -.684E+02 -.315E+02   -.461E-02 -.211E+00 0.893E+00   0.618E-02 0.447E-01 -.147E+00
   -.889E+02 0.188E+02 0.141E+04   0.885E+02 -.183E+02 -.141E+04   0.515E+00 -.493E+00 -.604E-01   -.206E-01 0.450E-01 -.697E-01
   -.207E+02 0.897E+01 0.140E+04   0.209E+02 -.921E+01 -.140E+04   -.146E+00 0.301E+00 -.333E-01   0.738E-02 0.995E-02 -.104E+00
   0.447E+02 0.108E+02 -.138E+04   -.446E+02 -.111E+02 0.138E+04   -.239E+00 0.279E+00 0.158E+01   -.236E-02 0.710E-02 -.797E-01
   0.530E+02 -.805E+02 0.277E+04   -.527E+02 0.804E+02 -.276E+04   -.324E+00 0.211E+00 -.246E+01   0.417E-02 -.261E-01 0.227E-02
   -.141E+02 0.203E+01 0.139E+04   0.142E+02 -.183E+01 -.139E+04   -.760E-01 -.249E+00 -.425E+00   0.289E-01 0.334E-01 -.685E-01
   0.182E+02 -.660E+02 -.516E+01   -.175E+02 0.654E+02 0.555E+01   -.760E+00 0.609E+00 -.349E+00   0.262E-01 -.337E-01 -.124E+00
   0.307E+02 0.337E+02 0.344E+04   -.309E+02 -.330E+02 -.344E+04   0.131E+00 -.826E+00 -.361E+01   0.439E-01 0.331E-01 0.592E-02
   0.631E+02 0.858E+01 0.175E+04   -.632E+02 -.918E+01 -.175E+04   0.123E+00 0.695E+00 -.129E+00   0.156E-01 -.764E-01 -.832E-01
   0.102E+03 -.319E+02 0.172E+04   -.102E+03 0.319E+02 -.172E+04   -.212E+00 0.534E-02 0.932E-01   0.957E-03 0.159E-01 -.119E+00
   0.120E+02 0.763E+02 0.959E+02   -.126E+02 -.760E+02 -.966E+02   0.634E+00 -.287E+00 0.835E+00   -.603E-01 -.647E-01 -.182E+00
   0.123E+02 0.630E+02 -.169E+04   -.119E+02 -.629E+02 0.169E+04   -.421E+00 -.112E+00 0.139E+01   -.115E-01 -.310E-01 -.108E+00
[...]
   0.558E+02 -.383E+02 0.209E+02   -.551E+02 0.380E+02 -.211E+02   -.694E+00 0.351E+00 0.370E+00   0.441E-02 -.356E-01 -.160E+00
   -.736E+02 0.310E+00 0.156E+04   0.732E+02 -.216E+00 -.156E+04   0.406E+00 -.549E-01 -.973E-01   -.159E-01 0.202E-01 -.118E+00
   -.125E+02 0.196E+02 0.163E+04   0.128E+02 -.198E+02 -.163E+04   -.345E+00 0.227E+00 -.437E+00   -.393E-02 -.194E-01 -.928E-01
   -.101E+03 -.439E+01 0.309E+04   0.101E+03 0.446E+01 -.309E+04   -.565E+00 -.387E-01 -.133E+01   0.140E-02 0.920E-03 0.494E-02
   0.702E+02 -.527E+02 0.309E+04   -.706E+02 0.532E+02 -.309E+04   0.407E+00 -.569E+00 -.860E+00   0.383E-01 0.398E-01 -.910E-02
   0.155E+02 -.404E+02 0.156E+04   -.151E+02 0.401E+02 -.156E+04   -.398E+00 0.268E+00 -.453E-01   0.341E-02 0.126E-01 -.121E+00
   0.512E+02 0.104E+01 0.160E+04   -.508E+02 -.105E+01 -.160E+04   -.474E+00 0.239E-01 -.112E+00   0.364E-01 0.262E-01 -.944E-01
   -.381E+02 -.753E+02 -.153E+04   0.380E+02 0.754E+02 0.153E+04   0.145E+00 -.816E-01 0.781E+00   -.968E-02 -.919E-02 -.100E+00
   -.540E+02 0.294E+02 0.307E+04   0.544E+02 -.289E+02 -.307E+04   -.451E+00 -.539E+00 -.193E+01   -.776E-02 0.264E-01 0.271E-02
   -.444E+02 0.779E+02 0.861E+02   0.448E+02 -.776E+02 -.862E+02   -.389E+00 -.397E+00 0.146E+00   -.297E-03 -.146E-01 -.132E+00
   0.168E+01 0.631E+02 0.115E+02   -.179E+01 -.625E+02 -.114E+02   0.101E+00 -.796E+00 -.536E-01   0.237E-01 0.359E-01 -.138E+00
   0.494E+02 0.808E+01 -.251E+02   -.490E+02 -.754E+01 0.252E+02   -.449E+00 -.581E+00 0.935E-01   0.289E-01 0.704E-02 -.135E+00
   0.246E+02 -.485E+02 0.480E+02   -.250E+02 0.481E+02 -.481E+02   0.270E+00 0.495E+00 0.178E+00   0.301E-01 -.663E-01 -.168E+00
   -.893E+00 -.610E+01 -.136E+04   0.952E+00 0.623E+01 0.137E+04   -.308E-01 -.120E+00 -.107E+02   0.928E-02 -.939E-03 0.178E-01
   -.228E+01 -.307E+00 0.130E+02   -.274E-12 0.512E-12 0.887E-11   0.228E+01 0.306E+00 -.779E+01   0.138E-02 -.148E-01 -.525E+01

 POSITION                                       TOTAL-FORCE (eV/Angst)
     12.96564      8.02850      7.00838         0.032616     -0.003882     -0.002417
      5.08715      8.06861      6.96179        -0.000358      0.006589      0.035147
      4.96946      3.47794      7.02320        -0.007232      0.016724     -0.000319
     14.31500      8.81889      9.47561         0.029733     -0.015313      0.023911
      3.72906      4.16949      9.37393        -0.002514      0.017448      0.010485
      6.44075      8.80857      9.21641        -0.005326     -0.010759      0.025513
     11.65524      4.19478      9.38680         0.007869      0.013098      0.005595
      9.02319      8.77426      9.25701         0.010457     -0.011497     -0.018759
     10.34730      1.92912      9.25155         0.003518     -0.041083     -0.004133
      2.43321      1.92850      9.29631         0.012064     -0.006720     -0.008030
     11.61737      8.80259      9.26946        -0.032671     -0.019278      0.021130
     12.92781      6.47222      9.55562         0.006632     -0.039112      0.016824
      5.06719      1.91518      9.35739        -0.003702     -0.008557      0.007204
      7.73558      6.50054      9.33445         0.018170      0.017144     -0.021583
      9.04763      4.20754      9.26241        -0.011803      0.013966      0.012619
      5.12419      6.46684      9.56939         0.013319     -0.002781     -0.040293
      7.71524      1.91852      9.27376        -0.016739      0.012707      0.014341
      7.76111      3.43589      6.97310         0.000862      0.010633     -0.015319
      6.31085      1.13516      6.92174        -0.000386     -0.001259     -0.005709
      6.42858      1.12974      0.87872        -0.015433     -0.001118     -0.013764
      3.70548      4.20844      2.81687         0.017824     -0.006890     -0.009118
      1.16819      1.25297      6.90403         0.005129     -0.016263      0.010152
      1.13569      1.19080      0.72557        -0.004624      0.017782      0.004929
      6.43607      8.76100      2.90031        -0.024798      0.003584      0.019607
      6.40121      4.20832      9.39570         0.022107     -0.029822     -0.011204
      7.68135      4.99073      4.81474        -0.016793      0.035235      0.044384
     10.32487      6.49864      9.31824        -0.017963      0.019010      0.017231
     14.26424      7.22593      4.86299         0.010023     -0.013928      0.105230
     11.68812      5.69608      7.03498        -0.001768      0.005151      0.002902
      6.39329      5.77996      7.03367        -0.000476      0.003402     -0.005354
      3.62119      2.56589      4.96023        -0.023673     -0.018856     -0.022668
     10.36091      5.02430      4.85652         0.011746      0.002925      0.045079
      3.75987      5.76595      7.18068         0.000652      0.004042     -0.018565
     12.96907      7.87977      0.92567        -0.014828      0.003741     -0.009068
      5.16340      7.91719      0.83030         0.011156      0.011311     -0.011293
      3.80701      5.74502      0.81381         0.005831     -0.014892     -0.034632
      7.79852      2.03245      2.83251        -0.036655     -0.011631     -0.012536
      9.07755      8.73373      2.85743         0.011825      0.009988      0.000714
      2.40326      3.50673      7.13252         0.008124      0.013920     -0.006348
      2.34409      3.49051      0.82510         0.012031      0.004409     -0.036993
     10.34814      1.96983      2.82249        -0.014758     -0.003517      0.004257
     12.96035      4.98587      4.92559         0.022717      0.003721      0.043166
      3.74502      1.06130      7.06563        -0.005529     -0.000181     -0.008516
      9.03041      5.75878      7.07886         0.006851      0.002166      0.005237
      3.74824      1.09182      0.86700        -0.009143      0.001970     -0.023126
      9.09121      5.71867      0.96043        -0.013383      0.010187     -0.010759
      5.12448      3.47045      0.85563        -0.003979      0.029597     -0.016658
     11.62092      8.68758      2.90590         0.000997     -0.018826      0.029020
     11.65313      7.26450      4.84229        -0.026405     -0.014046     -0.023109
     12.86756      6.45280      2.83379         0.017943      0.004841      0.006103
      9.04201      4.20780      2.79628         0.012077      0.027539     -0.017769
      7.76480      8.00328      6.99008        -0.001936     -0.000554      0.001982
      7.81315      7.93922      0.88653        -0.013148      0.003694     -0.006946
     10.39144      6.53566      2.82198         0.041485      0.005142      0.018897
      2.51347      0.25826      5.00083         0.014489      0.001879      0.008688
      7.74264      3.48454      0.76157         0.000632     -0.005203      0.004244
      5.07835      1.87760      2.91701        -0.011138     -0.015790     -0.011631
      5.16037      6.44715      2.89923        -0.013635      0.002549     -0.005763
      7.70892      0.45986      4.84799         0.030619     -0.016697      0.012076
      9.05429      1.19074      6.98090         0.006645     -0.015709     -0.008934
[...]
      9.07350      2.65252      4.91360         0.011762     -0.019479      0.000560
      6.37169      2.66558      4.85827         0.009118      0.008564     -0.032199
     11.65891      4.17486      2.81483        -0.010814     -0.003445     -0.026761
      2.44098      1.89237      2.83279         0.015950      0.025743      0.013628
     11.64953      5.68621      0.88546         0.008292      0.028591     -0.009176
      6.44743      5.71949      0.92597         0.007810      0.015220     -0.010856
      7.82927      6.50651      2.83621        -0.003674      0.024508     -0.018643
      6.41922      4.13007      2.78290        -0.034226     -0.002826     -0.003166
     10.38200      3.46726      7.04246        -0.003482      0.003162     -0.008624
     10.34410      3.45013      0.86804        -0.015807     -0.002631     -0.006985
     10.37063      0.48410      4.87151        -0.034611     -0.028301     -0.028882
      9.04079      7.29017      4.93700        -0.012458     -0.055591     -0.032487
      6.46265      7.29503      4.94074         0.014056     -0.002496      0.081290
      5.04247      0.27633      4.88406        -0.027021      0.000329     -0.003447
     14.30411      7.28880     10.66267         0.039165      0.010010     -0.025162
    total drift:                                0.006771     -0.015633     -0.017117

  FREE ENERGIE OF THE ION-ELECTRON SYSTEM (eV)
  free  energy   TOTEN  =      -515.25123810 eV

  energy  without entropy=     -515.27877809  energy(sigma->0) =     -515.26041810

 d Force = 0.1037997E-03[-0.160E-04, 0.224E-03]  d Energy = 0.1155720E-03-0.118E-04
 d Force = 0.8101339E+01[ 0.810E+01, 0.810E+01]  d Ewald  = 0.8101339E+01-0.383E-07

 reached required accuracy - stopping structural energy minimisation