 vasp.5.4.4.18Apr17-6-g9f103f2a35 (build Nov 30 2020 22:55:02) complex

 executed on             LinuxIFC date 2023.09.08  22:09:36

 INCAR:
 POTCAR:    PAW_PBE Ni 02Aug2007
 POTCAR:    PAW_PBE Pt 04Feb2005
 POTCAR:    PAW_PBE H 15Jun2001

 POTCAR:    PAW_PBE Ni 02Aug2007
   VRHFIN =Ni:

   TITEL  = PAW_PBE Ni 02Aug2007
   POMASS =   58.690; ZVAL   =   10.000    mass and valenz
   ENMAX  =  269.532; ENMIN  =  202.149 eV

 POTCAR:    PAW_PBE Pt 04Feb2005
   VRHFIN =Pt: s1d9

   TITEL  = PAW_PBE Pt 04Feb2005
   POMASS =  195.080; ZVAL   =   10.000    mass and valenz
   ENMAX  =  230.283; ENMIN  =  172.712 eV

 POTCAR:    PAW_PBE H 15Jun2001
   VRHFIN =H: ultrasoft test

   TITEL  = PAW_PBE H 15Jun2001
   POMASS =    1.000; ZVAL   =    1.000    mass and valenz
   ENMAX  =  250.000; ENMIN  =  200.000 eV

 Optimization of the real space projectors (new method)

 maximal supplied QI-value         = 16.25
 optimisation between [QCUT,QGAM] = [ 11.86, 23.89] = [ 39.41,159.82] Ry
 Optimized for a Real-space Cutoff    1.33 Angstroem

   l    n(q)    QCUT    max X(q) W(low)/X(q) W(high)/X(q)  e(spline)
   2      9    11.864    60.317    0.21E-03    0.51E-03    0.25E-06
   2      9    11.864    55.921    0.21E-03    0.51E-03    0.26E-06
   0      9    11.864    51.690    0.22E-03    0.30E-04    0.17E-06
   0      9    11.864    30.015    0.20E-03    0.28E-04    0.15E-06
   1      9    11.864    18.849    0.76E-04    0.33E-03    0.17E-06
   1      9    11.864    14.624    0.60E-04    0.28E-03    0.15E-06
 Optimization of the real space projectors (new method)

[...]

   l    n(q)    QCUT    max X(q) W(low)/X(q) W(high)/X(q)  e(spline)
   2     10    11.920    66.195    0.79E-04    0.18E-03    0.24E-06
   2     10    11.920    64.643    0.81E-04    0.19E-03    0.24E-06
   0     11    11.920    95.520    0.28E-04    0.54E-04    0.18E-06
   0     11    11.920    63.403    0.27E-04    0.52E-04    0.17E-06
   1     10    11.920    19.961    0.18E-04    0.11E-03    0.23E-06
   1     10    11.920    13.289    0.25E-04    0.87E-04    0.19E-06
 Optimization of the real space projectors (new method)

 maximal supplied QI-value         = 34.20
 optimisation between [QCUT,QGAM] = [ 11.97, 23.94] = [ 40.13,160.53] Ry
 Optimized for a Real-space Cutoff    1.18 Angstroem

   l    n(q)    QCUT    max X(q) W(low)/X(q) W(high)/X(q)  e(spline)
   0      8    11.971    19.460    0.15E-03    0.31E-03    0.25E-06
   0      8    11.971    12.209    0.13E-03    0.29E-03    0.25E-06
   1      8    11.971     4.655    0.22E-03    0.24E-03    0.21E-06
  PAW_PBE Ni 02Aug2007                  :
  PAW_PBE Pt 04Feb2005                  :
  PAW_PBE H 15Jun2001                   :

 POSCAR: PtM\(2)
  positions in cartesian coordinates
 exchange correlation table for  LEXCH =        8
   RHO(1)=    0.500       N(1)  =     2000
   RHO(2)=  100.500       N(2)  =     4000

 ion  position               nearest neighbor table
   1  0.785  0.869  0.311-  55 2.43  20 2.43  39 2.43  73 2.62  65 2.63  72 2.64   3 2.64  29 2.64
                            57 2.64   2 2.64  56 2.64  40 2.64
   2  0.036  0.869  0.311-  49 2.43  52 2.43  39 2.43  77 2.61  67 2.63  65 2.63  23 2.64   3 2.64
                            33 2.64   1 2.64  56 2.64  41 2.65
   3  0.036  0.619  0.311-  39 2.43  12 2.43  60 2.43  77 2.62  66 2.62  73 2.64  15 2.64   9 2.64
                             2 2.64   1 2.64  40 2.65  41 2.65
   4  0.787  0.867  0.051-  21 2.44  62 2.44  19 2.45  42 2.64   5 2.64   6 2.64  59 2.64  58 2.65
                            30 2.66
   5  0.037  0.868  0.051-  54 2.44  35 2.44  62 2.45  24 2.64  43 2.64   4 2.64   6 2.64  58 2.65
                            34 2.65
   6  0.037  0.617  0.051-  32 2.44  54 2.44  21 2.45  18 2.63  43 2.63  10 2.63  42 2.64   4 2.64
                             5 2.64
   7  0.620  0.202  0.138-  28 2.44  30 2.44  58 2.45  55 2.45  63 2.46  64 2.46  19 2.64  62 2.64
                            37 2.64  45 2.64  22 2.64  11 2.64
   8  0.370  0.952  0.138-  16 2.44  24 2.44  59 2.45  53 2.45  26 2.46  50 2.46  38 2.64  37 2.64
                            35 2.64  25 2.64  19 2.64  44 2.64
   9  0.035  0.369  0.311-  12 2.42  61 2.43  46 2.43  71 2.62  66 2.63  68 2.63  33 2.64  13 2.64
                             3 2.64  40 2.64  15 2.65  47 2.65
  10  0.037  0.368  0.051-  38 2.44  32 2.44  31 2.45  18 2.63  16 2.63   6 2.63  34 2.63  42 2.64
                            48 2.64
  11  0.870  0.202  0.138-  48 2.44  58 2.44  34 2.45  49 2.45  61 2.45  63 2.47  35 2.64  31 2.64
                            22 2.64  38 2.64  62 2.64   7 2.64
  12  0.952  0.535  0.225-   9 2.42   3 2.43  40 2.43  31 2.45  21 2.45  32 2.45  61 2.64  20 2.64
                            39 2.64  46 2.64  51 2.65  60 2.65
  13  0.285  0.119  0.311-  46 2.42  26 2.43  53 2.43  69 2.62  74 2.62  71 2.63   9 2.64  29 2.64
                            33 2.64  57 2.64  23 2.65  15 2.65
  14  0.535  0.619  0.312-  36 2.43  50 2.44  51 2.45  27 2.62  80 2.62  41 2.62  47 2.63  23 2.64
                            40 2.65  57 2.65  76 2.67  75 2.67
  15  0.286  0.370  0.312-  60 2.43  64 2.43  46 2.44  74 2.62  66 2.63  27 2.63  41 2.63   3 2.64
                            29 2.64  79 2.65  13 2.65   9 2.65
  16  0.287  0.119  0.051-   8 2.44  37 2.44  38 2.45  30 2.63  10 2.63  34 2.63  18 2.64  59 2.64
                            24 2.64
  17  0.536  0.618  0.051-  22 2.44  25 2.44  44 2.45  28 2.64  43 2.64  24 2.64  48 2.64  59 2.65
                            42 2.65
  18  0.286  0.368  0.051-  37 2.44  45 2.44  32 2.45   6 2.63  43 2.63  10 2.63  16 2.64  30 2.64
                            28 2.64
  19  0.620  0.952  0.137-  59 2.44  30 2.44   4 2.45  55 2.46  20 2.46  53 2.46   7 2.64  62 2.64
                             8 2.64  21 2.64  25 2.64  37 2.64
  20  0.702  0.785  0.225-  40 2.43   1 2.43  57 2.43  19 2.46  25 2.46  21 2.46  12 2.64  53 2.64
                            55 2.64  51 2.64  39 2.64  50 2.64
  21  0.870  0.701  0.138-   4 2.44  42 2.44   6 2.45  12 2.45  39 2.45  20 2.46  31 2.64  32 2.64
                            54 2.64  25 2.64  19 2.64  62 2.64
  22  0.620  0.452  0.138-  17 2.44  28 2.44  48 2.45  63 2.45  51 2.45  36 2.47  25 2.64  11 2.64
                            31 2.64   7 2.64  45 2.64  44 2.64
  23  0.285  0.869  0.311-  52 2.43  50 2.43  26 2.44  69 2.62  67 2.62  41 2.64  14 2.64   2 2.64
                            57 2.64  33 2.64  13 2.65  75 2.65
  24  0.287  0.868  0.051-  44 2.44   8 2.44  35 2.45   5 2.64  34 2.64  17 2.64  59 2.64  16 2.64
                            43 2.65
  25  0.619  0.702  0.137-  59 2.44  17 2.44  42 2.45  20 2.46  51 2.46  50 2.47  22 2.64  31 2.64
                             8 2.64  44 2.64  21 2.64  19 2.64
  26  0.202  0.036  0.225-  13 2.43  33 2.43  23 2.44  38 2.45  35 2.45   8 2.46  53 2.64  49 2.64
                            46 2.64  61 2.64  50 2.64  52 2.64
  27  0.535  0.371  0.312-  36 2.43  64 2.44  63 2.45  78 2.61  14 2.62  41 2.62  47 2.63  15 2.63
                            29 2.65  56 2.65  76 2.67  79 2.67
  28  0.536  0.368  0.051-   7 2.44  22 2.44  45 2.45  43 2.64  30 2.64  17 2.64  18 2.64  58 2.64
                            48 2.65
  29  0.535  0.119  0.311-  64 2.42  53 2.43  55 2.43  78 2.62  72 2.63  74 2.63  56 2.64  13 2.64
                            15 2.64   1 2.64  57 2.64  27 2.65
  30  0.536  0.119  0.051-  19 2.44   7 2.44  37 2.44  16 2.63  18 2.64  28 2.64  59 2.64  58 2.65
                             4 2.66
  31  0.870  0.452  0.138-  42 2.44  48 2.44  10 2.45  61 2.45  12 2.45  51 2.46  21 2.64  32 2.64
                            11 2.64  38 2.64  25 2.64  22 2.64
  32  0.119  0.452  0.138-   6 2.44  10 2.44  46 2.45  18 2.45  12 2.45  60 2.46  21 2.64  38 2.64
                            31 2.64  37 2.64  54 2.64  45 2.64
  33  0.035  0.119  0.311-  61 2.43  49 2.43  26 2.43  67 2.62  71 2.62  70 2.63   9 2.64  13 2.64
                            56 2.64   2 2.64  23 2.64  47 2.65
  34  0.037  0.118  0.051-  35 2.44  38 2.44  11 2.45  16 2.63  10 2.63  24 2.64  48 2.64  58 2.64
                             5 2.65
  35  0.119  0.952  0.138-  34 2.44   5 2.44  24 2.45  26 2.45  49 2.45  52 2.46  11 2.64  44 2.64
                            38 2.64  62 2.64   8 2.64  54 2.64
  36  0.453  0.535  0.226-  27 2.43  14 2.43  41 2.44  45 2.46  44 2.46  22 2.47  51 2.63  63 2.63
                            60 2.63  64 2.63  50 2.63  52 2.64
  37  0.369  0.202  0.138-  18 2.44  16 2.44  30 2.44  53 2.45  46 2.45  64 2.46  45 2.64  38 2.64
                            32 2.64   7 2.64   8 2.64  19 2.64
  38  0.120  0.202  0.138-  10 2.44  34 2.44  26 2.45  16 2.45  46 2.45  61 2.45  32 2.64  37 2.64
                             8 2.64  11 2.64  31 2.64  35 2.64
  39  0.953  0.785  0.225-   3 2.43   2 2.43   1 2.43  54 2.45  21 2.45  62 2.45  55 2.64  12 2.64
                            49 2.64  20 2.64  60 2.64  52 2.64
  40  0.785  0.619  0.311-  51 2.43  20 2.43  12 2.43  80 2.62  68 2.62  73 2.63  47 2.64  57 2.64
                             9 2.64   1 2.64  14 2.65   3 2.65
  41  0.286  0.619  0.312-  36 2.44  52 2.44  60 2.44  14 2.62  27 2.62  77 2.62  15 2.63  23 2.64
                             2 2.65   3 2.65  79 2.66  75 2.67
  42  0.787  0.618  0.051-  31 2.44  21 2.44  25 2.45  48 2.63  10 2.64   4 2.64   6 2.64  59 2.65
                            17 2.65
  43  0.287  0.617  0.051-  45 2.44  44 2.44  54 2.45   6 2.63  18 2.63  28 2.64   5 2.64  17 2.64
                            24 2.65
  44  0.369  0.702  0.138-  24 2.44  43 2.44  17 2.45  50 2.45  52 2.46  36 2.46  54 2.64  35 2.64
                            45 2.64  25 2.64   8 2.64  22 2.64
  45  0.370  0.452  0.138-  43 2.44  18 2.44  28 2.45  64 2.45  60 2.46  36 2.46  37 2.64  44 2.64
                             7 2.64  32 2.64  54 2.64  22 2.64
  46  0.203  0.286  0.225-  13 2.42   9 2.43  15 2.44  32 2.45  38 2.45  37 2.45  12 2.64  60 2.64
                            26 2.64  64 2.64  53 2.64  61 2.64
  47  0.784  0.370  0.311-  51 2.43  63 2.43  61 2.45  70 2.62  68 2.62  27 2.63  14 2.63  40 2.64
                            56 2.64  33 2.65   9 2.65  76 2.66
  48  0.787  0.368  0.051-  11 2.44  31 2.44  22 2.45  42 2.63  10 2.64  34 2.64  58 2.64  17 2.64
                            28 2.65
  49  0.952  0.036  0.225-   2 2.43  33 2.43  56 2.43  11 2.45  35 2.45  62 2.46  61 2.64  26 2.64
                            55 2.64  39 2.64  52 2.65  63 2.65
  50  0.452  0.785  0.225-  57 2.43  23 2.43  14 2.44  44 2.45   8 2.46  25 2.47  52 2.63  51 2.63
                            36 2.63  20 2.64  26 2.64  53 2.65
  51  0.701  0.536  0.225-  40 2.43  47 2.43  14 2.45  22 2.45  25 2.46  31 2.46  36 2.63  50 2.63
                            63 2.63  20 2.64  61 2.64  12 2.65
  52  0.203  0.785  0.225-   2 2.43  23 2.43  41 2.44  44 2.46  54 2.46  35 2.46  50 2.63  60 2.63
                            36 2.64  26 2.64  39 2.64  49 2.65
  53  0.453  0.035  0.225-  57 2.42  29 2.43  13 2.43  37 2.45   8 2.45  19 2.46  55 2.64  20 2.64
                            26 2.64  46 2.64  50 2.65  64 2.65
[...]
      8.91945      7.17779      4.95496        -0.003899      0.000996     -0.009510
     10.23424      4.89742      4.95504         0.004706     -0.003242     -0.009302
      6.28944      7.17938      4.95641         0.006154     -0.001693     -0.012937
      4.96544      0.32281      4.94960         0.010153     -0.003390     -0.008639
      4.96652      6.41710      3.02983         0.006415      0.005903      0.038520
      7.60428      0.32283      4.94890         0.002743     -0.000342     -0.006508
      8.92245      1.09150      6.83762         0.000563     -0.009121     -0.025143
     10.24040      7.94747      6.83808         0.010082     -0.001706     -0.025940
      8.93363      1.08195      1.11845        -0.019697     -0.010633     -0.003963
     10.25000      7.94040      1.11577         0.004635     -0.004897     -0.010527
      4.97291      4.89705      4.95763        -0.000852     -0.005355     -0.010352
[...]
      6.27485      8.72072      8.97780         0.000008      0.017275      0.004355
     11.56355      4.14685      8.98015         0.008279     -0.009507     -0.002111
      8.92062      8.72150      8.97779         0.008457      0.005934      0.006936
     10.24023      1.85448      8.97750         0.003309     -0.011419      0.006630
      2.31788      1.85910      8.97393        -0.003580     -0.002033     -0.004912
     11.55584      8.71905      8.98141         0.010091      0.004474      0.019508
     12.87721      6.43289      8.98229         0.012570     -0.031951      0.017516
      4.95482      1.85514      8.97872         0.017922     -0.010393      0.007689
      7.59753      6.46380      9.04791         0.007681      0.074406     -0.001752
      8.94605      4.12801      9.05253         0.058549     -0.027382     -0.022564
      4.93996      6.44193      8.97493        -0.013177     -0.004079     -0.013015
      7.59782      1.83931      8.97435        -0.002086     -0.023258     -0.019254
      6.25082      4.12952      9.04889        -0.048913     -0.035526     -0.006120
     10.25617      6.44227      8.97577         0.006822     -0.005518     -0.017305
      7.61353      4.92678     10.04384        -0.018112     -0.025448      0.052299
    total drift:                                0.051446      0.047305      0.000666

  FREE ENERGIE OF THE ION-ELECTRON SYSTEM (eV)
  free  energy   TOTEN  =      -457.80262565 eV

  energy  without entropy=     -457.80262565  energy(sigma->0) =     -457.80262565

 d Force = 0.9016535E-03[-0.157E-02, 0.337E-02]  d Energy = 0.7438732E-03 0.158E-03
 d Force =-0.1144327E+02[-0.114E+02,-0.114E+02]  d Ewald  =-0.1144351E+02 0.247E-03

 Finite differences progress:
  Degree of freedom:   3/  3
  Displacement:        2/  2
  Total:               6/  6

 SECOND DERIVATIVES (NOT SYMMETRIZED)
              81X         81Y         81Z
 81X    -1.148735    0.070240    0.171760
 81Y     0.061454   -1.386064    0.208794
 81Z     0.158518    0.185238   -5.490287

 Eigenvectors and eigenvalues of the dynamical matrix

   1 f  =   36.682448 THz   230.482619 2PiTHz 1223.594723 cm-1   151.706465 meV
             X         Y         Z           dx          dy          dz
     12.881900  7.947542  6.838537            0           0           0
      4.964206  7.948604  6.838472            0           0           0
      3.644331  5.661182  6.839175            0           0           0
     12.893920  7.930719  1.117496            0           0           0
      4.973660  7.934571  1.119596            0           0           0
      3.654460  5.644395  1.121176            0           0           0
      7.606901  1.843612  3.026040            0           0           0
      8.927632  8.704650  3.025391            0           0           0
      2.322645  3.375952  6.840716            0           0           0
      2.333745  3.364610  1.122270            0           0           0
     10.249248  1.845314  3.027106            0           0           0
     12.882840  4.896872  4.953708            0           0           0
      3.643579  1.091199  6.838836            0           0           0
      8.911771  5.657909  6.868146            0           0           0
      4.971809  3.382681  6.853973            0           0           0
      3.651856  1.084183  1.119879            0           0           0
      8.925611  5.650181  1.117095            0           0           0
      4.966979  3.368872  1.122004            0           0           0
     11.568378  8.703821  3.021896            0           0           0
     11.562563  7.181302  4.948783            0           0           0
     12.887203  6.415170  3.027520            0           0           0
      8.927828  4.130137  3.025448            0           0           0
      7.601911  7.945316  6.850334            0           0           0
      7.609859  7.938730  1.118362            0           0           0
     10.245960  6.416801  3.021468            0           0           0
      2.325906  0.326583  4.948154            0           0           0
      7.602351  3.388983  6.868172            0           0           0
      7.607570  3.366298  1.119211            0           0           0
      6.283582  1.091154  6.838081            0           0           0
      6.284510  1.085538  1.117767            0           0           0
     11.568186  4.131507  3.030214            0           0           0
      3.646484  4.130871  3.034459            0           0           0
      1.003494  1.091586  6.838249            0           0           0
      1.017804  1.081944  1.119986            0           0           0
      6.287244  8.705513  3.027682            0           0           0
      7.605236  4.895851  4.964228            0           0           0
      4.966895  1.846462  3.031031            0           0           0
      2.328793  1.845637  3.032086            0           0           0
     14.205064  7.182049  4.950264            0           0           0
     11.557203  5.660423  6.839065            0           0           0
      6.291464  5.658843  6.868437            0           0           0
     11.574645  5.647310  1.118180            0           0           0
      6.286892  5.647178  1.120360            0           0           0
      7.604774  6.418020  3.026047            0           0           0
      6.287058  4.130295  3.030444            0           0           0
      3.647437  2.613042  4.951312            0           0           0
     10.232067  3.381685  6.852603            0           0           0
     10.256619  3.366846  1.119299            0           0           0
     10.245202  0.324785  4.949717            0           0           0
      8.919454  7.177790  4.954963            0           0           0
     10.234242  4.897421  4.955038            0           0           0
      6.289440  7.179376  4.956409            0           0           0
      4.965445  0.322814  4.949600            0           0           0
      4.966517  6.417103  3.029832            0           0           0
      7.604280  0.322831  4.948905            0           0           0
      8.922446  1.091501  6.837620            0           0           0
     10.240404  7.947474  6.838081            0           0           0
      8.933630  1.081954  1.118451            0           0           0
     10.249997  7.940401  1.115771            0           0           0
      4.972908  4.897045  4.957634            0           0           0
[...]
      6.274845  8.720722  8.977798            0           0           0
     11.563551  4.146848  8.980146            0           0           0
      8.920617  8.721503  8.977785            0           0           0
     10.240232  1.854481  8.977499            0           0           0
      2.317881  1.859099  8.973930            0           0           0
     11.555837  8.719049  8.981415            0           0           0
     12.877208  6.432893  8.982292            0           0           0
      4.954822  1.855139  8.978716            0           0           0
      7.597532  6.463802  9.047907            0           0           0
      8.946051  4.128008  9.052534            0           0           0
      4.939959  6.441927  8.974926            0           0           0
      7.597824  1.839310  8.974346            0           0           0
      6.250824  4.129521  9.048888            0           0           0
     10.256170  6.442268  8.975769            0           0           0
      7.613528  4.926783 10.058844    -0.037121   -0.047144    0.998198

[...]

   3 f  =   16.555684 THz   104.022432 2PiTHz  552.238169 cm-1    68.468831 meV
             X         Y         Z           dx          dy          dz
     12.881900  7.947542  6.838537            0           0           0
      4.964206  7.948604  6.838472            0           0           0
      3.644331  5.661182  6.839175            0           0           0
     12.893920  7.930719  1.117496            0           0           0
      4.973660  7.934571  1.119596            0           0           0
      3.654460  5.644395  1.121176            0           0           0
      7.606901  1.843612  3.026040            0           0           0
      8.927632  8.704650  3.025391            0           0           0
      2.322645  3.375952  6.840716            0           0           0
      2.333745  3.364610  1.122270            0           0           0
     10.249248  1.845314  3.027106            0           0           0
     12.882840  4.896872  4.953708            0           0           0
      3.643579  1.091199  6.838836            0           0           0
      8.911771  5.657909  6.868146            0           0           0
      4.971809  3.382681  6.853973            0           0           0
      3.651856  1.084183  1.119879            0           0           0
      8.925611  5.650181  1.117095            0           0           0
      4.966979  3.368872  1.122004            0           0           0
     11.568378  8.703821  3.021896            0           0           0
     11.562563  7.181302  4.948783            0           0           0
     12.887203  6.415170  3.027520            0           0           0
      8.927828  4.130137  3.025448            0           0           0
      7.601911  7.945316  6.850334            0           0           0
      7.609859  7.938730  1.118362            0           0           0
     10.245960  6.416801  3.021468            0           0           0
      2.325906  0.326583  4.948154            0           0           0
      7.602351  3.388983  6.868172            0           0           0
      7.607570  3.366298  1.119211            0           0           0
      6.283582  1.091154  6.838081            0           0           0
      6.284510  1.085538  1.117767            0           0           0
     11.568186  4.131507  3.030214            0           0           0
      3.646484  4.130871  3.034459            0           0           0
      1.003494  1.091586  6.838249            0           0           0
      1.017804  1.081944  1.119986            0           0           0
      6.287244  8.705513  3.027682            0           0           0
      7.605236  4.895851  4.964228            0           0           0
      4.966895  1.846462  3.031031            0           0           0
      2.328793  1.845637  3.032086            0           0           0
     14.205064  7.182049  4.950264            0           0           0
     11.557203  5.660423  6.839065            0           0           0
      6.291464  5.658843  6.868437            0           0           0
     11.574645  5.647310  1.118180            0           0           0
      6.286892  5.647178  1.120360            0           0           0
      7.604774  6.418020  3.026047            0           0           0
      6.287058  4.130295  3.030444            0           0           0
      3.647437  2.613042  4.951312            0           0           0
     10.232067  3.381685  6.852603            0           0           0
     10.256619  3.366846  1.119299            0           0           0
     10.245202  0.324785  4.949717            0           0           0
      8.919454  7.177790  4.954963            0           0           0
     10.234242  4.897421  4.955038            0           0           0
      6.289440  7.179376  4.956409            0           0           0
      4.965445  0.322814  4.949600            0           0           0
      4.966517  6.417103  3.029832            0           0           0
      7.604280  0.322831  4.948905            0           0           0
      8.922446  1.091501  6.837620            0           0           0
     10.240404  7.947474  6.838081            0           0           0
      8.933630  1.081954  1.118451            0           0           0
     10.249997  7.940401  1.115771            0           0           0
      4.972908  4.897045  4.957634            0           0           0
[...]
      6.274845  8.720722  8.977798            0           0           0
     11.563551  4.146848  8.980146            0           0           0
      8.920617  8.721503  8.977785            0           0           0
     10.240232  1.854481  8.977499            0           0           0
      2.317881  1.859099  8.973930            0           0           0
     11.555837  8.719049  8.981415            0           0           0
     12.877208  6.432893  8.982292            0           0           0
      4.954822  1.855139  8.978716            0           0           0
      7.597532  6.463802  9.047907            0           0           0
      8.946051  4.128008  9.052534            0           0           0
      4.939959  6.441927  8.974926            0           0           0
      7.597824  1.839310  8.974346            0           0           0
      6.250824  4.129521  9.048888            0           0           0
     10.256170  6.442268  8.975769            0           0           0
      7.613528  4.926783 10.058844     0.960146    0.275223    0.048705

 Finite differences POTIM=  1.500000000000000E-002
  LATTYP: Found a hexagonal cell.
 ALAT       =    10.5600004196
 C/A-ratio  =     2.0833332505

  Lattice vectors:

 A1 = (   5.2800002098,  -9.1452286274,   0.0000000000)
 A2 = ( -10.5600004196,   0.0000000000,   0.0000000000)
 A3 = (   0.0000000000,   0.0000000000, -22.0000000000)

Analysis of symmetry for initial positions (statically):
 Subroutine PRICEL returns:
 Original cell was already a primitive cell.

[...]

The static configuration has the point symmetry C_1 .

Analysis of symmetry for dynamics (positions and initial velocities):
 Subroutine PRICEL returns:
 Original cell was already a primitive cell.

[...]

The dynamic configuration has the point symmetry C_1 .

Analysis of constrained symmetry for selective dynamics:
 Subroutine PRICEL returns:
 Original cell was already a primitive cell.

[...]

The constrained configuration has the point symmetry C_1 .

Analysis of structural, dynamic, and magnetic symmetry:
 Subroutine PRICEL returns:
 Original cell was already a primitive cell.

 Routine SETGRP: Setting up the symmetry group for a
 hexagonal supercell.

 Subroutine GETGRP returns: Found  1 space group operations
 (whereof  1 operations were pure point group operations)
 out of a pool of 24 trial point group operations.

The magnetic configuration has the point symmetry C_1 .

 Subroutine INISYM returns: Found  1 space group operations
 (whereof  1 operations are pure point group operations),
 and found     1 'primitive' translations

 KPOINTS: mesh auto

Automatic generation of k-mesh.
Space group operators:
 irot       det(A)        alpha          n_x          n_y          n_z        tau_x        tau_y        tau_z
    1     1.000000     0.000001     1.000000     0.000000     0.000000     0.000000     0.000000     0.000000

 Subroutine IBZKPT returns following result:

 Found      4 irreducible k-points:

 Following reciprocal coordinates:
            Coordinates               Weight
  0.000000  0.000000  0.000000      1.000000
  0.500000  0.000000  0.000000      1.000000
  0.000000  0.500000  0.000000      1.000000
  0.500000  0.500000  0.000000      1.000000

 Following cartesian coordinates:
            Coordinates               Weight
  0.000000  0.000000  0.000000      1.000000
  0.047348 -0.027337  0.000000      1.000000
  0.000000  0.054673  0.000000      1.000000
  0.047348  0.027337  0.000000      1.000000

 TETIRR: Found     12 inequivalent tetrahedra from       24
 BZINTS: Fermi energy:  1.542173;801.000000 electrons
         Band energy:-644.345612;  BLOECHL correction: -0.299943