 vasp.5.4.4.18Apr17-6-g9f103f2a35 (build Oct 25 2019 11:13:22) complex

 executed on             LinuxIFC date 2022.02.13  08:19:54

 INCAR:
 POTCAR:    PAW_PBE Pt 04Feb2005
 POTCAR:    PAW_PBE Fe 06Sep2000
 POTCAR:    PAW_PBE Co 02Aug2007
 POTCAR:    PAW_PBE Ni 02Aug2007
 POTCAR:    PAW_PBE H 15Jun2001

 POTCAR:    PAW_PBE Pt 04Feb2005
   VRHFIN =Pt: s1d9

   TITEL  = PAW_PBE Pt 04Feb2005
   POMASS =  195.080; ZVAL   =   10.000    mass and valenz
   ENMAX  =  230.283; ENMIN  =  172.712 eV

 POTCAR:    PAW_PBE Fe 06Sep2000
   VRHFIN =Fe:  d7 s1

   TITEL  = PAW_PBE Fe 06Sep2000
   POMASS =   55.847; ZVAL   =    8.000    mass and valenz
   ENMAX  =  267.882; ENMIN  =  200.911 eV

 POTCAR:    PAW_PBE Co 02Aug2007
   VRHFIN =Co: d8 s1

   TITEL  = PAW_PBE Co 02Aug2007
   POMASS =   58.933; ZVAL   =    9.000    mass and valenz
   ENMAX  =  267.968; ENMIN  =  200.976 eV

 POTCAR:    PAW_PBE Ni 02Aug2007
   VRHFIN =Ni:

   TITEL  = PAW_PBE Ni 02Aug2007
   POMASS =   58.690; ZVAL   =   10.000    mass and valenz
   ENMAX  =  269.532; ENMIN  =  202.149 eV

 POTCAR:    PAW_PBE H 15Jun2001
   VRHFIN =H: ultrasoft test

   TITEL  = PAW_PBE H 15Jun2001
   POMASS =    1.000; ZVAL   =    1.000    mass and valenz
   ENMAX  =  250.000; ENMIN  =  200.000 eV

 Optimization of the real space projectors (new method)

 maximal supplied QI-value         = 14.36
 optimisation between [QCUT,QGAM] = [ 11.92, 23.98] = [ 39.79,161.09] Ry
 Optimized for a Real-space Cutoff    1.49 Angstroem

   l    n(q)    QCUT    max X(q) W(low)/X(q) W(high)/X(q)  e(spline)
   2     10    11.920    66.195    0.79E-04    0.18E-03    0.24E-06
   2     10    11.920    64.643    0.81E-04    0.19E-03    0.24E-06
   0     11    11.920    95.520    0.28E-04    0.54E-04    0.18E-06
   0     11    11.920    63.403    0.27E-04    0.52E-04    0.17E-06
   1     10    11.920    19.961    0.18E-04    0.11E-03    0.23E-06
   1     10    11.920    13.289    0.25E-04    0.87E-04    0.19E-06
 Optimization of the real space projectors (new method)

[...]

   l    n(q)    QCUT    max X(q) W(low)/X(q) W(high)/X(q)  e(spline)
   2      9    11.864    60.317    0.21E-03    0.51E-03    0.25E-06
   2      9    11.864    55.921    0.21E-03    0.51E-03    0.26E-06
   0      9    11.864    51.690    0.22E-03    0.30E-04    0.17E-06
   0      9    11.864    30.015    0.20E-03    0.28E-04    0.15E-06
   1      9    11.864    18.849    0.76E-04    0.33E-03    0.17E-06
   1      9    11.864    14.624    0.60E-04    0.28E-03    0.15E-06
 Optimization of the real space projectors (new method)

 maximal supplied QI-value         = 34.20
 optimisation between [QCUT,QGAM] = [ 11.97, 23.94] = [ 40.13,160.53] Ry
 Optimized for a Real-space Cutoff    1.18 Angstroem

   l    n(q)    QCUT    max X(q) W(low)/X(q) W(high)/X(q)  e(spline)
   0      8    11.971    19.460    0.15E-03    0.31E-03    0.25E-06
   0      8    11.971    12.209    0.13E-03    0.29E-03    0.25E-06
   1      8    11.971     4.655    0.22E-03    0.24E-03    0.21E-06
  PAW_PBE Pt 04Feb2005                  :
  PAW_PBE Fe 06Sep2000                  :
  PAW_PBE Co 02Aug2007                  :
  PAW_PBE Ni 02Aug2007                  :
  PAW_PBE H 15Jun2001                   :

 POSCAR: 11.26
  positions in cartesian coordinates
 exchange correlation table for  LEXCH =        8
   RHO(1)=    0.500       N(1)  =     2000
   RHO(2)=  100.500       N(2)  =     4000

 ion  position               nearest neighbor table
   1  0.783  0.871  0.304-  52 2.53  59 2.55  28 2.71  19 2.74   2 2.77  61 2.77  29 2.79  60 2.80
                             4 2.80  33 2.81  11 2.81  12 2.86
   2  0.029  0.870  0.299-  79 2.49  77 2.52   1 2.77  33 2.77  30 2.79  28 2.79   4 2.80   6 2.81
                            60 2.87  16 2.87  22 2.97
   3  0.281  0.359  0.311-  64 2.54  68 2.61  31 2.65   5 2.74  43 2.74  39 2.76  30 2.78  13 2.78
                            25 2.78  19 2.82  33 2.87  18 2.92
   4  0.871  0.957  0.406-  60 2.61   9 2.73  17 2.77  11 2.78   6 2.80  16 2.80   2 2.80   1 2.80
                            12 2.84
   5  0.111  0.459  0.410-  39 2.62  33 2.69  12 2.71   3 2.74  16 2.78   7 2.80  10 2.81  13 2.86
                            25 2.88
   6  0.126  0.947  0.402-  55 2.64  22 2.73  14 2.74  16 2.78   4 2.80   2 2.81   9 2.84   8 2.85
                            10 2.87
   7  0.868  0.447  0.411-  39 2.60  75 2.65  29 2.73   9 2.75  15 2.76  10 2.77   5 2.80  27 2.81
                            12 2.91
   8  0.376  0.948  0.419-  81 1.81  55 2.54  43 2.65  61 2.72  27 2.77  14 2.81  11 2.83   6 2.85
                            13 2.85  10 2.88
   9  0.873  0.200  0.406-  75 2.59  60 2.65   4 2.73   7 2.75  17 2.77  22 2.79  10 2.80   6 2.84
                            15 2.86
  10  0.120  0.204  0.410-  39 2.62  43 2.65  22 2.72   7 2.77  13 2.80   9 2.80   5 2.81   6 2.87
                             8 2.88
  11  0.629  0.946  0.413-  61 2.66  19 2.72  12 2.73   4 2.78  27 2.78   1 2.81   8 2.83  17 2.87
                            13 2.93
  12  0.873  0.703  0.411-  29 2.68  33 2.69   5 2.71  11 2.73  16 2.73  27 2.83   4 2.84   1 2.86
                             7 2.91
  13  0.368  0.206  0.418-  81 1.70  43 2.68  25 2.78   3 2.78  10 2.80  19 2.82   8 2.85   5 2.86
                            17 2.87  11 2.93
  14  0.370  0.703  0.405-  44 2.54  55 2.58   6 2.74  15 2.79   8 2.81  25 2.81  27 2.83  16 2.84
                            30 2.87
  15  0.619  0.455  0.408-  44 2.62  75 2.62   7 2.76  18 2.77  27 2.79  14 2.79  17 2.79  25 2.80
                             9 2.86
  16  0.116  0.704  0.407-  33 2.65  30 2.68  12 2.73   5 2.78   6 2.78   4 2.80  14 2.84  25 2.84
                             2 2.87
  17  0.624  0.204  0.411-  60 2.61  19 2.76   9 2.77  18 2.77   4 2.77  15 2.79  25 2.81  11 2.87
                            13 2.87
  18  0.539  0.365  0.307-  67 2.51  68 2.60  60 2.68  26 2.68  25 2.77  17 2.77  15 2.77  75 2.79
                            19 2.85   3 2.92  30 2.93  44 3.00
  19  0.536  0.112  0.314-  68 2.50  80 2.53  59 2.57  43 2.67  61 2.71  11 2.72   1 2.74  60 2.75
                            17 2.76  13 2.82   3 2.82  18 2.85
  20  0.538  0.117  0.053-  47 2.51  37 2.56  51 2.64  63 2.67  50 2.71  62 2.73  34 2.74  46 2.79
                            45 2.87
  21  0.106  0.420  0.118-  40 2.50  36 2.51  50 2.54  70 2.60  47 2.66  42 2.66  64 2.70  69 2.71
                            31 2.79  53 3.03
  22  0.049  0.124  0.306-  65 2.51  77 2.51  58 2.54  39 2.69  10 2.72   6 2.73  43 2.76   9 2.79
                            75 2.86  55 2.92   2 2.97  60 3.08  31 3.25
  23  0.025  0.110  0.043-  40 2.54  41 2.55  70 2.56  35 2.67  62 2.71  24 2.74  56 2.77  76 2.83
                            45 2.93
  24  0.117  0.952  0.146-  79 2.49  35 2.51  70 2.62  77 2.62  58 2.62  56 2.64  48 2.66  73 2.70
                            66 2.72  23 2.74  41 2.84  38 2.93
  25  0.371  0.452  0.409-  18 2.77  30 2.77  13 2.78   3 2.78  15 2.80  14 2.81  17 2.81  16 2.84
                             5 2.88
  26  0.451  0.562  0.222-  73 2.52  74 2.53  54 2.55  79 2.59  30 2.60  44 2.62  32 2.67  18 2.68
                            78 2.68  67 2.98  48 2.99
  27  0.622  0.702  0.412-  44 2.55  61 2.65   8 2.77  11 2.78  29 2.78  15 2.79   7 2.81  12 2.83
                            14 2.83
  28  0.949  0.756  0.207-  48 2.55  53 2.56  66 2.63  42 2.65  33 2.65  64 2.70   1 2.71   2 2.79
                            52 2.85  36 2.90  59 3.15
  29  0.799  0.615  0.312-  42 2.57  52 2.59  32 2.63  39 2.66  33 2.67  12 2.68   7 2.73  27 2.78
                             1 2.79  44 2.81  75 2.86  61 2.90
  30  0.268  0.613  0.306-  79 2.52  33 2.59  26 2.60  16 2.68  64 2.69  25 2.77   3 2.78   2 2.79
                            14 2.87  18 2.93  44 3.17  55 3.29
  31  0.191  0.261  0.224-  70 2.48  58 2.52  47 2.57  39 2.61  43 2.63   3 2.65  65 2.68  64 2.74
                            21 2.79  80 2.81  42 2.83  68 3.00  22 3.25
  32  0.700  0.539  0.222-  69 2.53  54 2.60  44 2.62  29 2.63  57 2.63  75 2.63  65 2.66  26 2.67
                            52 2.68  42 2.70  67 2.73  78 2.76
  33  0.033  0.622  0.311-  64 2.55  30 2.59  28 2.65  16 2.65  29 2.67   5 2.69  12 2.69  42 2.75
                             2 2.77   1 2.81  39 2.83   3 2.87
  34  0.791  0.885  0.059-  51 2.33  66 2.39  53 2.60  62 2.68  35 2.73  20 2.74  36 2.75  63 2.89

  35  0.043  0.865  0.057-  36 2.40  24 2.51  66 2.52  23 2.67  34 2.73  48 2.84  72 2.85  56 2.85
                            62 3.00
  36  0.042  0.658  0.084-  48 2.40  35 2.40  53 2.47  21 2.51  72 2.75  34 2.75  28 2.90
  37  0.624  0.211  0.138-  59 2.38  62 2.40  67 2.45  46 2.46  68 2.48  74 2.55  20 2.56  66 2.66
                            41 2.68  54 2.71  47 2.99  51 3.04
  38  0.377  0.954  0.136-  63 2.36  45 2.39  56 2.40  58 2.42  80 2.45  73 2.50  78 2.54  57 2.61
                            47 2.77  70 2.82  51 2.87  24 2.93
  39  0.029  0.372  0.317-   7 2.60  31 2.61   5 2.62  65 2.62  10 2.62  42 2.64  29 2.66  22 2.69
                            75 2.76   3 2.76  33 2.83  43 3.02
  40  0.983  0.354  0.043-  69 2.31  76 2.42  21 2.50  23 2.54  70 2.62  71 2.63  45 3.12
  41  0.866  0.206  0.135-  77 2.42  76 2.43  67 2.44  62 2.46  65 2.52  23 2.55  69 2.55  66 2.57
                            70 2.65  37 2.68  24 2.84  54 2.87
  42  0.948  0.521  0.217-  53 2.52  69 2.54  64 2.55  65 2.57  29 2.57  39 2.64  28 2.65  21 2.66
                            32 2.70  33 2.75  31 2.83  52 2.97
  43  0.302  0.106  0.321-  55 2.48  58 2.49  80 2.62  31 2.63   8 2.65  10 2.65  61 2.65  19 2.67
                            13 2.68   3 2.74  22 2.76  39 3.02
  44  0.541  0.630  0.318-  14 2.54  27 2.55  78 2.55  26 2.62  15 2.62  32 2.62  55 2.65  61 2.67
                            29 2.81  75 2.86  18 3.00  30 3.17
  45  0.285  0.111  0.053-  38 2.39  70 2.47  47 2.48  56 2.53  63 2.71  20 2.87  23 2.93  40 3.12

  46  0.535  0.367  0.050-  54 2.40  50 2.43  37 2.46  74 2.47  76 2.54  62 2.67  72 2.72  20 2.79
                            49 2.82
  47  0.359  0.209  0.135-  50 2.40  68 2.41  45 2.48  20 2.51  31 2.57  80 2.60  21 2.66  74 2.74
                            38 2.77  70 2.92  37 2.99
  48  0.180  0.691  0.158-  79 2.40  36 2.40  72 2.41  64 2.41  73 2.49  28 2.55  24 2.66  74 2.70
                            35 2.84  26 2.99
  49  0.521  0.625  0.052-  54 2.35  73 2.38  71 2.44  57 2.44  72 2.53  56 2.78  46 2.82  76 2.90
                            63 2.95
  50  0.315  0.374  0.056-  74 2.35  47 2.40  46 2.43  21 2.54  72 2.65  20 2.71
  51  0.642  0.932  0.141-  34 2.33  52 2.34  63 2.45  59 2.53  53 2.55  80 2.56  20 2.64  57 2.67
                            66 2.78  38 2.87  37 3.04
  52  0.683  0.786  0.223-  51 2.34  78 2.41  57 2.48  61 2.51   1 2.53  53 2.55  29 2.59  80 2.65
                            32 2.68  28 2.85  42 2.97  59 3.12
  53  0.830  0.681  0.129-  57 2.36  71 2.40  36 2.47  42 2.52  52 2.55  51 2.55  28 2.56  69 2.59
                            34 2.60  21 3.03
  54  0.609  0.460  0.130-  49 2.35  46 2.40  76 2.41  26 2.55  74 2.58  32 2.60  67 2.61  69 2.68
[...]
      5.63380      3.63292      1.23723         0.052951      0.045843     -0.002804
     12.43866      9.06023      3.09611         0.004546     -0.021111     -0.048102
     12.07766      7.63668      4.91324        -0.004988     -0.016515      0.024731
     13.13008      6.61689      2.83040        -0.050048      0.007670     -0.005949
      9.41148      4.47169      2.86934         0.023821     -0.003744      0.021755
      8.49718      8.52618      7.01029         0.025474      0.019731     -0.015142
      8.18243      8.58957      1.16315        -0.008269      0.002791     -0.021813
     10.79405      6.97057      2.90238        -0.016913      0.018284      0.051164
      2.82111      0.14512      5.04740        -0.156759     -0.066188     -0.008929
      8.14725      0.55026      4.88481        -0.023698     -0.013698      0.087279
      9.39638      1.20582      6.88629         0.010005      0.032929     -0.026367
[...]
      9.60048      2.82018      4.87865        -0.021470      0.028609      0.022913
      6.60502      2.54502      4.87077        -0.008901     -0.063204      0.082633
     12.08196      4.24602      2.88896         0.010506     -0.009155     -0.041210
      2.28916      1.82528      2.94996        -0.004693     -0.042945      0.040441
     11.76886      5.74999      1.05362         0.004173     -0.008311     -0.009863
      6.84033      5.98705      1.38644        -0.017777      0.004580      0.019400
      8.30437      7.12497      3.00063         0.010319      0.030557      0.029889
      6.85459      4.22009      3.15394        -0.049028     -0.020278      0.001417
     10.87930      3.56972      6.91520        -0.017782     -0.005111     -0.030253
     10.60151      3.45495      1.03917        -0.010768     -0.007422     -0.039960
     10.73179      0.68889      4.99664         0.010751     -0.027318     -0.089253
      9.67006      7.71157      4.99333         0.052498      0.109311      0.114096
      7.17143      7.81748      5.18228        -0.006613     -0.017027     -0.030807
      5.29940      0.29561      4.91544         0.146458     -0.063856     -0.003510
      4.63074      0.82461     10.21604        -0.020639     -0.021730      0.126958
    total drift:                                0.023578      0.034646      0.005253

  FREE ENERGIE OF THE ION-ELECTRON SYSTEM (eV)
  free  energy   TOTEN  =      -538.41473922 eV

  energy  without entropy=     -538.41473922  energy(sigma->0) =     -538.41473922

 d Force =-0.1005043E-02[-0.381E-02, 0.180E-02]  d Energy =-0.1179640E-02 0.175E-03
 d Force =-0.9721911E+01[-0.973E+01,-0.971E+01]  d Ewald  =-0.9722115E+01 0.204E-03

 Finite differences progress:
  Degree of freedom:   3/  3
  Displacement:        2/  2
  Total:               6/  6

 SECOND DERIVATIVES (NOT SYMMETRIZED)
              81X         81Y         81Z
 81X    -0.919578   -1.697438    1.012313
 81Y    -1.711813   -3.332658    1.607988
 81Z     0.998785    1.582515   -6.230470

 Eigenvectors and eigenvalues of the dynamical matrix

   1 f  =   42.404283 THz   266.433967 2PiTHz 1414.454584 cm-1   175.370081 meV
             X         Y         Z           dx          dy          dz
     13.671193  8.468302  6.692795            0           0           0
      5.212120  8.457361  6.586739            0           0           0
      5.174015  3.493431  6.841452            0           0           0
     15.147260  9.303967  8.926763            0           0           0
      3.823744  4.461734  9.016637            0           0           0
      6.721796  9.199343  8.842066            0           0           0
     12.253581  4.342244  9.048920            0           0           0
      9.544319  9.216041  9.214330            0           0           0
     10.915627  1.940650  8.927009            0           0           0
      2.491744  1.984860  9.028521            0           0           0
     12.372359  9.193258  9.081231            0           0           0
     13.749018  6.836570  9.042171            0           0           0
      5.283885  2.004735  9.189275            0           0           0
      8.092270  6.829982  8.909248            0           0           0
      9.499706  4.423129  8.978639            0           0           0
      5.254929  6.838634  8.958992            0           0           0
      8.150463  1.980378  9.043580            0           0           0
      8.096733  3.542848  6.758700            0           0           0
      6.648152  1.091594  6.900900            0           0           0
      6.688295  1.136239  1.168686            0           0           0
      3.544815  4.079031  2.606324            0           0           0
      1.248970  1.206644  6.732292            0           0           0
      0.891779  1.066852  0.946259            0           0           0
      6.656621  9.256763  3.212249            0           0           0
      6.698684  4.391395  8.990345            0           0           0
      8.211617  5.460551  4.885224            0           0           0
     10.920718  6.819752  9.068504            0           0           0
     14.890523  7.351400  4.544290            0           0           0
     12.415504  5.981816  6.874714            0           0           0
      6.448747  5.962275  6.724884            0           0           0
      3.610252  2.535671  4.929286            0           0           0
     10.876990  5.237100  4.877710            0           0           0
      3.865559  6.046706  6.841457            0           0           0
     13.839530  8.597276  1.298341            0           0           0
      5.335858  8.402881  1.254446            0           0           0
      4.162766  6.390812  1.850956            0           0           0
      8.191068  2.052729  3.033860            0           0           0
      9.581692  9.276024  2.994683            0           0           0
      2.416650  3.618298  6.976444            0           0           0
     13.017728  3.439534  0.942539            0           0           0
     10.870715  1.998388  2.967381            0           0           0
     13.568897  5.068175  4.770577            0           0           0
      3.984013  1.032522  7.058236            0           0           0
      9.607990  6.125460  6.994455            0           0           0
      3.816457  1.075428  1.161363            0           0           0
      8.061037  3.567708  1.100229            0           0           0
      5.203702  2.034191  2.978088            0           0           0
      5.895058  6.720214  3.475283            0           0           0
      9.353912  6.069883  1.148085            0           0           0
      5.633796  3.632923  1.237229            0           0           0
     12.438659  9.060229  3.096115            0           0           0
     12.077659  7.636682  4.913240            0           0           0
     13.130083  6.616886  2.830400            0           0           0
      9.411481  4.471689  2.869342            0           0           0
      8.497178  8.526179  7.010290            0           0           0
      8.182433  8.589571  1.163151            0           0           0
     10.794049  6.970573  2.902376            0           0           0
      2.821111  0.145122  5.047399            0           0           0
      8.147254  0.550263  4.884806            0           0           0
      9.396380  1.205820  6.886290            0           0           0
[...]
      9.600481  2.820176  4.878652            0           0           0
      6.605022  2.545022  4.870770            0           0           0
     12.081964  4.246017  2.888958            0           0           0
      2.289160  1.825282  2.949964            0           0           0
     11.768861  5.749988  1.053620            0           0           0
      6.840329  5.987054  1.386442            0           0           0
      8.304374  7.124975  3.000625            0           0           0
      6.854587  4.220090  3.153943            0           0           0
     10.879302  3.569716  6.915197            0           0           0
     10.601515  3.454949  1.039167            0           0           0
     10.731789  0.688887  4.996638            0           0           0
      9.670061  7.711567  4.993331            0           0           0
      7.171427  7.817478  5.182281            0           0           0
      5.299396  0.295606  4.915438            0           0           0
      4.630740  0.824613 10.231038    -0.252416   -0.447058    0.858153

[...]

   3 f  =    2.836179 THz    17.820235 2PiTHz   94.604730 cm-1    11.729496 meV
             X         Y         Z           dx          dy          dz
     13.671193  8.468302  6.692795            0           0           0
      5.212120  8.457361  6.586739            0           0           0
      5.174015  3.493431  6.841452            0           0           0
     15.147260  9.303967  8.926763            0           0           0
      3.823744  4.461734  9.016637            0           0           0
      6.721796  9.199343  8.842066            0           0           0
     12.253581  4.342244  9.048920            0           0           0
      9.544319  9.216041  9.214330            0           0           0
     10.915627  1.940650  8.927009            0           0           0
      2.491744  1.984860  9.028521            0           0           0
     12.372359  9.193258  9.081231            0           0           0
     13.749018  6.836570  9.042171            0           0           0
      5.283885  2.004735  9.189275            0           0           0
      8.092270  6.829982  8.909248            0           0           0
      9.499706  4.423129  8.978639            0           0           0
      5.254929  6.838634  8.958992            0           0           0
      8.150463  1.980378  9.043580            0           0           0
      8.096733  3.542848  6.758700            0           0           0
      6.648152  1.091594  6.900900            0           0           0
      6.688295  1.136239  1.168686            0           0           0
      3.544815  4.079031  2.606324            0           0           0
      1.248970  1.206644  6.732292            0           0           0
      0.891779  1.066852  0.946259            0           0           0
      6.656621  9.256763  3.212249            0           0           0
      6.698684  4.391395  8.990345            0           0           0
      8.211617  5.460551  4.885224            0           0           0
     10.920718  6.819752  9.068504            0           0           0
     14.890523  7.351400  4.544290            0           0           0
     12.415504  5.981816  6.874714            0           0           0
      6.448747  5.962275  6.724884            0           0           0
      3.610252  2.535671  4.929286            0           0           0
     10.876990  5.237100  4.877710            0           0           0
      3.865559  6.046706  6.841457            0           0           0
     13.839530  8.597276  1.298341            0           0           0
      5.335858  8.402881  1.254446            0           0           0
      4.162766  6.390812  1.850956            0           0           0
      8.191068  2.052729  3.033860            0           0           0
      9.581692  9.276024  2.994683            0           0           0
      2.416650  3.618298  6.976444            0           0           0
     13.017728  3.439534  0.942539            0           0           0
     10.870715  1.998388  2.967381            0           0           0
     13.568897  5.068175  4.770577            0           0           0
      3.984013  1.032522  7.058236            0           0           0
      9.607990  6.125460  6.994455            0           0           0
      3.816457  1.075428  1.161363            0           0           0
      8.061037  3.567708  1.100229            0           0           0
      5.203702  2.034191  2.978088            0           0           0
      5.895058  6.720214  3.475283            0           0           0
      9.353912  6.069883  1.148085            0           0           0
      5.633796  3.632923  1.237229            0           0           0
     12.438659  9.060229  3.096115            0           0           0
     12.077659  7.636682  4.913240            0           0           0
     13.130083  6.616886  2.830400            0           0           0
      9.411481  4.471689  2.869342            0           0           0
      8.497178  8.526179  7.010290            0           0           0
      8.182433  8.589571  1.163151            0           0           0
     10.794049  6.970573  2.902376            0           0           0
      2.821111  0.145122  5.047399            0           0           0
      8.147254  0.550263  4.884806            0           0           0
      9.396380  1.205820  6.886290            0           0           0
[...]
      9.600481  2.820176  4.878652            0           0           0
      6.605022  2.545022  4.870770            0           0           0
     12.081964  4.246017  2.888958            0           0           0
      2.289160  1.825282  2.949964            0           0           0
     11.768861  5.749988  1.053620            0           0           0
      6.840329  5.987054  1.386442            0           0           0
      8.304374  7.124975  3.000625            0           0           0
      6.854587  4.220090  3.153943            0           0           0
     10.879302  3.569716  6.915197            0           0           0
     10.601515  3.454949  1.039167            0           0           0
     10.731789  0.688887  4.996638            0           0           0
      9.670061  7.711567  4.993331            0           0           0
      7.171427  7.817478  5.182281            0           0           0
      5.299396  0.295606  4.915438            0           0           0
      4.630740  0.824613 10.231038     0.893875   -0.447319    0.029891

 Finite differences POTIM=  1.500000000000000E-002
  LATTYP: Found a hexagonal cell.
 ALAT       =    11.2227001190
 C/A-ratio  =     1.9603125600

  Lattice vectors:

 A1 = (   5.6113500595,  -9.7191434021,   0.0000000000)
 A2 = ( -11.2227001190,   0.0000000000,   0.0000000000)
 A3 = (   0.0000000000,   0.0000000000, -22.0000000000)

Analysis of symmetry for initial positions (statically):
 Subroutine PRICEL returns:
 Original cell was already a primitive cell.

[...]

The static configuration has the point symmetry C_1 .

Analysis of symmetry for dynamics (positions and initial velocities):
 Subroutine PRICEL returns:
 Original cell was already a primitive cell.

[...]

The dynamic configuration has the point symmetry C_1 .

Analysis of constrained symmetry for selective dynamics:
 Subroutine PRICEL returns:
 Original cell was already a primitive cell.

[...]

The constrained configuration has the point symmetry C_1 .

Analysis of structural, dynamic, and magnetic symmetry:
 Subroutine PRICEL returns:
 Original cell was already a primitive cell.

 Routine SETGRP: Setting up the symmetry group for a
 hexagonal supercell.

 Subroutine GETGRP returns: Found  1 space group operations
 (whereof  1 operations were pure point group operations)
 out of a pool of 24 trial point group operations.

The magnetic configuration has the point symmetry C_1 .

 Subroutine INISYM returns: Found  1 space group operations
 (whereof  1 operations are pure point group operations),
 and found     1 'primitive' translations

 KPOINTS: mesh auto

Automatic generation of k-mesh.
Space group operators:
 irot       det(A)        alpha          n_x          n_y          n_z        tau_x        tau_y        tau_z
    1     1.000000     0.000000     1.000000     0.000000     0.000000     0.000000     0.000000     0.000000

 Subroutine IBZKPT returns following result:

 Found      4 irreducible k-points:

 Following reciprocal coordinates:
            Coordinates               Weight
  0.000000  0.000000  0.000000      1.000000
  0.500000  0.000000  0.000000      1.000000
  0.000000  0.500000  0.000000      1.000000
  0.500000  0.500000  0.000000      1.000000

 Following cartesian coordinates:
            Coordinates               Weight
  0.000000  0.000000  0.000000      1.000000
  0.044553 -0.025722  0.000000      1.000000
  0.000000  0.051445  0.000000      1.000000
  0.044553  0.025722  0.000000      1.000000

 TETIRR: Found     12 inequivalent tetrahedra from       24
 BZINTS: Fermi energy:  1.362723;754.000000 electrons
         Band energy:***********;  BLOECHL correction: -0.217795