 vasp.5.4.4.18Apr17-6-g9f103f2a35 (build Nov 30 2020 22:55:02) complex

 executed on             LinuxIFC date 2021.11.27  11:13:07

 INCAR:
 POTCAR:    PAW_PBE Pt 04Feb2005
 POTCAR:    PAW_PBE H 15Jun2001
 POTCAR:    PAW_PBE Pt 04Feb2005
   VRHFIN =Pt: s1d9

   TITEL  = PAW_PBE Pt 04Feb2005
   POMASS =  195.080; ZVAL   =   10.000    mass and valenz
   ENMAX  =  230.283; ENMIN  =  172.712 eV

 POTCAR:    PAW_PBE H 15Jun2001
   VRHFIN =H: ultrasoft test

   TITEL  = PAW_PBE H 15Jun2001
   POMASS =    1.000; ZVAL   =    1.000    mass and valenz
   ENMAX  =  250.000; ENMIN  =  200.000 eV

 Optimization of the real space projectors (new method)

 maximal supplied QI-value         = 14.36
 optimisation between [QCUT,QGAM] = [ 11.92, 23.98] = [ 39.79,161.09] Ry
 Optimized for a Real-space Cutoff    1.49 Angstroem

   l    n(q)    QCUT    max X(q) W(low)/X(q) W(high)/X(q)  e(spline)
   2     10    11.920    66.195    0.79E-04    0.18E-03    0.24E-06
   2     10    11.920    64.643    0.81E-04    0.19E-03    0.24E-06
   0     11    11.920    95.520    0.28E-04    0.54E-04    0.18E-06
   0     11    11.920    63.403    0.27E-04    0.52E-04    0.17E-06
   1     10    11.920    19.961    0.18E-04    0.11E-03    0.23E-06
   1     10    11.920    13.289    0.25E-04    0.87E-04    0.19E-06
 Optimization of the real space projectors (new method)

 maximal supplied QI-value         = 34.20
 optimisation between [QCUT,QGAM] = [ 11.97, 23.94] = [ 40.13,160.53] Ry
 Optimized for a Real-space Cutoff    1.18 Angstroem

   l    n(q)    QCUT    max X(q) W(low)/X(q) W(high)/X(q)  e(spline)
   0      8    11.971    19.460    0.15E-03    0.31E-03    0.25E-06
   0      8    11.971    12.209    0.13E-03    0.29E-03    0.25E-06
   1      8    11.971     4.655    0.22E-03    0.24E-03    0.21E-06
  PAW_PBE Pt 04Feb2005                  :
  PAW_PBE H 15Jun2001                   :

 POSCAR: Pt111
  positions in direct lattice
  velocities in cartesian coordinates
 exchange correlation table for  LEXCH =        8
   RHO(1)=    0.500       N(1)  =     2000
   RHO(2)=  100.500       N(2)  =     4000

 ion  position               nearest neighbor table
   1  0.785  0.869  0.327-  71 2.74  20 2.74  55 2.74  35 2.79  34 2.79  27 2.79  43 2.81  72 2.81
                             2 2.81   3 2.81  73 2.81  56 2.81
   2  0.035  0.869  0.327-  65 2.74  68 2.74  55 2.74  39 2.77  29 2.79  27 2.79  23 2.80  47 2.80
                             1 2.81   3 2.81  72 2.81  57 2.81
   3  0.035  0.619  0.326-  55 2.73  76 2.74  12 2.74  39 2.78  28 2.78  35 2.79  15 2.80  56 2.81
                             9 2.81   2 2.81   1 2.81  57 2.81
   4  0.786  0.868  0.023-  21 2.78  78 2.79  19 2.79  44 2.80   6 2.80  75 2.80  58 2.80  74 2.81
                             5 2.81
   5  0.036  0.868  0.023-  49 2.78  70 2.78  78 2.79  48 2.80   6 2.80  59 2.80  24 2.80  74 2.81
                             4 2.81
   6  0.036  0.618  0.023-  46 2.78  70 2.79  21 2.79   5 2.80  59 2.80   4 2.80  10 2.81  58 2.81
                            18 2.81
   7  0.619  0.202  0.126-  71 2.73  80 2.74  79 2.74  42 2.78  44 2.79  74 2.79  11 2.80  53 2.80
                            61 2.81  78 2.81  19 2.81  22 2.81
   8  0.369  0.951  0.126-  69 2.74  26 2.74  66 2.74  24 2.78  16 2.79  75 2.79  25 2.80  60 2.80
                            49 2.81  19 2.81  54 2.81  53 2.81
   9  0.035  0.369  0.326-  77 2.73  12 2.74  62 2.74  30 2.77  28 2.78  33 2.79  15 2.80  56 2.80
                            47 2.80  13 2.81   3 2.81  63 2.81
  10  0.036  0.369  0.023-  54 2.78  46 2.78  45 2.79  58 2.80   6 2.81  64 2.81  18 2.81  48 2.81
                            16 2.81
  11  0.869  0.202  0.126-  77 2.73  65 2.74  79 2.75  64 2.78  74 2.78  48 2.79   7 2.80  78 2.80
                            45 2.81  54 2.81  22 2.81  49 2.81
  12  0.952  0.535  0.226-  21 2.73  45 2.74   9 2.74   3 2.74  46 2.74  56 2.75  62 2.80  55 2.81
                            77 2.81  20 2.81  76 2.81  67 2.81
  13  0.285  0.119  0.326-  26 2.73  62 2.74  69 2.74  31 2.77  36 2.78  33 2.79  73 2.80  15 2.80
                            47 2.80   9 2.81  43 2.81  23 2.81
  14  0.535  0.619  0.328-  51 2.75  66 2.76  67 2.76  63 2.80  23 2.80  57 2.80  41 2.80  56 2.81
                            73 2.81  52 2.84  38 2.85  37 2.85
  15  0.285  0.369  0.326-  76 2.73  80 2.74  62 2.74  50 2.76  36 2.79  28 2.80   9 2.80   3 2.80
                            13 2.80  43 2.80  57 2.81  41 2.81
  16  0.287  0.118  0.023-  54 2.78  53 2.78   8 2.79  75 2.80  44 2.81  24 2.81  18 2.81  48 2.81
                            10 2.81
  17  0.536  0.618  0.023-  25 2.78  22 2.78  60 2.79  64 2.80  24 2.81  58 2.81  42 2.81  59 2.81
                            75 2.81
  18  0.286  0.368  0.023-  53 2.78  46 2.79  61 2.79  59 2.80  42 2.80   6 2.81  44 2.81  10 2.81
                            16 2.81
  19  0.619  0.952  0.126-  69 2.74  71 2.74  20 2.74  75 2.79  44 2.79   4 2.79  21 2.80  25 2.81
                            53 2.81  78 2.81   7 2.81   8 2.81
  20  0.702  0.785  0.226-  56 2.74  25 2.74   1 2.74  19 2.74  73 2.74  21 2.74  67 2.81  66 2.81
                            12 2.81  69 2.81  55 2.81  71 2.81
  21  0.869  0.702  0.126-  12 2.73  55 2.74  20 2.74   4 2.78  58 2.78   6 2.79  19 2.80  46 2.81
                            78 2.81  25 2.81  70 2.81  45 2.81
  22  0.619  0.452  0.126-  79 2.73  67 2.74  51 2.75  17 2.78  42 2.79  64 2.79  61 2.80  60 2.80
                            45 2.80  25 2.80  11 2.81   7 2.81
  23  0.285  0.868  0.328-  68 2.74  66 2.74  26 2.76  31 2.78  29 2.79  14 2.80  57 2.80   2 2.80
                            73 2.80  37 2.81  13 2.81  47 2.81
  24  0.286  0.868  0.023-   8 2.78  49 2.79  60 2.79  59 2.80   5 2.80  17 2.81  16 2.81  48 2.81
                            75 2.81
  25  0.619  0.702  0.126-  20 2.74  67 2.74  66 2.75  17 2.78  75 2.79  58 2.79   8 2.80  45 2.80
                            60 2.80  22 2.80  19 2.81  21 2.81
  26  0.202  0.035  0.226-  13 2.73  49 2.73   8 2.74  47 2.74  54 2.74  23 2.76  62 2.80  65 2.80
                            68 2.80  69 2.81  66 2.81  77 2.81
  27  0.868  0.953  0.430-  96 1.84  95 1.85  86 1.86  39 2.77  40 2.78  72 2.79   1 2.79   2 2.79
                            29 2.79  32 2.79  35 2.80  34 2.80
  28  0.116  0.453  0.429-  88 1.83  89 1.86  87 1.86  50 2.74  30 2.76   9 2.78   3 2.78  35 2.79
                            15 2.80  33 2.80  39 2.82  36 2.82
  29  0.117  0.954  0.430-  96 1.83  93 1.83  83 1.86  37 2.77  32 2.78  47 2.79  23 2.79   2 2.79
                            27 2.79  33 2.79  39 2.81  31 2.81
  30  0.871  0.451  0.430-  88 1.84  92 1.84  82 1.88  28 2.76   9 2.77  63 2.78  33 2.78  56 2.79
                            38 2.81  32 2.81  35 2.82  52 2.83
  31  0.366  0.956  0.430-  94 1.83  93 1.83  84 1.88  36 2.76  13 2.77  23 2.78  33 2.78  73 2.79
                            37 2.81  29 2.81  34 2.82  52 2.83
  32  0.869  0.202  0.430-  92 1.83  96 1.84  91 1.85  38 2.77  29 2.78  63 2.78  72 2.79  47 2.79
                            33 2.79  27 2.79  30 2.81  40 2.81
  33  0.117  0.202  0.429-  89 1.85  92 1.85  93 1.85  30 2.78  31 2.78  47 2.78   9 2.79  13 2.79
                            32 2.79  29 2.79  28 2.80  36 2.80
  34  0.618  0.954  0.430-  95 1.82  94 1.85  85 1.87  52 2.74  40 2.76  43 2.78  36 2.79   1 2.79
                            73 2.79  27 2.80  31 2.82  35 2.82
  35  0.870  0.703  0.430-  86 1.83  88 1.85  85 1.86  52 2.74  39 2.76   3 2.79   1 2.79  28 2.79
                            56 2.79  27 2.80  30 2.82  34 2.82
  36  0.368  0.201  0.429-  94 1.84  89 1.85  90 1.85  50 2.74  31 2.76  13 2.78  43 2.79  34 2.79
                            15 2.79  33 2.80  40 2.82  28 2.82
  37  0.363  0.707  0.434-  83 1.75  84 1.80  81 1.93  29 2.77  31 2.81  39 2.81  23 2.81  57 2.83
                            14 2.85  38 2.91  52 2.91  50 2.92
  38  0.622  0.448  0.434-  91 1.77  82 1.81  81 1.93  32 2.77  30 2.81  40 2.81  63 2.81  41 2.83
                            14 2.85  37 2.91  52 2.91  50 2.92
  39  0.114  0.705  0.430-  86 1.81  83 1.86  87 1.87  35 2.76  27 2.77   2 2.77   3 2.78  57 2.79
                            29 2.81  37 2.81  28 2.82  50 2.84
  40  0.620  0.199  0.430-  95 1.83  91 1.86  90 1.86  34 2.76  27 2.78  72 2.78  43 2.78  41 2.78
                            32 2.81  38 2.81  36 2.82  50 2.84
  41  0.535  0.370  0.328-  51 2.74  79 2.76  80 2.76  40 2.78  57 2.80  63 2.80  14 2.80  43 2.81
                            15 2.81  72 2.81  50 2.82  38 2.83
  42  0.536  0.368  0.023-   7 2.78  22 2.79  61 2.79  64 2.80  74 2.80  18 2.80  44 2.80  17 2.81
                            59 2.81
  43  0.535  0.119  0.326-  80 2.73  71 2.74  69 2.74  40 2.78  34 2.78  36 2.79  15 2.80  73 2.81
                             1 2.81  72 2.81  41 2.81  13 2.81
  44  0.537  0.118  0.023-  19 2.79  53 2.79   7 2.79   4 2.80  74 2.80  42 2.80  75 2.80  16 2.81
                            18 2.81
  45  0.868  0.452  0.126-  77 2.73  12 2.74  67 2.75  58 2.78  64 2.78  10 2.79  25 2.80  22 2.80
                            11 2.81  21 2.81  54 2.81  46 2.81
  46  0.119  0.452  0.126-  62 2.73  12 2.74  76 2.74   6 2.78  10 2.78  18 2.79  70 2.80  21 2.81
                            53 2.81  61 2.81  54 2.81  45 2.81
  47  0.035  0.119  0.327-  65 2.73  77 2.74  26 2.74  33 2.78  29 2.79  32 2.79   2 2.80  72 2.80
                            13 2.80   9 2.80  23 2.81  63 2.82
  48  0.036  0.118  0.023-  54 2.77  49 2.79  11 2.79   5 2.80  74 2.80  24 2.81  64 2.81  16 2.81
                            10 2.81
  49  0.119  0.952  0.126-  26 2.73  68 2.74  65 2.74   5 2.78  48 2.79  24 2.79  70 2.80  78 2.80
                             8 2.81  60 2.81  54 2.81  11 2.81
  50  0.363  0.447  0.431-  81 1.75  87 1.78  90 1.80  36 2.74  28 2.74  15 2.76  57 2.82  41 2.82
                            40 2.84  39 2.84  37 2.92  38 2.92
  51  0.452  0.536  0.227-  41 2.74  57 2.74  60 2.74  61 2.75  22 2.75  14 2.75  68 2.80  66 2.80
                            67 2.80  79 2.80  76 2.80  80 2.80
  52  0.623  0.708  0.431-  85 1.74  84 1.88  82 1.88  35 2.74  34 2.74  73 2.79  56 2.79  30 2.83
                            31 2.83  14 2.84  38 2.91  37 2.91
  53  0.369  0.202  0.126-  69 2.73  62 2.74  80 2.74  18 2.78  16 2.78  44 2.79   7 2.80  19 2.81
                            46 2.81  61 2.81  54 2.81   8 2.81
  54  0.119  0.202  0.125-  62 2.74  26 2.74  77 2.75  48 2.77  10 2.78  16 2.78  11 2.81  49 2.81
                            45 2.81  46 2.81  53 2.81   8 2.81
  55  0.952  0.786  0.226-   3 2.73  78 2.74   2 2.74  21 2.74  70 2.74   1 2.74  12 2.81  71 2.81
                            65 2.81  76 2.81  20 2.81  68 2.81
  56  0.785  0.619  0.327-  67 2.73  20 2.74  12 2.75  52 2.79  30 2.79  35 2.79   9 2.80  63 2.80
                            14 2.81   3 2.81   1 2.81  73 2.81
  57  0.285  0.619  0.328-  51 2.74  68 2.75  76 2.76  39 2.79  41 2.80  23 2.80  14 2.80   3 2.81
                            15 2.81   2 2.81  50 2.82  37 2.83
  58  0.786  0.618  0.023-  45 2.78  21 2.78  25 2.79  10 2.80   4 2.80   6 2.81  75 2.81  17 2.81
[...]
   -.662E+00 0.685E+00 -.123E+04   0.672E+00 -.681E+00 0.123E+04   0.732E-02 -.252E-01 0.682E+00   -.910E-02 0.750E-02 -.125E-01
   0.203E+00 0.111E+00 0.260E+04   -.197E+00 -.110E+00 -.260E+04   -.855E-02 0.489E-02 -.142E+01   -.874E-03 -.221E-02 0.949E-03
   -.156E+00 0.190E+00 0.260E+04   0.154E+00 -.196E+00 -.260E+04   -.678E-02 0.457E-02 -.142E+01   0.302E-02 0.161E-02 0.751E-03
   0.283E-01 0.800E-01 0.260E+04   -.211E-01 -.746E-01 -.260E+04   -.954E-02 0.431E-02 -.143E+01   -.141E-02 -.368E-02 -.135E-02
   -.726E-01 -.557E+00 0.135E+04   0.733E-01 0.577E+00 -.135E+04   -.435E-02 0.214E-02 -.752E+00   0.337E-02 -.159E-01 -.169E-01
   0.181E-01 0.104E+01 0.135E+04   -.172E-01 -.103E+01 -.135E+04   -.101E-01 -.190E-01 -.756E+00   0.609E-02 0.445E-02 -.247E-01
   -.325E+00 0.176E+00 -.123E+04   0.311E+00 -.160E+00 0.123E+04   0.207E-01 -.195E-01 0.674E+00   0.219E-02 -.476E-02 -.912E-02
   0.147E+00 -.186E+00 0.260E+04   -.145E+00 0.193E+00 -.260E+04   -.760E-02 0.443E-02 -.144E+01   0.172E-02 -.528E-02 -.340E-02
   0.863E+00 -.712E+00 0.135E+04   -.857E+00 0.721E+00 -.135E+04   -.965E-02 0.154E-01 -.755E+00   -.589E-02 -.122E-01 -.175E-01
   0.289E+00 -.178E+00 0.538E+02   -.298E+00 0.177E+00 -.539E+02   -.159E-01 0.959E-03 0.721E-01   0.137E-01 0.171E-02 -.283E-02
   -.208E+00 -.401E+00 -.123E+04   0.215E+00 0.383E+00 0.123E+04   -.315E-02 0.227E-01 0.669E+00   -.422E-02 0.438E-02 -.988E-02
   0.649E+00 0.159E+00 -.123E+04   -.668E+00 -.172E+00 0.123E+04   0.868E-02 0.499E-02 0.736E+00   0.633E-02 0.517E-02 0.201E-01
   -.588E+00 -.237E+00 -.123E+04   0.618E+00 0.254E+00 0.123E+04   -.108E-01 -.342E-02 0.697E+00   -.178E-01 -.103E-01 -.632E-02
   -.101E+00 0.931E-01 0.260E+04   0.113E+00 -.105E+00 -.260E+04   -.520E-02 0.740E-02 -.144E+01   -.478E-02 0.406E-02 -.402E-02
   0.131E+00 -.144E+00 0.260E+04   -.130E+00 0.137E+00 -.260E+04   -.976E-02 0.784E-02 -.142E+01   0.539E-02 0.128E-02 -.947E-03
   -.848E-02 0.210E-01 0.260E+04   0.310E-01 -.149E-01 -.260E+04   -.171E-01 -.149E-03 -.143E+01   -.890E-02 -.334E-02 -.282E-02
   0.217E+00 0.204E+00 0.135E+04   -.223E+00 -.199E+00 -.135E+04   -.112E-01 -.397E-02 -.749E+00   0.130E-01 -.345E-02 -.123E-01
   0.911E+00 0.388E+00 0.544E+02   -.929E+00 -.394E+00 -.545E+02   -.165E-01 -.141E-01 0.838E-01   0.234E-01 0.137E-01 -.118E-01
   0.415E+00 0.126E+00 0.135E+04   -.414E+00 -.135E+00 -.135E+04   -.960E-02 -.367E-02 -.744E+00   0.450E-02 0.121E-01 -.110E-01
   0.614E+00 -.703E+00 0.135E+04   -.612E+00 0.709E+00 -.135E+04   -.177E-01 0.737E-02 -.771E+00   0.641E-02 -.616E-02 -.317E-01
   -.450E+00 0.110E+01 -.123E+04   0.454E+00 -.113E+01 0.123E+04   -.491E-02 0.139E-01 0.716E+00   -.123E-02 0.104E-01 0.250E-02
   -.185E+00 0.876E-01 0.260E+04   0.189E+00 -.111E+00 -.260E+04   -.774E-02 0.194E-01 -.143E+01   -.103E-02 0.703E-02 -.238E-02
   0.609E+00 0.538E+00 0.135E+04   -.618E+00 -.544E+00 -.135E+04   -.107E-01 -.481E-02 -.768E+00   0.120E-01 0.637E-02 -.278E-01
   -.290E+00 0.122E+01 0.535E+02   0.292E+00 -.123E+01 -.536E+02   0.459E-02 -.291E-01 0.712E-01   -.229E-02 0.227E-01 0.386E-02
   0.179E+00 0.415E-01 -.247E+04   -.203E+00 -.575E-01 0.247E+04   0.128E-01 0.120E-01 -.143E+00   0.453E-02 0.362E-02 -.705E-03
   -.700E+00 0.114E+01 -.247E+04   0.728E+00 -.113E+01 0.247E+04   -.107E-01 -.129E-01 -.135E+00   -.576E-02 -.207E-01 -.580E-02
   -.594E+00 0.520E-01 -.247E+04   0.587E+00 -.855E-01 0.247E+04   0.214E-01 0.146E-01 -.156E+00   -.793E-02 0.117E-01 -.484E-02
   -.659E+00 0.862E-01 -.247E+04   0.630E+00 -.848E-01 0.247E+04   0.343E-01 0.927E-02 -.167E+00   -.253E-02 -.624E-02 -.624E-02
   -.146E-02 -.581E+00 -.247E+04   -.246E-02 0.556E+00 0.247E+04   0.161E-01 0.250E-01 -.167E+00   -.818E-02 0.191E-02 -.561E-02
   -.253E+00 -.173E+00 -.247E+04   0.224E+00 0.190E+00 0.247E+04   0.184E-01 -.893E-03 -.156E+00   0.730E-02 -.127E-01 -.245E-02
   -.104E+01 -.679E+00 -.247E+04   0.103E+01 0.663E+00 0.247E+04   0.295E-01 0.248E-01 -.107E+00   0.718E-02 0.348E-02 -.883E-02
   -.162E+00 0.239E-01 -.247E+04   0.119E+00 -.458E-01 0.247E+04   0.534E-01 0.111E-01 -.149E+00   0.893E-02 -.477E-02 -.642E-02
   -.213E-01 -.102E+00 -.247E+04   -.191E-01 0.719E-01 0.247E+04   0.347E-01 0.469E-01 -.152E+00   -.123E-02 0.932E-02 -.551E-02
   0.943E+00 -.104E+01 -.247E+04   -.903E+00 0.106E+01 0.247E+04   -.333E-01 -.104E-01 -.149E+00   -.204E-01 0.536E-02 -.224E-02
   -.294E+00 0.739E+00 -.247E+04   0.285E+00 -.750E+00 0.247E+04   0.317E-01 -.177E-01 -.138E+00   -.458E-02 0.538E-02 -.511E-02
   0.353E+00 -.968E+00 -.247E+04   -.371E+00 0.957E+00 0.247E+04   0.108E-01 0.498E-01 -.149E+00   0.254E-02 -.494E-02 -.468E-02
   -.782E+00 0.746E+00 -.247E+04   0.780E+00 -.769E+00 0.247E+04   0.354E-01 0.187E-01 -.172E+00   -.103E-01 0.874E-02 0.954E-03
   0.246E+00 -.844E+00 -.247E+04   -.264E+00 0.857E+00 0.247E+04   0.334E-01 0.176E-01 -.168E+00   0.154E-02 -.169E-01 0.234E-02
   0.157E+00 -.133E+01 -.123E+04   -.157E+00 0.134E+01 0.123E+04   0.624E-02 0.145E-01 0.739E+00   0.220E-02 -.103E-01 0.546E-02
   0.508E-01 -.210E+00 0.260E+04   -.468E-01 0.211E+00 -.260E+04   -.953E-02 0.224E-02 -.142E+01   0.189E-02 -.318E-02 -.442E-03
   0.395E+00 -.101E+01 -.123E+04   -.388E+00 0.101E+01 0.123E+04   -.120E-01 0.119E-01 0.682E+00   -.167E-03 -.111E-01 -.132E-01
   0.173E+00 -.264E+00 0.260E+04   -.159E+00 0.258E+00 -.260E+04   -.930E-02 0.981E-02 -.143E+01   -.421E-02 -.334E-02 -.959E-03
   0.108E+01 -.773E+00 0.135E+04   -.108E+01 0.774E+00 -.135E+04   -.229E-01 0.480E-02 -.754E+00   0.671E-02 0.138E-02 -.252E-01
   -.767E+00 -.509E+00 0.135E+04   0.771E+00 0.508E+00 -.135E+04   0.873E-02 0.467E-02 -.749E+00   -.398E-02 0.183E-02 -.171E-01
   -.533E+00 -.362E+00 -.123E+04   0.520E+00 0.358E+00 0.123E+04   0.231E-01 0.794E-02 0.672E+00   -.880E-03 -.125E-02 -.526E-02
   -.160E-01 -.173E+00 0.260E+04   0.734E-02 0.160E+00 -.260E+04   -.586E-02 0.967E-02 -.144E+01   0.635E-02 0.207E-02 -.448E-02
   -.333E+00 0.104E+01 0.135E+04   0.347E+00 -.104E+01 -.135E+04   0.528E-02 -.136E-01 -.758E+00   -.153E-01 -.438E-03 -.204E-01
   0.130E+01 0.587E+00 -.247E+04   -.124E+01 -.546E+00 0.247E+04   -.840E-01 -.533E-01 -.140E+00   0.327E-02 0.420E-02 -.168E-04
   -.537E+00 -.213E+00 0.548E+02   0.544E+00 0.219E+00 -.549E+02   0.932E-02 0.113E-02 0.966E-01   -.922E-02 -.336E-02 -.153E-01
   -.514E-01 0.875E-02 -.247E+04   -.161E-01 -.469E-01 0.247E+04   0.556E-01 0.310E-01 -.163E+00   0.104E-01 0.469E-02 -.404E-02
   -.661E+00 -.259E+00 0.135E+04   0.663E+00 0.262E+00 -.135E+04   0.617E-02 0.754E-02 -.748E+00   -.133E-02 -.454E-02 -.143E-01
   -.213E+00 0.112E+00 0.135E+04   0.208E+00 -.117E+00 -.135E+04   0.129E-02 0.243E-02 -.741E+00   0.331E-02 0.303E-02 -.164E-01
   -.349E+00 0.502E+00 0.548E+02   0.356E+00 -.513E+00 -.549E+02   0.367E-02 -.678E-02 0.856E-01   -.661E-02 0.113E-01 -.159E-01
   0.957E+00 0.357E+00 -.123E+04   -.983E+00 -.352E+00 0.123E+04   0.916E-02 -.191E-01 0.695E+00   0.966E-02 0.534E-02 0.924E-03
   -.118E+01 0.657E+00 -.123E+04   0.119E+01 -.664E+00 0.123E+04   0.185E-01 -.498E-02 0.735E+00   -.912E-02 0.994E-02 0.606E-02
   0.232E+00 0.822E-01 0.260E+04   -.234E+00 -.764E-01 -.260E+04   -.224E-02 0.144E-02 -.142E+01   0.352E-02 -.311E-02 -.298E-02
   -.147E+00 -.367E-01 0.260E+04   0.160E+00 0.285E-01 -.260E+04   -.951E-02 0.822E-02 -.142E+01   -.539E-02 0.333E-02 -.116E-03
   -.167E+00 0.933E+00 0.135E+04   0.177E+00 -.933E+00 -.135E+04   -.246E-02 -.147E-01 -.767E+00   -.572E-02 0.618E-02 -.298E-01
[...]
   0.812E-01 0.814E-01 -.305E+03   -.869E-01 -.959E-01 0.306E+03   0.618E-02 0.790E-02 -.149E+01   0.195E-03 -.532E-04 0.646E-03
   0.144E+00 -.117E-01 -.305E+03   -.162E+00 0.821E-02 0.306E+03   0.138E-01 0.178E-02 -.149E+01   0.885E-04 0.144E-03 0.537E-03
   0.105E+00 0.106E+00 -.305E+03   -.135E+00 -.129E+00 0.306E+03   0.186E-01 0.140E-01 -.148E+01   -.444E-03 -.319E-03 -.798E-04
   0.199E+00 0.641E-01 -.305E+03   -.221E+00 -.748E-01 0.306E+03   0.165E-01 0.532E-02 -.148E+01   0.381E-03 0.621E-04 0.490E-04
   -.968E-01 0.294E+00 -.304E+03   0.133E+00 -.317E+00 0.306E+03   -.180E-01 0.148E-01 -.148E+01   0.136E-03 0.187E-03 0.112E-02
   -.147E+00 0.218E+00 -.305E+03   0.155E+00 -.236E+00 0.306E+03   -.602E-02 0.125E-01 -.148E+01   -.214E-03 -.364E-03 0.888E-03
   0.134E-01 0.162E-01 -.305E+03   -.130E-01 -.210E-01 0.306E+03   0.238E-02 0.342E-02 -.148E+01   -.555E-04 -.158E-03 -.732E-03
   0.136E+00 -.276E+00 -.305E+03   -.126E+00 0.321E+00 0.306E+03   -.380E-02 -.262E-01 -.148E+01   -.320E-04 -.135E-03 0.122E-02
   0.749E-01 0.155E+00 -.305E+03   -.843E-01 -.166E+00 0.306E+03   0.668E-02 0.105E-01 -.149E+01   0.125E-03 0.166E-03 0.804E-03
   -.257E+00 0.141E+00 -.305E+03   0.265E+00 -.156E+00 0.306E+03   -.728E-02 0.114E-01 -.148E+01   0.132E-03 -.949E-04 0.215E-03
   -.208E-01 -.186E+00 -.305E+03   0.149E-01 0.186E+00 0.306E+03   0.428E-02 -.390E-02 -.148E+01   0.104E-03 0.765E-04 0.142E-03
   0.107E+00 -.233E+00 -.305E+03   -.113E+00 0.249E+00 0.306E+03   0.507E-02 -.117E-01 -.148E+01   -.518E-03 0.127E-03 0.912E-03
   0.112E+00 0.166E+00 -.305E+03   -.127E+00 -.183E+00 0.306E+03   0.976E-02 0.129E-01 -.148E+01   0.243E-03 0.287E-03 -.846E-04
   0.666E-01 0.184E-01 -.305E+03   -.780E-01 -.243E-01 0.306E+03   0.881E-02 0.331E-02 -.148E+01   0.214E-03 0.487E-04 -.453E-03
   -.158E+00 -.199E+00 0.492E+02   0.208E-12 0.153E-12 -.421E-11   0.156E+00 0.212E+00 -.486E+02   0.493E-02 -.180E-02 -.555E+00

 POSITION                                       TOTAL-FORCE (eV/Angst)
     13.68542      8.44561      7.17968        -0.009681     -0.005094     -0.009871
      5.26739      8.44429      7.17885         0.004992     -0.005331     -0.003003
      3.86362      6.01658      7.17848         0.007724     -0.013551     -0.008312
     13.69381      8.43986      0.47084        -0.003655      0.003462      0.005812
      5.27718      8.43949      0.47195        -0.005923      0.000311      0.004148
      3.87453      6.00924      0.47337        -0.003767      0.005827     -0.002451
      8.07911      1.96350      2.74533        -0.000447      0.004873     -0.006216
      9.48264      9.25372      2.74741        -0.002796     -0.013419     -0.011301
      2.45824      3.58641      7.17911         0.008634     -0.008220     -0.005509
      2.47096      3.57973      0.47598        -0.003650      0.006199     -0.014790
     10.88565      1.96172      2.74627        -0.009100      0.011262     -0.011818
     13.68857      5.20493      4.94930        -0.010564      0.002060     -0.004805
      3.86367      1.15111      7.17965         0.000062      0.008841     -0.008367
      9.47444      6.01305      7.17781        -0.003347     -0.002629      0.016264
      5.26613      3.58397      7.17752         0.001835      0.003406      0.008225
      3.87345      1.15032      0.47728         0.002020     -0.000580     -0.014166
      9.48593      6.00987      0.47459        -0.003872      0.002575      0.001955
      5.27712      3.58045      0.47452        -0.003692      0.002771     -0.005685
     12.28892      9.25317      2.74538        -0.003909     -0.002138     -0.006296
     12.28779      7.63558      4.94843        -0.011402     -0.007546     -0.003796
     13.69196      6.82304      2.74491        -0.004668     -0.000326     -0.004746
      9.48379      4.39260      2.74774        -0.009290      0.006837     -0.009405
      8.07221      8.44216      7.17801        -0.002132     -0.004669      0.010465
      8.08264      8.43915      0.47493        -0.004915      0.003195     -0.004345
     10.88644      6.82388      2.74766        -0.007243     -0.003938     -0.011903
      2.46407      0.34639      4.94954         0.004210     -0.017610     -0.002419
     15.08337      9.25328      9.50536        -0.005898     -0.000451      0.016128
      3.85733      4.39365      9.50131         0.011568     -0.016152      0.020083
      6.66490      9.25270      9.50751         0.006410     -0.007382      0.013312
     12.27307      4.39419      9.50820         0.002307      0.004465      0.002012
      9.46999      9.24962      9.50805         0.003870      0.000433      0.002157
     10.87341      1.96494      9.50745        -0.003814      0.002605      0.007529
      2.45524      1.96235      9.49989         0.021280      0.012387      0.028710
     12.27576      9.25328      9.50634         0.019016     -0.015387      0.018827
     13.67999      6.82253      9.50565        -0.006569      0.025600      0.012132
      5.26244      1.96220      9.50261        -0.013650      0.016149      0.010374
      8.06665      6.82291      9.50979         0.017827     -0.023049      0.009532
      9.46855      4.39206      9.51252        -0.005242      0.033243      0.011853
      5.26181      6.82319      9.50819         0.023093      0.004916      0.000761
      8.06786      1.96272      9.50848         0.017494      0.013804      0.001956
      8.07135      3.58286      7.17666         0.008775      0.016533      0.018142
      8.08289      3.58086      0.47392        -0.003753      0.000001      0.001674
      6.67113      1.15283      7.17887        -0.004457      0.008776     -0.009012
      6.67941      1.15050      0.47336         0.000076     -0.000194     -0.002193
     12.28964      4.39175      2.74723        -0.014473      0.006668     -0.009750
      3.86926      4.39138      2.74668         0.007574      0.005006     -0.005849
      1.05555      1.15327      7.17975         0.008592      0.002551     -0.010265
      1.06823      1.15002      0.47458        -0.008131     -0.000790     -0.009919
      6.67554      9.25333      2.74647         0.003117     -0.012360     -0.012047
      6.66659      4.39416      9.50935        -0.010653     -0.007193     -0.008078
      8.07537      5.20408      4.94699         0.007011      0.003683      0.002825
     10.87292      6.82260      9.51190        -0.001381     -0.002387      0.003915
      5.27214      1.96260      2.74643         0.006943      0.005462     -0.008469
      2.46640      1.96271      2.74664        -0.000760      0.000619     -0.007708
     15.09078      7.63489      4.94778         0.002599     -0.006590     -0.001632
     12.28060      6.01671      7.17977        -0.006727     -0.008392     -0.000244
      6.66747      6.01357      7.17640         0.019923     -0.001762      0.016384
     12.29089      6.00989      0.47497        -0.001160      0.004155      0.001912
      6.68075      6.00960      0.47491        -0.001731      0.003106      0.002021
      8.08022      6.82406      2.74719         0.001743     -0.008956     -0.010885
[...]
     10.87361      5.20686     10.41339        -0.002004     -0.005733     -0.015556
      6.66566      7.63679     10.40810         0.000571     -0.006702     -0.002196
      9.47342      7.63211     10.41267        -0.003614     -0.001666     -0.013773
     12.28622      7.63895     10.40515        -0.012456     -0.009625      0.002094
     15.08628      7.63669     10.40423        -0.005407     -0.005372      0.005543
      5.25139      5.20549     10.40021         0.018068     -0.007830      0.015853
     13.67752      5.20614     10.40120         0.002270     -0.006473      0.013094
      3.85863      2.77406     10.39793         0.002609     -0.001589      0.004331
      6.66051      2.76276     10.40114         0.006419      0.018274      0.016507
      9.47284      2.77354     10.40978        -0.002559     -0.000944     -0.003693
     12.27867      2.77609     10.40247         0.000236     -0.004363      0.008387
      2.45894      0.34606     10.40180        -0.001540     -0.003304      0.010601
      5.26231      0.34088     10.40144        -0.001033      0.003821      0.014146
      8.07225      0.34519     10.40415        -0.004643     -0.004354      0.005155
     10.87655      0.34619     10.40303        -0.002442     -0.002642      0.011610
    total drift:                                0.003084      0.010543      0.055242

  FREE ENERGIE OF THE ION-ELECTRON SYSTEM (eV)
  free  energy   TOTEN  =      -575.36548328 eV

  energy  without entropy=     -575.43875898  energy(sigma->0) =     -575.38990851

 d Force = 0.5616418E-02[ 0.196E-02, 0.928E-02]  d Energy = 0.5575212E-02 0.412E-04
 d Force = 0.1402470E+03[ 0.140E+03, 0.140E+03]  d Ewald  = 0.1402470E+03 0.333E-04

 Conjugate gradient step on ions:
 trial-energy change:   -0.005575  1 .order   -0.005616   -0.009278   -0.001955
  (g-gl).g = 0.147E-02      g.g   = 0.759E-02  gl.gl    = 0.170E-01
 g(Force)  = 0.759E-02   g(Stress)= 0.000E+00 ortho     = 0.653E-03
 gamma     =   0.08642
 trial     =   1.21294
 opt step  =   1.55138  (harmonic =   1.53676) maximal distance =0.00612050
 next E    =  -575.365755   (d E  =  -0.00585)

 reached required accuracy - stopping structural energy minimisation