 vasp.5.4.4.18Apr17-6-g9f103f2a35 (build Nov 30 2020 22:55:02) complex

 executed on             LinuxIFC date 2021.10.25  18:48:28

 INCAR:
 POTCAR:    PAW_PBE Pt 04Feb2005
 POTCAR:    PAW_PBE H 15Jun2001
 POTCAR:    PAW_PBE Pt 04Feb2005
   VRHFIN =Pt: s1d9

   TITEL  = PAW_PBE Pt 04Feb2005
   POMASS =  195.080; ZVAL   =   10.000    mass and valenz
   ENMAX  =  230.283; ENMIN  =  172.712 eV

 POTCAR:    PAW_PBE H 15Jun2001
   VRHFIN =H: ultrasoft test

   TITEL  = PAW_PBE H 15Jun2001
   POMASS =    1.000; ZVAL   =    1.000    mass and valenz
   ENMAX  =  250.000; ENMIN  =  200.000 eV

 Optimization of the real space projectors (new method)

 maximal supplied QI-value         = 14.36
 optimisation between [QCUT,QGAM] = [ 11.92, 23.98] = [ 39.79,161.09] Ry
 Optimized for a Real-space Cutoff    1.49 Angstroem

   l    n(q)    QCUT    max X(q) W(low)/X(q) W(high)/X(q)  e(spline)
   2     10    11.920    66.195    0.79E-04    0.18E-03    0.24E-06
   2     10    11.920    64.643    0.81E-04    0.19E-03    0.24E-06
   0     11    11.920    95.520    0.28E-04    0.54E-04    0.18E-06
   0     11    11.920    63.403    0.27E-04    0.52E-04    0.17E-06
   1     10    11.920    19.961    0.18E-04    0.11E-03    0.23E-06
   1     10    11.920    13.289    0.25E-04    0.87E-04    0.19E-06
 Optimization of the real space projectors (new method)

 maximal supplied QI-value         = 34.20
 optimisation between [QCUT,QGAM] = [ 11.97, 23.94] = [ 40.13,160.53] Ry
 Optimized for a Real-space Cutoff    1.18 Angstroem

   l    n(q)    QCUT    max X(q) W(low)/X(q) W(high)/X(q)  e(spline)
   0      8    11.971    19.460    0.15E-03    0.31E-03    0.25E-06
   0      8    11.971    12.209    0.13E-03    0.29E-03    0.25E-06
   1      8    11.971     4.655    0.22E-03    0.24E-03    0.21E-06
  PAW_PBE Pt 04Feb2005                  :
  PAW_PBE H 15Jun2001                   :

 POSCAR: Pt111
  positions in direct lattice
  velocities in cartesian coordinates
 exchange correlation table for  LEXCH =        8
   RHO(1)=    0.500       N(1)  =     2000
   RHO(2)=  100.500       N(2)  =     4000

 ion  position               nearest neighbor table
   1  0.785  0.869  0.327-  71 2.74  20 2.74  55 2.74  27 2.79  35 2.79  34 2.79  43 2.81   3 2.81
                            73 2.81   2 2.81  56 2.81  72 2.81
   2  0.035  0.869  0.327-  55 2.73  65 2.74  68 2.74  39 2.77  29 2.78  27 2.80  23 2.80  72 2.81
                            47 2.81   1 2.81  57 2.81   3 2.81
   3  0.035  0.619  0.327-  55 2.74  12 2.74  76 2.74  39 2.77  28 2.79  35 2.80  15 2.80   9 2.80
                            56 2.80   1 2.81  57 2.81   2 2.81
   4  0.787  0.868  0.023-  21 2.78  78 2.78  19 2.79   6 2.80   5 2.80  58 2.80  75 2.80  74 2.80
                            44 2.81
   5  0.037  0.868  0.023-  49 2.78  70 2.79  78 2.79  48 2.80  74 2.80   4 2.80  24 2.81   6 2.81
                            59 2.81
   6  0.037  0.618  0.023-  46 2.78  70 2.79  21 2.79   4 2.80  10 2.80  58 2.80  18 2.80  59 2.81
                             5 2.81
   7  0.619  0.202  0.126-  71 2.73  79 2.74  80 2.75  42 2.78  44 2.79  74 2.79  53 2.80  11 2.80
                            78 2.80  19 2.80  22 2.81  61 2.81
   8  0.370  0.951  0.126-  69 2.74  66 2.74  26 2.74  16 2.78  24 2.79  75 2.79  25 2.80  19 2.80
                            60 2.81  49 2.81  54 2.81  53 2.81
   9  0.035  0.369  0.327-  12 2.74  77 2.74  62 2.74  28 2.78  30 2.79  33 2.79  13 2.80  47 2.80
                             3 2.80  15 2.81  56 2.81  63 2.81
  10  0.037  0.368  0.023-  54 2.77  46 2.79  45 2.79   6 2.80  58 2.80  64 2.81  18 2.81  48 2.81
                            16 2.81
  11  0.869  0.202  0.126-  77 2.74  65 2.74  79 2.75  64 2.78  74 2.78  48 2.79   7 2.80  78 2.80
                            22 2.81  45 2.81  54 2.81  49 2.81
  12  0.952  0.536  0.226-  21 2.73   9 2.74   3 2.74  45 2.74  56 2.74  46 2.74  77 2.81  62 2.81
                            20 2.81  55 2.81  67 2.81  76 2.81
  13  0.284  0.120  0.327-  62 2.74  26 2.74  69 2.74  31 2.78  36 2.78  33 2.79   9 2.80  47 2.80
                            73 2.81  43 2.81  15 2.81  23 2.81
  14  0.534  0.619  0.328-  51 2.74  66 2.75  67 2.76  52 2.79  41 2.80  57 2.80  63 2.80  23 2.80
                            56 2.81  38 2.81  73 2.81  37 2.82
  15  0.285  0.369  0.327-  76 2.74  80 2.74  62 2.75  50 2.77  36 2.79  28 2.79  41 2.80   3 2.80
                            57 2.80  43 2.80   9 2.81  13 2.81
  16  0.287  0.118  0.023-   8 2.78  54 2.78  53 2.79  75 2.80  44 2.80  18 2.81  24 2.81  48 2.81
                            10 2.81
  17  0.537  0.618  0.023-  22 2.78  25 2.79  60 2.79  24 2.80  59 2.80  64 2.80  42 2.81  58 2.81
                            75 2.81
  18  0.287  0.368  0.023-  53 2.78  61 2.79  46 2.79  59 2.80   6 2.80  42 2.81  10 2.81  16 2.81
                            44 2.81
  19  0.619  0.952  0.126-  20 2.74  71 2.74  69 2.74  44 2.78  75 2.78   4 2.79   8 2.80  53 2.80
                             7 2.80  25 2.81  21 2.81  78 2.81
  20  0.702  0.785  0.227-  56 2.74  25 2.74  19 2.74  73 2.74   1 2.74  21 2.74  67 2.81  66 2.81
                            12 2.81  69 2.81  55 2.81  71 2.81
  21  0.869  0.702  0.126-  12 2.73  55 2.74  20 2.74   4 2.78  58 2.79   6 2.79  46 2.80  45 2.80
                            70 2.80  19 2.81  25 2.81  78 2.81
  22  0.619  0.452  0.126-  79 2.73  67 2.74  51 2.75  17 2.78  42 2.78  64 2.80  61 2.80  60 2.80
                            11 2.81  45 2.81   7 2.81  25 2.81
  23  0.285  0.869  0.327-  68 2.74  66 2.74  26 2.75  37 2.77  31 2.79  29 2.79  73 2.80   2 2.80
                            14 2.80  57 2.80  47 2.81  13 2.81
  24  0.287  0.868  0.023-   8 2.79  60 2.79  49 2.79  17 2.80  59 2.80  48 2.81   5 2.81  16 2.81
                            75 2.81
  25  0.619  0.702  0.126-  20 2.74  67 2.74  66 2.74  75 2.78  17 2.79  58 2.79   8 2.80  45 2.80
                            19 2.81  21 2.81  60 2.81  22 2.81
  26  0.202  0.036  0.226-  49 2.73  13 2.74   8 2.74  54 2.74  47 2.74  23 2.75  77 2.80  69 2.80
                            62 2.80  65 2.81  66 2.81  68 2.81
  27  0.868  0.953  0.430-  39 2.77  40 2.78   1 2.79  72 2.79   2 2.80  29 2.80  32 2.80  34 2.81
                            35 2.81
  28  0.116  0.453  0.430-  50 2.77  30 2.78   9 2.78   3 2.79  15 2.79  33 2.80  35 2.80  39 2.81
                            36 2.82
  29  0.116  0.954  0.430-  37 2.77  32 2.78  47 2.78   2 2.78  23 2.79  27 2.80  33 2.80  39 2.81
                            31 2.82
  30  0.869  0.453  0.430-  38 2.77  28 2.78  56 2.79   9 2.79  63 2.79  33 2.80  35 2.80  52 2.81
                            32 2.82
  31  0.367  0.954  0.430-  37 2.77  36 2.78  13 2.78  23 2.79  73 2.79  33 2.80  34 2.80  52 2.81
                            29 2.82
  32  0.869  0.202  0.430-  38 2.77  29 2.78  72 2.79  47 2.79  63 2.79  33 2.80  27 2.80  40 2.81
                            30 2.82
  33  0.117  0.203  0.430-   9 2.79  47 2.79  13 2.79  30 2.80  31 2.80  36 2.80  32 2.80  28 2.80
                            29 2.80
  34  0.618  0.953  0.430-  40 2.77  52 2.78   1 2.79  73 2.79  43 2.79  36 2.80  35 2.80  31 2.80
                            27 2.81
  35  0.867  0.703  0.430-  52 2.77  39 2.77   1 2.79  56 2.79   3 2.80  30 2.80  28 2.80  34 2.80
                            27 2.81
  36  0.368  0.202  0.430-  50 2.77  31 2.78  13 2.78  15 2.79  43 2.79  33 2.80  34 2.80  40 2.81
                            28 2.82
  37  0.364  0.709  0.431-  82 1.84  81 1.86  31 2.77  29 2.77  23 2.77  57 2.81  14 2.82  52 2.84
                            39 2.84  50 2.91  38 2.91
  38  0.623  0.450  0.431-  82 1.84  81 1.86  32 2.77  30 2.77  63 2.78  41 2.81  14 2.81  40 2.84
                            52 2.84  50 2.91  37 2.91
  39  0.114  0.705  0.430-   3 2.77  27 2.77  35 2.77   2 2.77  57 2.79  28 2.81  29 2.81  50 2.84
                            37 2.84
  40  0.619  0.199  0.430-  43 2.77  34 2.77  27 2.78  72 2.78  41 2.79  36 2.81  32 2.81  38 2.84
                            50 2.84
  41  0.534  0.370  0.328-  51 2.74  80 2.75  79 2.76  40 2.79  14 2.80  57 2.80  15 2.80  63 2.80
                            38 2.81  72 2.81  43 2.81  50 2.82
  42  0.537  0.368  0.023-   7 2.78  22 2.78  61 2.79  64 2.80  74 2.80  44 2.80  17 2.81  18 2.81
                            59 2.81
  43  0.534  0.119  0.327-  69 2.74  80 2.74  71 2.74  40 2.77  36 2.79  34 2.79  73 2.80  15 2.80
                            13 2.81   1 2.81  41 2.81  72 2.81
  44  0.537  0.118  0.023-  19 2.78   7 2.79  53 2.79  16 2.80  75 2.80  74 2.80  42 2.80   4 2.81
                            18 2.81
  45  0.869  0.452  0.126-  77 2.73  12 2.74  67 2.75  58 2.78  64 2.78  10 2.79  25 2.80  21 2.80
                            22 2.81  11 2.81  54 2.81  46 2.81
  46  0.119  0.452  0.126-  62 2.73  76 2.74  12 2.74   6 2.78  10 2.79  18 2.79  70 2.80  21 2.80
                            61 2.81  53 2.81  54 2.81  45 2.81
  47  0.035  0.119  0.327-  65 2.74  77 2.74  26 2.74  29 2.78  32 2.79  33 2.79  13 2.80   9 2.80
                            72 2.81   2 2.81  23 2.81  63 2.81
  48  0.037  0.118  0.023-  54 2.78  49 2.78  11 2.79   5 2.80  74 2.80  24 2.81  64 2.81  10 2.81
                            16 2.81
  49  0.119  0.952  0.126-  26 2.73  68 2.74  65 2.74   5 2.78  48 2.78  24 2.79  70 2.80  78 2.80
                            60 2.81   8 2.81  54 2.81  11 2.81
  50  0.364  0.450  0.432-  81 1.86  28 2.77  36 2.77  15 2.77  57 2.81  41 2.82  39 2.84  40 2.84
                            38 2.91  37 2.91
  51  0.452  0.536  0.227-  60 2.74  61 2.74  41 2.74  14 2.74  22 2.75  57 2.75  76 2.80  68 2.80
                            67 2.80  66 2.80  80 2.80  79 2.80
  52  0.619  0.705  0.430-  82 1.88  73 2.77  35 2.77  34 2.78  56 2.78  14 2.79  31 2.81  30 2.81
                            37 2.84  38 2.84
  53  0.370  0.202  0.126-  69 2.74  80 2.74  62 2.74  18 2.78  16 2.79  44 2.79   7 2.80  19 2.80
                            61 2.81  46 2.81  54 2.81   8 2.81
  54  0.119  0.202  0.125-  26 2.74  62 2.74  77 2.75  10 2.77  48 2.78  16 2.78  11 2.81  49 2.81
                            46 2.81   8 2.81  53 2.81  45 2.81
  55  0.952  0.786  0.227-   2 2.73   3 2.74  78 2.74  21 2.74  70 2.74   1 2.74  12 2.81  68 2.81
                            65 2.81  76 2.81  71 2.81  20 2.81
  56  0.785  0.619  0.327-  20 2.74  67 2.74  12 2.74  52 2.78  30 2.79  35 2.79  63 2.80   3 2.80
                             9 2.81   1 2.81  14 2.81  73 2.81
  57  0.285  0.619  0.328-  51 2.75  68 2.75  76 2.75  39 2.79  14 2.80  41 2.80  23 2.80  15 2.80
                             2 2.81   3 2.81  37 2.81  50 2.81
  58  0.787  0.618  0.023-  45 2.78  21 2.79  25 2.79   4 2.80  75 2.80  10 2.80   6 2.80  64 2.81
                            17 2.81
  59  0.287  0.618  0.023-  61 2.78  60 2.79  70 2.79  18 2.80  24 2.80  17 2.80   6 2.81  42 2.81
                             5 2.81
  60  0.369  0.702  0.126-  66 2.74  68 2.74  51 2.74  59 2.79  24 2.79  17 2.79  61 2.80  22 2.80
                            49 2.81  70 2.81   8 2.81  25 2.81
[...]
   -.142E+01 0.479E+00 -.130E+04   0.146E+01 -.451E+00 0.130E+04   -.329E-01 -.124E-01 0.746E+00   -.124E-01 -.162E-01 -.647E-01
   -.370E+00 -.221E+00 0.260E+04   0.323E+00 0.193E+00 -.260E+04   0.156E-01 0.203E-01 -.149E+01   0.266E-01 0.100E-01 0.178E-01
   0.244E+00 -.257E+00 0.260E+04   -.194E+00 0.233E+00 -.260E+04   -.388E-01 0.293E-01 -.146E+01   -.147E-01 -.138E-02 0.144E-01
   -.173E+00 0.417E+00 0.260E+04   0.172E+00 -.433E+00 -.260E+04   -.190E-01 0.893E-02 -.141E+01   0.143E-01 0.630E-02 0.201E-01
   0.198E-01 -.451E+00 0.132E+04   -.880E-02 0.454E+00 -.132E+04   0.837E-02 0.711E-02 -.760E+00   -.219E-01 -.133E-01 -.145E-01
   0.646E-01 -.114E+01 0.132E+04   -.790E-01 0.106E+01 -.132E+04   0.767E-02 0.513E-01 -.731E+00   0.510E-02 0.364E-01 -.789E-02
   0.141E+01 0.289E+00 -.130E+04   -.143E+01 -.271E+00 0.130E+04   0.548E-02 -.249E-01 0.732E+00   -.444E-03 0.653E-02 -.507E-01
   -.127E+00 0.708E+00 0.260E+04   0.114E+00 -.704E+00 -.260E+04   -.134E-01 0.857E-03 -.146E+01   0.226E-01 -.141E-02 0.813E-02
   -.187E+00 -.105E+00 0.132E+04   0.198E+00 0.130E+00 -.132E+04   -.864E-02 -.218E-02 -.743E+00   -.961E-03 -.236E-01 -.232E-01
   0.143E+01 -.289E+00 0.123E+02   -.140E+01 0.260E+00 -.124E+02   -.322E-01 0.301E-01 0.484E-01   0.616E-02 -.238E-02 -.954E-02
   0.772E+00 0.975E+00 -.130E+04   -.771E+00 -.100E+01 0.130E+04   -.120E-01 0.117E-01 0.726E+00   0.723E-02 -.157E-02 -.511E-01
   0.261E+01 0.138E+01 -.134E+04   -.266E+01 -.141E+01 0.134E+04   0.664E-01 0.323E-01 0.971E+00   -.575E-02 0.235E-02 -.349E-01
   -.228E+01 -.112E+01 -.130E+04   0.245E+01 0.123E+01 0.130E+04   -.166E+00 -.103E+00 0.577E+00   0.326E-02 0.407E-04 -.801E-01
   0.440E+00 -.653E+00 0.260E+04   -.442E+00 0.638E+00 -.260E+04   -.119E-01 0.332E-02 -.146E+01   0.121E-01 0.117E-01 0.739E-02
   0.577E+00 0.687E-01 0.260E+04   -.556E+00 -.659E-01 -.260E+04   -.129E-01 0.760E-02 -.145E+01   -.101E-01 -.671E-02 -.172E-01
   -.211E-01 0.143E+00 0.260E+04   0.217E-01 -.143E+00 -.260E+04   -.111E-01 0.179E-02 -.148E+01   0.504E-02 -.871E-03 0.198E-01
   0.256E+00 -.178E+00 0.132E+04   -.281E+00 0.155E+00 -.132E+04   0.675E-02 0.438E-02 -.764E+00   0.185E-01 0.289E-01 -.167E-01
   0.117E+01 0.545E+00 0.700E+01   -.120E+01 -.561E+00 -.696E+01   0.333E-01 0.167E-01 -.349E-01   -.718E-02 -.158E-02 -.589E-02
   0.185E+00 0.357E+00 0.132E+04   -.216E+00 -.368E+00 -.132E+04   0.186E-02 0.934E-02 -.759E+00   0.357E-01 -.779E-04 -.179E-01
   0.204E+00 0.428E+00 0.132E+04   -.190E+00 -.387E+00 -.132E+04   -.147E-02 -.215E-01 -.719E+00   -.203E-01 -.260E-01 -.368E-02
   -.196E+01 0.452E+01 -.131E+04   0.196E+01 -.476E+01 0.131E+04   -.149E-01 0.225E+00 0.560E+00   0.248E-01 0.180E-04 -.548E-01
   -.242E+00 0.214E+00 0.260E+04   0.266E+00 -.238E+00 -.260E+04   -.906E-02 0.242E-01 -.144E+01   -.196E-01 0.483E-02 -.660E-02
   -.926E-01 0.452E-01 0.132E+04   0.800E-01 -.534E-01 -.132E+04   -.212E-02 0.136E-02 -.717E+00   0.179E-01 0.112E-01 -.218E-02
   -.284E-01 0.265E+01 0.104E+02   0.267E-01 -.262E+01 -.104E+02   -.103E-01 -.360E-01 0.399E-01   0.148E-01 0.417E-02 -.771E-02
   0.854E+00 0.432E+00 -.259E+04   -.805E+00 -.406E+00 0.259E+04   -.253E-01 -.203E-01 0.133E+01   -.137E-01 -.309E-02 0.329E-02
   0.235E+01 0.148E+01 -.259E+04   -.234E+01 -.146E+01 0.259E+04   0.153E-01 -.291E-01 0.133E+01   -.120E-01 -.255E-02 0.536E-04
   0.110E+01 -.296E+01 -.259E+04   -.110E+01 0.295E+01 0.259E+04   -.181E-01 -.108E-01 0.136E+01   0.134E-01 0.166E-01 -.114E-01
   0.170E+01 -.262E+01 -.258E+04   -.141E+01 0.237E+01 0.258E+04   -.289E+00 0.265E+00 0.150E+01   0.515E-02 -.387E-02 -.286E-01
   -.157E+01 0.289E+01 -.258E+04   0.149E+01 -.251E+01 0.258E+04   0.990E-01 -.402E+00 0.150E+01   -.270E-02 0.113E-01 -.306E-01
   -.187E+01 0.250E+01 -.259E+04   0.186E+01 -.248E+01 0.259E+04   -.114E-01 -.236E-01 0.136E+01   0.175E-01 0.500E-02 -.132E-01
   -.184E+01 -.913E+00 -.259E+04   0.175E+01 0.868E+00 0.259E+04   0.615E-01 0.233E-01 0.132E+01   0.170E-01 0.111E-01 -.109E-01
   -.882E+00 -.695E+00 -.259E+04   0.920E+00 0.753E+00 0.259E+04   0.383E-02 -.598E-01 0.137E+01   -.380E-01 -.175E-01 -.860E-02
   -.122E+01 -.327E+00 -.259E+04   0.128E+01 0.331E+00 0.259E+04   -.395E-01 0.197E-01 0.136E+01   -.372E-01 -.158E-01 -.684E-02
   0.259E+01 0.137E+01 -.259E+04   -.256E+01 -.137E+01 0.259E+04   -.158E-01 0.152E-01 0.133E+01   -.977E-02 -.612E-02 -.248E-02
   0.924E+01 -.147E+02 -.258E+04   -.998E+01 0.160E+02 0.258E+04   0.749E+00 -.134E+01 0.981E+00   -.533E-02 0.211E-01 -.488E-01
   -.790E+01 0.154E+02 -.258E+04   0.867E+01 -.167E+02 0.258E+04   -.792E+00 0.133E+01 0.101E+01   0.100E-01 -.104E-01 -.491E-01
   -.323E+01 0.370E+01 -.258E+04   0.291E+01 -.342E+01 0.258E+04   0.337E+00 -.297E+00 0.151E+01   0.381E-02 0.324E-02 -.110E-01
   0.123E+01 -.467E+01 -.258E+04   -.115E+01 0.426E+01 0.258E+04   -.772E-01 0.425E+00 0.151E+01   -.101E-03 0.485E-02 -.117E-01
   -.179E+01 -.660E+01 -.133E+04   0.184E+01 0.668E+01 0.132E+04   -.476E-01 -.103E+00 0.674E+00   0.704E-02 0.261E-01 -.612E-01
   0.334E+00 -.105E+01 0.260E+04   -.300E+00 0.103E+01 -.260E+04   -.224E-01 0.373E-01 -.146E+01   -.141E-01 -.206E-01 -.182E-03
   -.964E-01 -.172E+01 -.130E+04   0.143E+00 0.174E+01 0.130E+04   -.243E-01 -.270E-01 0.746E+00   -.251E-01 0.120E-02 -.643E-01
   0.401E+00 -.779E+00 0.260E+04   -.411E+00 0.776E+00 -.260E+04   -.984E-02 0.149E-02 -.141E+01   0.140E-01 0.286E-02 0.181E-01
   -.906E+00 0.523E+00 0.132E+04   0.833E+00 -.501E+00 -.132E+04   0.464E-01 -.149E-01 -.733E+00   0.392E-01 -.139E-01 -.884E-02
   -.350E+00 0.762E+00 0.133E+04   0.334E+00 -.773E+00 -.133E+04   -.102E-01 0.619E-02 -.728E+00   0.254E-01 0.985E-03 -.960E-02
   -.189E+00 -.303E+00 -.130E+04   0.147E+00 0.280E+00 0.130E+04   0.991E-02 0.277E-02 0.744E+00   0.250E-01 0.151E-01 -.565E-01
   -.337E+00 -.474E+00 0.260E+04   0.359E+00 0.485E+00 -.260E+04   -.202E-01 0.171E-02 -.145E+01   -.679E-02 -.114E-01 0.766E-02
   -.338E+00 -.287E+00 0.132E+04   0.360E+00 0.286E+00 -.132E+04   -.820E-02 0.263E-02 -.745E+00   -.150E-01 0.448E-02 -.240E-01
   0.676E+01 0.399E+01 -.257E+04   -.712E+01 -.420E+01 0.257E+04   0.381E+00 0.212E+00 0.325E+00   0.104E-01 0.787E-02 -.301E-01
   -.109E+01 -.430E+00 -.735E+01   0.104E+01 0.398E+00 0.744E+01   0.475E-01 0.252E-01 -.775E-01   -.205E-02 0.659E-03 -.118E-01
   -.968E+01 -.560E+01 -.257E+04   0.978E+01 0.565E+01 0.257E+04   -.111E+00 -.704E-01 0.228E-01   -.885E-02 0.968E-03 -.475E-01
   0.453E+00 -.664E+00 0.133E+04   -.472E+00 0.658E+00 -.133E+04   0.254E-02 -.508E-02 -.722E+00   0.133E-01 0.163E-01 -.788E-02
   -.428E+00 -.169E+00 0.133E+04   0.403E+00 0.158E+00 -.133E+04   0.561E-02 0.644E-02 -.597E+00   0.176E-01 0.527E-02 -.119E-01
   -.456E+00 0.187E+00 0.944E+01   0.457E+00 -.171E+00 -.940E+01   -.238E-02 0.102E-01 -.140E-01   0.226E-02 -.238E-01 -.373E-01
   0.467E+01 0.838E+00 -.131E+04   -.478E+01 -.761E+00 0.131E+04   0.140E+00 -.504E-01 0.686E+00   -.264E-01 -.146E-01 -.462E-01
   -.663E+01 0.174E+01 -.133E+04   0.673E+01 -.174E+01 0.132E+04   -.113E+00 0.279E-02 0.677E+00   0.271E-01 -.382E-02 -.619E-01
   0.717E+00 0.323E-01 0.260E+04   -.735E+00 -.452E-01 -.260E+04   -.104E-01 0.108E-01 -.145E+01   0.288E-01 0.484E-02 -.666E-02
   -.871E+00 0.630E+00 0.260E+04   0.881E+00 -.605E+00 -.260E+04   0.131E-01 -.177E-01 -.145E+01   -.229E-01 -.400E-02 0.213E-02
   0.496E+00 0.674E-01 0.132E+04   -.452E+00 -.770E-01 -.132E+04   -.197E-01 0.122E-01 -.716E+00   -.336E-01 -.288E-02 -.619E-02
[...]
   0.289E+00 0.161E+01 0.123E+02   -.302E+00 -.158E+01 -.124E+02   0.141E-01 -.460E-01 0.490E-01   -.922E-03 0.704E-02 -.750E-02
   -.528E+00 0.594E+00 0.132E+04   0.534E+00 -.582E+00 -.132E+04   0.575E-02 0.355E-02 -.760E+00   -.174E-01 -.165E-01 -.172E-01
   -.701E-01 -.459E+00 0.957E+01   0.848E-01 0.452E+00 -.952E+01   0.140E-01 -.103E-01 -.130E-01   -.220E-01 0.155E-01 -.367E-01
   -.217E-01 -.236E+01 -.130E+04   0.187E-01 0.238E+01 0.130E+04   0.415E-03 -.408E-01 0.761E+00   -.409E-02 0.250E-01 -.552E-01
   0.318E+01 0.380E+01 -.131E+04   -.317E+01 -.394E+01 0.131E+04   0.301E-01 0.131E+00 0.690E+00   -.298E-01 -.876E-02 -.465E-01
   -.515E-01 0.978E-01 0.260E+04   0.575E-01 -.457E-01 -.260E+04   -.271E-02 -.280E-01 -.146E+01   -.407E-02 -.230E-01 0.138E-01
   0.593E+00 0.517E+00 0.260E+04   -.607E+00 -.531E+00 -.260E+04   -.826E-02 0.195E-03 -.145E+01   0.206E-01 0.164E-01 -.556E-02
   -.232E+01 -.283E+00 0.763E+01   0.229E+01 0.243E+00 -.764E+01   0.207E-01 0.374E-01 0.416E-01   0.371E-02 -.110E-01 -.293E-01
   0.216E+01 -.139E+01 0.102E+02   -.214E+01 0.138E+01 -.103E+02   -.347E-01 0.467E-02 0.372E-01   0.116E-01 0.805E-02 -.547E-02
   0.747E-01 -.254E+00 0.132E+04   -.531E-01 0.268E+00 -.132E+04   -.219E-01 -.667E-02 -.752E+00   -.260E-02 -.400E-02 -.461E-01
   0.123E+01 -.164E+01 0.272E+01   -.115E+01 0.167E+01 -.270E+01   -.614E-01 -.384E-01 0.683E-02   -.153E-01 0.731E-02 -.239E-01
   -.159E+01 -.194E+01 0.734E+01   0.154E+01 0.194E+01 -.734E+01   0.451E-01 -.250E-02 0.336E-01   -.907E-02 0.741E-02 -.275E-01
   -.120E+01 -.596E+00 -.302E+03   0.159E+01 0.814E+00 0.303E+03   -.396E+00 -.221E+00 -.134E+01   -.259E-03 -.107E-03 0.361E-03
   0.233E+01 0.142E+01 -.303E+03   -.286E+01 -.174E+01 0.304E+03   0.545E+00 0.323E+00 -.138E+01   0.164E-02 0.114E-02 0.590E-04
   -.261E+00 -.195E+00 0.856E+01   0.146E-12 0.213E-12 -.466E-11   0.264E+00 0.161E+00 -.699E+01   0.211E-01 0.149E-01 -.159E+01

 POSITION                                       TOTAL-FORCE (eV/Angst)
     13.68746      8.44850      7.18799         0.003347      0.000216     -0.004254
      5.27175      8.44802      7.18560         0.001866     -0.011719     -0.001198
      3.86796      6.01657      7.18196        -0.005004      0.000359     -0.009132
     13.69572      8.43829      0.50580        -0.005660      0.002100      0.000713
      5.28026      8.43805      0.50431        -0.003833      0.004185     -0.001036
      3.87721      6.01071      0.50257        -0.006792     -0.000560      0.003416
      8.08147      1.96257      2.77358        -0.002460     -0.002240     -0.004670
      9.48300      9.24441      2.77255        -0.001976      0.013786     -0.004335
      2.46158      3.58669      7.17913        -0.012725     -0.000621     -0.004014
      2.47294      3.58220      0.50393        -0.004661      0.004072      0.012647
     10.88302      1.96384      2.77245         0.001395     -0.000202     -0.008521
     13.69049      5.20447      4.97360        -0.002256     -0.003408      0.001196
      3.86384      1.15700      7.17970        -0.003068     -0.014553     -0.005044
      9.47734      6.01727      7.22599         0.002986     -0.001120      0.006235
      5.26471      3.58571      7.17957         0.013645      0.003918      0.000323
      3.87849      1.14722      0.50447        -0.001823     -0.000239      0.012720
      9.48797      6.00854      0.51078        -0.002862      0.003845     -0.001927
      5.28120      3.58044      0.50666        -0.005416      0.002000      0.012064
     12.28994      9.25052      2.77200        -0.000051      0.009648     -0.011381
     12.28406      7.63351      4.98245        -0.002057     -0.002081      0.003069
     13.69197      6.82316      2.77149         0.005881     -0.001894     -0.009836
      9.48202      4.39535      2.77908        -0.008297     -0.005543      0.004786
      8.07413      8.43663      7.20524         0.011246     -0.020091      0.001032
      8.08463      8.43727      0.50556        -0.005541      0.004654      0.001180
     10.88578      6.82199      2.77486         0.001711      0.004315      0.004599
      2.46556      0.34449      4.97583         0.003307      0.001091      0.001530
     15.09155      9.26242      9.45622         0.011309      0.002666      0.006568
      3.84292      4.39804      9.44728         0.016404     -0.009059      0.003083
      6.66185      9.26942      9.45787         0.003186     -0.010398      0.004791
     12.30393      4.38304      9.45066         0.008306      0.004080     -0.015216
      9.47124      9.28862      9.45127         0.015018     -0.002242     -0.016335
     10.88274      1.95945      9.45825        -0.004188      0.001631      0.004519
      2.45247      1.96613      9.44875        -0.010543     -0.010912      0.004471
     12.28985      9.27552      9.45496         0.001497     -0.017782     -0.004805
     13.70185      6.82996      9.45513        -0.009643      0.005243     -0.008398
      5.25475      1.95322      9.44747         0.003064      0.012297      0.000535
      8.04462      6.87425      9.54200        -0.009029      0.012304      0.007818
      9.50009      4.35498      9.54108         0.008071     -0.017822      0.007257
      5.23711      6.84867      9.45278         0.018020     -0.012339     -0.000282
      8.07328      1.93551      9.45320         0.002264      0.014305     -0.000596
      8.07365      3.59290      7.21583         0.008596      0.016834      0.001014
      8.08543      3.57781      0.50862        -0.003191      0.004420     -0.001347
      6.67221      1.15952      7.18196        -0.002457     -0.005856     -0.009315
      6.68412      1.14797      0.50295        -0.005862      0.001632      0.003008
     12.28267      4.39528      2.77259         0.010479     -0.005655     -0.006628
      3.87360      4.39473      2.76794        -0.001361     -0.003201     -0.024717
      1.06003      1.15720      7.18314        -0.007557     -0.006043     -0.007368
      1.06870      1.14778      0.50495        -0.004760      0.001888      0.004801
      6.67716      9.24805      2.77264        -0.000716      0.006480     -0.007991
      6.57986      4.34830      9.48746         0.011857      0.001347      0.010534
      8.07780      5.20569      4.99921        -0.010847     -0.006766     -0.003009
     10.95866      6.87648      9.48662         0.004832     -0.000111      0.010306
      5.27763      1.96228      2.76769        -0.003010      0.005114     -0.023051
      2.46618      1.96107      2.75904        -0.002448      0.001142     -0.016697
     15.09252      7.63514      4.97968         0.001808      0.001683     -0.000148
     12.28373      6.01557      7.18885        -0.006960      0.010638      0.012288
      6.67596      6.01412      7.21566         0.018829     -0.003364      0.002726
     12.29403      6.00888      0.50492         0.000305      0.002678     -0.000058
      6.68155      6.00950      0.50875        -0.000790      0.003926     -0.000601
      8.08275      6.81953      2.77890        -0.009601     -0.000130      0.005316
[...]
      6.67943      7.63195      4.98654        -0.002615     -0.005229      0.001362
      5.27140      0.34797      4.97372        -0.002101     -0.001562      0.001122
      5.27561      6.82348      2.77346        -0.005418     -0.000648     -0.005583
      8.07798      0.34644      4.97986         0.005939      0.000601     -0.000115
      9.47922      1.16037      7.18626        -0.006026      0.004919     -0.001527
     10.87876      8.44961      7.18858         0.006117     -0.017684      0.014321
      9.48776      1.14989      0.50473        -0.001043      0.002124      0.001254
     10.89125      8.43894      0.50455        -0.001893      0.003389      0.000736
      5.27512      5.20576      4.97927        -0.001691     -0.015458      0.004320
     12.28445      2.77546      4.97593         0.001446      0.001582      0.002763
     15.09614      9.25208      2.77232        -0.002640      0.003515     -0.014605
      9.48012      2.78076      4.98637        -0.004987     -0.001861      0.002437
      6.67618      2.77775      4.97976        -0.012852      0.007515      0.000388
      7.91110      5.12015     10.32804        -0.007933     -0.005629      0.019500
      9.65815      6.13090     10.34442         0.020199      0.014148      0.035114
    total drift:                                0.023658     -0.018869     -0.018284

  FREE ENERGIE OF THE ION-ELECTRON SYSTEM (eV)
  free  energy   TOTEN  =      -520.84801973 eV

  energy  without entropy=     -520.99042568  energy(sigma->0) =     -520.89548838

 d Force = 0.2168234E-02[ 0.895E-03, 0.344E-02]  d Energy = 0.2187219E-02-0.190E-04
 d Force =-0.1230142E+01[-0.125E+01,-0.121E+01]  d Ewald  =-0.1230131E+01-0.110E-04

 Conjugate gradient step on ions:
 trial-energy change:   -0.002187  1 .order   -0.002168   -0.003441   -0.000895
  (g-gl).g = 0.201E-02      g.g   = 0.199E-02  gl.gl    = 0.310E-02
 g(Force)  = 0.199E-02   g(Stress)= 0.000E+00 ortho     = 0.691E-04
 gamma     =   0.64834
 trial     =   1.69503
 opt step  =   2.29121  (harmonic =   2.29121) maximal distance =0.01214030
 next E    =  -520.848158   (d E  =  -0.00233)

 reached required accuracy - stopping structural energy minimisation