 vasp.5.4.4.18Apr17-6-g9f103f2a35 (build Nov 30 2020 22:55:02) complex

 executed on             LinuxIFC date 2022.09.16  22:08:15

 INCAR:
 POTCAR:    PAW_PBE Pt 04Feb2005
 POTCAR:    PAW_PBE Fe 06Sep2000
 POTCAR:    PAW_PBE Co 02Aug2007
 POTCAR:    PAW_PBE Cu 22Jun2005
 POTCAR:    PAW_PBE Ni 02Aug2007
 POTCAR:    PAW_PBE N 08Apr2002

 POTCAR:    PAW_PBE Pt 04Feb2005
   VRHFIN =Pt: s1d9

   TITEL  = PAW_PBE Pt 04Feb2005
   POMASS =  195.080; ZVAL   =   10.000    mass and valenz
   ENMAX  =  230.283; ENMIN  =  172.712 eV

 POTCAR:    PAW_PBE Fe 06Sep2000
   VRHFIN =Fe:  d7 s1

   TITEL  = PAW_PBE Fe 06Sep2000
   POMASS =   55.847; ZVAL   =    8.000    mass and valenz
   ENMAX  =  267.882; ENMIN  =  200.911 eV

 POTCAR:    PAW_PBE Co 02Aug2007
   VRHFIN =Co: d8 s1

   TITEL  = PAW_PBE Co 02Aug2007
   POMASS =   58.933; ZVAL   =    9.000    mass and valenz
   ENMAX  =  267.968; ENMIN  =  200.976 eV

 POTCAR:    PAW_PBE Cu 22Jun2005
   VRHFIN =Cu: d10 p1

   TITEL  = PAW_PBE Cu 22Jun2005
   POMASS =   63.546; ZVAL   =   11.000    mass and valenz
   ENMAX  =  295.446; ENMIN  =  221.585 eV

 POTCAR:    PAW_PBE Ni 02Aug2007
   VRHFIN =Ni:

   TITEL  = PAW_PBE Ni 02Aug2007
   POMASS =   58.690; ZVAL   =   10.000    mass and valenz
   ENMAX  =  269.532; ENMIN  =  202.149 eV

 POTCAR:    PAW_PBE N 08Apr2002
   VRHFIN =N: s2p3

   TITEL  = PAW_PBE N 08Apr2002
   POMASS =   14.001; ZVAL   =    5.000    mass and valenz
   ENMAX  =  400.000; ENMIN  =  300.000 eV

 Optimization of the real space projectors (new method)

 maximal supplied QI-value         = 14.36
 optimisation between [QCUT,QGAM] = [ 11.92, 23.98] = [ 39.79,161.09] Ry
 Optimized for a Real-space Cutoff    1.49 Angstroem

   l    n(q)    QCUT    max X(q) W(low)/X(q) W(high)/X(q)  e(spline)
   2     10    11.920    66.195    0.79E-04    0.18E-03    0.24E-06
   2     10    11.920    64.643    0.81E-04    0.19E-03    0.24E-06
   0     11    11.920    95.520    0.28E-04    0.54E-04    0.18E-06
   0     11    11.920    63.403    0.27E-04    0.52E-04    0.17E-06
   1     10    11.920    19.961    0.18E-04    0.11E-03    0.23E-06
   1     10    11.920    13.289    0.25E-04    0.87E-04    0.19E-06
 Optimization of the real space projectors (new method)

[...]

   l    n(q)    QCUT    max X(q) W(low)/X(q) W(high)/X(q)  e(spline)
   2      9    11.864    60.317    0.21E-03    0.51E-03    0.25E-06
   2      9    11.864    55.921    0.21E-03    0.51E-03    0.26E-06
   0      9    11.864    51.690    0.22E-03    0.30E-04    0.17E-06
   0      9    11.864    30.015    0.20E-03    0.28E-04    0.15E-06
   1      9    11.864    18.849    0.76E-04    0.33E-03    0.17E-06
   1      9    11.864    14.624    0.60E-04    0.28E-03    0.15E-06
 Optimization of the real space projectors (new method)

 maximal supplied QI-value         = 25.13
 optimisation between [QCUT,QGAM] = [ 11.81, 23.88] = [ 39.08,159.64] Ry
 Optimized for a Real-space Cutoff    1.41 Angstroem

   l    n(q)    QCUT    max X(q) W(low)/X(q) W(high)/X(q)  e(spline)
   0     10    11.813    79.467    0.48E-04    0.30E-04    0.67E-06
   0     10    11.813    66.151    0.47E-04    0.30E-04    0.67E-06
   1     10    11.813    20.169    0.11E-03    0.17E-03    0.11E-05
   1     10    11.813    14.454    0.11E-03    0.17E-03    0.11E-05
  PAW_PBE Pt 04Feb2005                  :
  PAW_PBE Fe 06Sep2000                  :
  PAW_PBE Co 02Aug2007                  :
  PAW_PBE Cu 22Jun2005                  :
  PAW_PBE Ni 02Aug2007                  :
  PAW_PBE N 08Apr2002                   :

 POSCAR: 10.56
  positions in cartesian coordinates
 exchange correlation table for  LEXCH =        8
   RHO(1)=    0.500       N(1)  =     2000
   RHO(2)=  100.500       N(2)  =     4000

 ion  position               nearest neighbor table
   1  0.787  0.879  0.317-  49 2.61  28 2.61  19 2.64  59 2.64  33 2.65  61 2.66  29 2.67  60 2.68
                             2 2.72  11 2.74   4 2.83  12 2.88
   2  0.042  0.883  0.315-  79 2.53  77 2.58  60 2.62  28 2.64  30 2.65  52 2.66  33 2.67  22 2.70
                             1 2.72   6 2.72   4 2.85  16 2.92
   3  0.280  0.378  0.320-  39 2.54  64 2.60  33 2.61  31 2.63  19 2.68  30 2.72  68 2.73  43 2.73
                             5 2.76  18 2.81  13 2.85  25 2.86
   4  0.874  0.962  0.424-  11 2.60   6 2.61  17 2.63   9 2.63  16 2.65  12 2.65  60 2.81   1 2.83
                             2 2.85
   5  0.119  0.468  0.426-  12 2.58  16 2.60   7 2.63  25 2.68  33 2.68  10 2.70  39 2.70  13 2.71
                             3 2.76
   6  0.123  0.958  0.420-   4 2.61  16 2.61  14 2.64   9 2.66  10 2.67   8 2.68   2 2.72  52 2.76
                            22 2.83
   7  0.873  0.460  0.426-  10 2.60  15 2.61   5 2.63   9 2.64  27 2.64  12 2.65  39 2.69  75 2.77
                            29 2.78
   8  0.378  0.955  0.427-  81 1.98  14 2.58  27 2.59   6 2.68  11 2.68  13 2.73  10 2.73  43 2.75
                            52 2.81  61 2.81
   9  0.873  0.211  0.420-  10 2.61  17 2.61  15 2.63   4 2.63   7 2.64   6 2.66  75 2.70  60 2.72
                            22 2.79
  10  0.119  0.213  0.429-  81 1.96   7 2.60   9 2.61   6 2.67   5 2.70   8 2.73  13 2.73  39 2.77
                            22 2.85  43 2.91
  11  0.630  0.959  0.423-  12 2.60   4 2.60  17 2.64  27 2.65   8 2.68  13 2.69   1 2.74  19 2.80
                            61 2.83
  12  0.874  0.711  0.428-   5 2.58  11 2.60  27 2.64   7 2.65  16 2.65   4 2.65  33 2.71  29 2.84
                             1 2.88
  13  0.377  0.214  0.430-  81 1.94  25 2.61  17 2.62  11 2.69   5 2.71   8 2.73  10 2.73   3 2.85
                            19 2.89  43 2.95
  14  0.376  0.712  0.423-   8 2.58  27 2.61  15 2.64  25 2.64   6 2.64  16 2.66  44 2.70  30 2.76
                            52 2.76
  15  0.626  0.462  0.421-   7 2.61  27 2.62   9 2.63  14 2.64  25 2.65  17 2.65  44 2.67  75 2.70
                            18 2.74
  16  0.125  0.711  0.427-   5 2.60   6 2.61  25 2.63   4 2.65  12 2.65  14 2.66  33 2.69  30 2.83
                             2 2.92
  17  0.626  0.211  0.423-   9 2.61  13 2.62   4 2.63  11 2.64  15 2.65  25 2.66  18 2.77  60 2.78
                            19 2.85
  18  0.548  0.374  0.317-  67 2.56  60 2.58  75 2.61  68 2.64  44 2.66  26 2.67  30 2.71  19 2.72
                            15 2.74  17 2.77   3 2.81  25 2.89
  19  0.533  0.124  0.316-  43 2.55  80 2.57  68 2.60  61 2.63   1 2.64  59 2.64   3 2.68  18 2.72
                            60 2.77  11 2.80  17 2.85  13 2.89
  20  0.547  0.124  0.040-  37 2.55  57 2.56  48 2.58  62 2.64  63 2.68  47 2.68  45 2.68  56 2.70
                            34 2.71
  21  0.121  0.460  0.128-  40 2.52  36 2.53  47 2.53  42 2.60  69 2.61  64 2.62  70 2.64  50 2.64
                            58 2.67  31 2.70  57 2.71  74 2.72
  22  0.044  0.138  0.315-  65 2.53  55 2.55  43 2.56  39 2.56  75 2.60  77 2.60  60 2.69   2 2.70
                            52 2.73   9 2.79   6 2.83  10 2.85  31 3.40
  23  0.042  0.130  0.033-  70 2.58  40 2.60  41 2.61  45 2.62  62 2.64  76 2.64  24 2.69  35 2.73
                            53 2.78
  24  0.130  0.958  0.132-  79 2.51  77 2.54  35 2.57  53 2.57  55 2.58  70 2.62  38 2.64  58 2.64
                            73 2.65  23 2.69  66 2.70  41 2.72
  25  0.375  0.462  0.427-  13 2.61  16 2.63  14 2.64  15 2.65  17 2.66   5 2.68  30 2.83   3 2.86
                            18 2.89
  26  0.455  0.546  0.219-  73 2.50  74 2.54  51 2.56  79 2.61  64 2.63  30 2.65  18 2.67  68 2.67
                            78 2.67  32 2.68  67 2.72  44 2.73
  27  0.624  0.711  0.423-   8 2.59  14 2.61  15 2.62   7 2.64  12 2.64  11 2.65  44 2.71  61 2.75
                            29 2.78
  28  0.956  0.790  0.221-  58 2.57  66 2.57  50 2.58  42 2.59  49 2.61   1 2.61  64 2.63   2 2.64
                            59 2.70  33 2.72  79 2.76  77 2.77
  29  0.795  0.621  0.319-  39 2.54  42 2.55  75 2.57  32 2.62  33 2.64  44 2.65   1 2.67  61 2.68
                            49 2.69  27 2.78   7 2.78  12 2.84
  30  0.292  0.630  0.319-  79 2.57  64 2.60  44 2.62  52 2.63   2 2.65  26 2.65  33 2.65  18 2.71
                             3 2.72  14 2.76  16 2.83  25 2.83
  31  0.203  0.281  0.225-  70 2.52  55 2.56  65 2.57  43 2.59  57 2.60   3 2.63  39 2.67  80 2.70
                            21 2.70  42 2.71  68 2.75  64 2.79  22 3.40
  32  0.706  0.549  0.221-  54 2.53  69 2.56  51 2.58  49 2.59  42 2.60  29 2.62  78 2.62  65 2.63
                            75 2.68  26 2.68  44 2.69  67 2.70
  33  0.040  0.632  0.326-   3 2.61  39 2.64  29 2.64   1 2.65  30 2.65   2 2.67   5 2.68  16 2.69
                            64 2.71  12 2.71  28 2.72  42 2.73
  34  0.797  0.862  0.042-  50 2.38  66 2.51  48 2.53  36 2.55  71 2.56  63 2.61  20 2.71  35 2.76
                            62 2.76
  35  0.056  0.866  0.038-  58 2.54  72 2.55  36 2.56  24 2.57  66 2.62  53 2.65  23 2.73  62 2.73
                            34 2.76
  36  0.046  0.628  0.037-  21 2.53  34 2.55  35 2.56  58 2.58  50 2.61  47 2.63  72 2.64  40 2.69
                            71 2.72
  37  0.627  0.222  0.129-  51 2.51  74 2.51  67 2.52  56 2.53  41 2.55  20 2.55  68 2.56  59 2.56
                            62 2.59  66 2.66  57 2.73  48 2.89
  38  0.382  0.955  0.130-  53 2.47  80 2.48  45 2.49  78 2.53  48 2.54  73 2.55  63 2.55  54 2.56
                            55 2.59  57 2.62  24 2.64  70 2.67
  39  0.037  0.383  0.325-   3 2.54  29 2.54  22 2.56  75 2.60  33 2.64  31 2.67  42 2.68   7 2.69
                             5 2.70  10 2.77  65 2.77  43 2.82
  40  0.031  0.382  0.038-  69 2.44  21 2.52  71 2.53  76 2.56  70 2.57  23 2.60  36 2.69  45 2.78
                            47 2.78
  41  0.872  0.215  0.128-  76 2.45  65 2.52  77 2.53  67 2.54  37 2.55  69 2.57  62 2.57  51 2.59
                            23 2.61  70 2.65  66 2.66  24 2.72
  42  0.955  0.545  0.224-  29 2.55  50 2.56  28 2.59  21 2.60  32 2.60  69 2.61  49 2.63  65 2.64
                            64 2.65  39 2.68  31 2.71  33 2.73
  43  0.298  0.110  0.320-  52 2.48  55 2.49  61 2.53  19 2.55  22 2.56  31 2.59  80 2.62   3 2.73
                             8 2.75  39 2.82  10 2.91  13 2.95
  44  0.540  0.630  0.321-  61 2.55  52 2.58  30 2.62  78 2.62  29 2.65  18 2.66  75 2.66  15 2.67
                            32 2.69  14 2.70  27 2.71  26 2.73
  45  0.295  0.119  0.039-  70 2.49  38 2.49  57 2.57  53 2.60  23 2.62  63 2.64  20 2.68  47 2.75
                            40 2.78
  46  0.548  0.625  0.044-  51 2.38  73 2.39  54 2.41  71 2.56  53 2.56  63 2.58  76 2.59  56 2.62
                            72 2.64
  47  0.296  0.379  0.039-  74 2.41  21 2.53  57 2.61  72 2.61  56 2.62  36 2.63  20 2.68  45 2.75
                            40 2.78
  48  0.625  0.950  0.132-  49 2.40  80 2.48  54 2.48  34 2.53  38 2.54  59 2.55  50 2.56  63 2.57
                            20 2.58  57 2.65  66 2.68  37 2.89
  49  0.706  0.794  0.220-  48 2.40  50 2.48  54 2.49  80 2.53  32 2.59   1 2.61  28 2.61  78 2.61
                            42 2.63  61 2.64  29 2.69  59 2.69
  50  0.866  0.706  0.129-  34 2.38  71 2.42  54 2.48  49 2.48  42 2.56  48 2.56  69 2.58  28 2.58
[...]
     12.86756      6.45280      2.83379         0.025432      0.037033     -0.031560
      9.04201      4.20780      2.79628        -0.036223      0.019949     -0.009437
      7.76474      8.00920      6.99468         0.038730      0.136232      0.013953
      7.81315      7.93922      0.88653        -0.095767     -0.171453      0.020414
     10.39144      6.53566      2.82198        -0.032957      0.078304      0.094018
      2.51347      0.25826      5.00083         0.145483      0.042372      0.132405
      7.74264      3.48454      0.76157         0.013121     -0.003184     -0.007632
      5.07835      1.87760      2.91701        -0.079579     -0.014308      0.009869
      5.16037      6.44715      2.89923        -0.030242      0.000505     -0.004564
      7.70892      0.45986      4.84799        -0.008505      0.057204      0.020175
      9.05804      1.18600      6.97156         0.005775     -0.021011      0.011235
[...]
      9.07350      2.65252      4.91360         0.040913     -0.046398     -0.048226
      6.37169      2.66558      4.85827        -0.026686     -0.039956      0.048223
     11.65891      4.17486      2.81483         0.005512      0.005874     -0.007257
      2.44098      1.89237      2.83279         0.042968     -0.014572      0.088173
     11.64953      5.68621      0.88546         0.060218      0.021425     -0.039371
      6.44743      5.71949      0.92597        -0.011939      0.026147      0.024949
      7.82927      6.50651      2.83621         0.003048      0.006715     -0.065673
      6.41922      4.13007      2.78290        -0.033463     -0.029267     -0.012026
     10.37417      3.46778      7.03353         0.024675      0.000458     -0.021555
     10.34410      3.45013      0.86804        -0.000516     -0.017611     -0.035560
     10.37063      0.48410      4.87151        -0.005215      0.041655     -0.065254
      9.04079      7.29017      4.93700         0.038586     -0.008033      0.002793
      6.46265      7.29503      4.94074         0.089213      0.024190     -0.052404
      5.04247      0.27633      4.88406        -0.162582      0.032578      0.102285
      3.74640      1.15639     10.58369        -0.017994     -0.010036      0.292296
    total drift:                                0.012279     -0.009608     -0.020470

  FREE ENERGIE OF THE ION-ELECTRON SYSTEM (eV)
  free  energy   TOTEN  =      -512.79466209 eV

  energy  without entropy=     -512.79466209  energy(sigma->0) =     -512.79466209

 d Force =-0.1239991E-02[-0.877E-02, 0.629E-02]  d Energy =-0.8149682E-03-0.425E-03
 d Force =-0.5151831E+02[-0.516E+02,-0.515E+02]  d Ewald  =-0.5151925E+02 0.940E-03

 Finite differences progress:
  Degree of freedom:   3/  3
  Displacement:        2/  2
  Total:               6/  6

 SECOND DERIVATIVES (NOT SYMMETRIZED)
              81X         81Y         81Z
 81X   -11.391722   -0.507356    0.781503
 81Y    -0.560734   -9.823345    0.886759
 81Z     0.771897    0.873737  -16.730870

 Eigenvectors and eigenvalues of the dynamical matrix

   1 f  =   17.209993 THz   108.133578 2PiTHz  574.063573 cm-1    71.174837 meV
             X         Y         Z           dx          dy          dz
     12.947741  8.035592  6.969752            0           0           0
      5.105175  8.071559  6.929728            0           0           0
      4.949924  3.460680  7.049398            0           0           0
     14.313551  8.796934  9.329436            0           0           0
      3.725375  4.276961  9.381463            0           0           0
      6.357541  8.764638  9.242966            0           0           0
     11.654185  4.210972  9.379429            0           0           0
      9.032523  8.735896  9.391401            0           0           0
     10.333771  1.933720  9.250817            0           0           0
      2.375617  1.943982  9.436290            0           0           0
     11.712626  8.765872  9.308462            0           0           0
     12.980676  6.503437  9.408441            0           0           0
      5.109164  1.953936  9.468271            0           0           0
      7.728134  6.507651  9.315585            0           0           0
      9.045140  4.220852  9.257083            0           0           0
      5.073317  6.501856  9.397153            0           0           0
      7.721324  1.925186  9.295654            0           0           0
      7.762784  3.422112  6.967969            0           0           0
      6.283971  1.133799  6.962638            0           0           0
      6.428579  1.129740  0.878720            0           0           0
      3.705484  4.208436  2.816869            0           0           0
      1.188694  1.260856  6.940994            0           0           0
      1.135691  1.190800  0.725566            0           0           0
      6.436066  8.760995  2.900314            0           0           0
      6.400205  4.226303  9.388708            0           0           0
      7.681351  4.990728  4.814740            0           0           0
     10.339419  6.499210  9.315955            0           0           0
     14.264242  7.225928  4.862987            0           0           0
     11.677297  5.683049  7.020701            0           0           0
      6.405872  5.763292  7.008694            0           0           0
      3.621194  2.565893  4.960228            0           0           0
     10.360912  5.024302  4.856517            0           0           0
      3.756166  5.778222  7.162880            0           0           0
     12.969068  7.879772  0.925674            0           0           0
      5.163396  7.917194  0.830298            0           0           0
      3.807011  5.745024  0.813805            0           0           0
      7.798522  2.032451  2.832513            0           0           0
      9.077547  8.733730  2.857427            0           0           0
      2.415206  3.500669  7.150393            0           0           0
      2.344093  3.490514  0.825101            0           0           0
     10.348141  1.969830  2.822490            0           0           0
     12.960353  4.985870  4.925592            0           0           0
      3.735283  1.010493  7.033508            0           0           0
      9.026111  5.757986  7.068181            0           0           0
      3.748243  1.091821  0.867003            0           0           0
      9.091210  5.718673  0.960427            0           0           0
      5.124479  3.470454  0.855627            0           0           0
     11.620923  8.687580  2.905895            0           0           0
     11.653130  7.264496  4.842290            0           0           0
     12.867560  6.452796  2.833790            0           0           0
      9.042010  4.207796  2.796278            0           0           0
      7.764740  8.009202  6.994677            0           0           0
      7.813155  7.939223  0.886525            0           0           0
     10.391439  6.535663  2.821980            0           0           0
      2.513474  0.258257  5.000827            0           0           0
      7.742638  3.484538  0.761574            0           0           0
      5.078354  1.877603  2.917008            0           0           0
      5.160365  6.447147  2.899226            0           0           0
      7.708921  0.459858  4.847993            0           0           0
      9.058044  1.185997  6.971560            0           0           0
[...]
      9.073503  2.652522  4.913605            0           0           0
      6.371693  2.665576  4.858272            0           0           0
     11.658911  4.174860  2.814827            0           0           0
      2.440982  1.892366  2.832794            0           0           0
     11.649530  5.686214  0.885461            0           0           0
      6.447433  5.719494  0.925972            0           0           0
      7.829267  6.506514  2.836212            0           0           0
      6.419224  4.130068  2.782896            0           0           0
     10.374165  3.467776  7.033531            0           0           0
     10.344097  3.450125  0.868038            0           0           0
     10.370626  0.484098  4.871515            0           0           0
      9.040790  7.290173  4.936995            0           0           0
      6.462653  7.295032  4.940739            0           0           0
      5.042471  0.276335  4.884059            0           0           0
      3.746399  1.156387 10.598693    -0.149142   -0.131894    0.979980

[...]

   3 f  =   12.946534 THz    81.345475 2PiTHz  431.849891 cm-1    53.542582 meV
             X         Y         Z           dx          dy          dz
     12.947741  8.035592  6.969752            0           0           0
      5.105175  8.071559  6.929728            0           0           0
      4.949924  3.460680  7.049398            0           0           0
     14.313551  8.796934  9.329436            0           0           0
      3.725375  4.276961  9.381463            0           0           0
      6.357541  8.764638  9.242966            0           0           0
     11.654185  4.210972  9.379429            0           0           0
      9.032523  8.735896  9.391401            0           0           0
     10.333771  1.933720  9.250817            0           0           0
      2.375617  1.943982  9.436290            0           0           0
     11.712626  8.765872  9.308462            0           0           0
     12.980676  6.503437  9.408441            0           0           0
      5.109164  1.953936  9.468271            0           0           0
      7.728134  6.507651  9.315585            0           0           0
      9.045140  4.220852  9.257083            0           0           0
      5.073317  6.501856  9.397153            0           0           0
      7.721324  1.925186  9.295654            0           0           0
      7.762784  3.422112  6.967969            0           0           0
      6.283971  1.133799  6.962638            0           0           0
      6.428579  1.129740  0.878720            0           0           0
      3.705484  4.208436  2.816869            0           0           0
      1.188694  1.260856  6.940994            0           0           0
      1.135691  1.190800  0.725566            0           0           0
      6.436066  8.760995  2.900314            0           0           0
      6.400205  4.226303  9.388708            0           0           0
      7.681351  4.990728  4.814740            0           0           0
     10.339419  6.499210  9.315955            0           0           0
     14.264242  7.225928  4.862987            0           0           0
     11.677297  5.683049  7.020701            0           0           0
      6.405872  5.763292  7.008694            0           0           0
      3.621194  2.565893  4.960228            0           0           0
     10.360912  5.024302  4.856517            0           0           0
      3.756166  5.778222  7.162880            0           0           0
     12.969068  7.879772  0.925674            0           0           0
      5.163396  7.917194  0.830298            0           0           0
      3.807011  5.745024  0.813805            0           0           0
      7.798522  2.032451  2.832513            0           0           0
      9.077547  8.733730  2.857427            0           0           0
      2.415206  3.500669  7.150393            0           0           0
      2.344093  3.490514  0.825101            0           0           0
     10.348141  1.969830  2.822490            0           0           0
     12.960353  4.985870  4.925592            0           0           0
      3.735283  1.010493  7.033508            0           0           0
      9.026111  5.757986  7.068181            0           0           0
      3.748243  1.091821  0.867003            0           0           0
      9.091210  5.718673  0.960427            0           0           0
      5.124479  3.470454  0.855627            0           0           0
     11.620923  8.687580  2.905895            0           0           0
     11.653130  7.264496  4.842290            0           0           0
     12.867560  6.452796  2.833790            0           0           0
      9.042010  4.207796  2.796278            0           0           0
      7.764740  8.009202  6.994677            0           0           0
      7.813155  7.939223  0.886525            0           0           0
     10.391439  6.535663  2.821980            0           0           0
      2.513474  0.258257  5.000827            0           0           0
      7.742638  3.484538  0.761574            0           0           0
      5.078354  1.877603  2.917008            0           0           0
      5.160365  6.447147  2.899226            0           0           0
      7.708921  0.459858  4.847993            0           0           0
      9.058044  1.185997  6.971560            0           0           0
[...]
      9.073503  2.652522  4.913605            0           0           0
      6.371693  2.665576  4.858272            0           0           0
     11.658911  4.174860  2.814827            0           0           0
      2.440982  1.892366  2.832794            0           0           0
     11.649530  5.686214  0.885461            0           0           0
      6.447433  5.719494  0.925972            0           0           0
      7.829267  6.506514  2.836212            0           0           0
      6.419224  4.130068  2.782896            0           0           0
     10.374165  3.467776  7.033531            0           0           0
     10.344097  3.450125  0.868038            0           0           0
     10.370626  0.484098  4.871515            0           0           0
      9.040790  7.290173  4.936995            0           0           0
      6.462653  7.295032  4.940739            0           0           0
      5.042471  0.276335  4.884059            0           0           0
      3.746399  1.156387 10.598693     0.247825   -0.964419   -0.092083

 Finite differences POTIM=  1.500000000000000E-002
  LATTYP: Found a hexagonal cell.
 ALAT       =    10.5600004196
 C/A-ratio  =     2.0833332505

  Lattice vectors:

 A1 = (   5.2800002098,  -9.1452286274,   0.0000000000)
 A2 = ( -10.5600004196,   0.0000000000,   0.0000000000)
 A3 = (   0.0000000000,   0.0000000000, -22.0000000000)

Analysis of symmetry for initial positions (statically):
 Subroutine PRICEL returns:
 Original cell was already a primitive cell.

[...]

The static configuration has the point symmetry C_1 .

Analysis of symmetry for dynamics (positions and initial velocities):
 Subroutine PRICEL returns:
 Original cell was already a primitive cell.

[...]

The dynamic configuration has the point symmetry C_1 .

Analysis of constrained symmetry for selective dynamics:
 Subroutine PRICEL returns:
 Original cell was already a primitive cell.

[...]

The constrained configuration has the point symmetry C_1 .

Analysis of structural, dynamic, and magnetic symmetry:
 Subroutine PRICEL returns:
 Original cell was already a primitive cell.

 Routine SETGRP: Setting up the symmetry group for a
 hexagonal supercell.

 Subroutine GETGRP returns: Found  1 space group operations
 (whereof  1 operations were pure point group operations)
 out of a pool of 24 trial point group operations.

The magnetic configuration has the point symmetry C_1 .

 Subroutine INISYM returns: Found  1 space group operations
 (whereof  1 operations are pure point group operations),
 and found     1 'primitive' translations

 KPOINTS: mesh auto

Automatic generation of k-mesh.
Space group operators:
 irot       det(A)        alpha          n_x          n_y          n_z        tau_x        tau_y        tau_z
    1     1.000000     0.000001     1.000000     0.000000     0.000000     0.000000     0.000000     0.000000

 Subroutine IBZKPT returns following result:

 Found      4 irreducible k-points:

 Following reciprocal coordinates:
            Coordinates               Weight
  0.000000  0.000000  0.000000      1.000000
  0.500000  0.000000  0.000000      1.000000
  0.000000  0.500000  0.000000      1.000000
  0.500000  0.500000  0.000000      1.000000

 Following cartesian coordinates:
            Coordinates               Weight
  0.000000  0.000000  0.000000      1.000000
  0.047348 -0.027337  0.000000      1.000000
  0.000000  0.054673  0.000000      1.000000
  0.047348  0.027337  0.000000      1.000000

 TETIRR: Found     12 inequivalent tetrahedra from       24
 BZINTS: Fermi energy:  2.070166;782.000000 electrons
         Band energy:-711.236520;  BLOECHL correction: -0.122630