 vasp.5.4.4.18Apr17-6-g9f103f2a35 (build Oct 25 2019 11:13:22) complex

 executed on             LinuxIFC date 2022.02.12  05:14:42

 INCAR:
 POTCAR:    PAW_PBE Pt 04Feb2005
 POTCAR:    PAW_PBE Co 02Aug2007
 POTCAR:    PAW_PBE Ni 02Aug2007
 POTCAR:    PAW_PBE H 15Jun2001
 POTCAR:    PAW_PBE Pt 04Feb2005
   VRHFIN =Pt: s1d9

   TITEL  = PAW_PBE Pt 04Feb2005
   POMASS =  195.080; ZVAL   =   10.000    mass and valenz
   ENMAX  =  230.283; ENMIN  =  172.712 eV

 POTCAR:    PAW_PBE Co 02Aug2007
   VRHFIN =Co: d8 s1

   TITEL  = PAW_PBE Co 02Aug2007
   POMASS =   58.933; ZVAL   =    9.000    mass and valenz
   ENMAX  =  267.968; ENMIN  =  200.976 eV

 POTCAR:    PAW_PBE Ni 02Aug2007
   VRHFIN =Ni:

   TITEL  = PAW_PBE Ni 02Aug2007
   POMASS =   58.690; ZVAL   =   10.000    mass and valenz
   ENMAX  =  269.532; ENMIN  =  202.149 eV

 POTCAR:    PAW_PBE H 15Jun2001
   VRHFIN =H: ultrasoft test

   TITEL  = PAW_PBE H 15Jun2001
   POMASS =    1.000; ZVAL   =    1.000    mass and valenz
   ENMAX  =  250.000; ENMIN  =  200.000 eV

 Optimization of the real space projectors (new method)

 maximal supplied QI-value         = 14.36
 optimisation between [QCUT,QGAM] = [ 11.92, 23.98] = [ 39.79,161.09] Ry
 Optimized for a Real-space Cutoff    1.49 Angstroem

   l    n(q)    QCUT    max X(q) W(low)/X(q) W(high)/X(q)  e(spline)
   2     10    11.920    66.195    0.79E-04    0.18E-03    0.24E-06
   2     10    11.920    64.643    0.81E-04    0.19E-03    0.24E-06
   0     11    11.920    95.520    0.28E-04    0.54E-04    0.18E-06
   0     11    11.920    63.403    0.27E-04    0.52E-04    0.17E-06
   1     10    11.920    19.961    0.18E-04    0.11E-03    0.23E-06
   1     10    11.920    13.289    0.25E-04    0.87E-04    0.19E-06
 Optimization of the real space projectors (new method)

[...]

   l    n(q)    QCUT    max X(q) W(low)/X(q) W(high)/X(q)  e(spline)
   2      9    11.864    60.317    0.21E-03    0.51E-03    0.25E-06
   2      9    11.864    55.921    0.21E-03    0.51E-03    0.26E-06
   0      9    11.864    51.690    0.22E-03    0.30E-04    0.17E-06
   0      9    11.864    30.015    0.20E-03    0.28E-04    0.15E-06
   1      9    11.864    18.849    0.76E-04    0.33E-03    0.17E-06
   1      9    11.864    14.624    0.60E-04    0.28E-03    0.15E-06
 Optimization of the real space projectors (new method)

 maximal supplied QI-value         = 34.20
 optimisation between [QCUT,QGAM] = [ 11.97, 23.94] = [ 40.13,160.53] Ry
 Optimized for a Real-space Cutoff    1.18 Angstroem

   l    n(q)    QCUT    max X(q) W(low)/X(q) W(high)/X(q)  e(spline)
   0      8    11.971    19.460    0.15E-03    0.31E-03    0.25E-06
   0      8    11.971    12.209    0.13E-03    0.29E-03    0.25E-06
   1      8    11.971     4.655    0.22E-03    0.24E-03    0.21E-06
  PAW_PBE Pt 04Feb2005                  :
  PAW_PBE Co 02Aug2007                  :
  PAW_PBE Ni 02Aug2007                  :
  PAW_PBE H 15Jun2001                   :

 POSCAR: 11.26
  positions in direct lattice
  velocities in cartesian coordinates
 exchange correlation table for  LEXCH =        8
   RHO(1)=    0.500       N(1)  =     2000
   RHO(2)=  100.500       N(2)  =     4000

 ion  position               nearest neighbor table
   1  0.789  0.879  0.301-  49 2.47  59 2.56  60 2.64  28 2.69   4 2.73   2 2.74  29 2.75  19 2.80
                            11 2.85  12 2.85  61 2.89  33 2.94
   2  0.033  0.879  0.293-  79 2.49  77 2.57  60 2.72   1 2.74  28 2.76   4 2.81   6 2.89  30 2.90
                            16 2.94  33 2.99  22 3.17  52 3.23
   3  0.276  0.362  0.311-  64 2.54  68 2.62  31 2.63  39 2.67  33 2.70   5 2.71  30 2.76  13 2.76
                            25 2.78  19 2.81  43 2.82  18 2.87
   4  0.875  0.964  0.400-  60 2.71   9 2.72  17 2.72   1 2.73   6 2.79  16 2.79  12 2.81   2 2.81
                            11 2.83
   5  0.113  0.467  0.410-  39 2.60  33 2.70   3 2.71  12 2.72  16 2.73  10 2.76   7 2.77  25 2.85
                            13 2.98
   6  0.125  0.959  0.400-  81 1.78  52 2.62  22 2.70   4 2.79   8 2.83  16 2.86   9 2.88   2 2.89
                            10 2.90  14 2.91
   7  0.873  0.455  0.412-  75 2.54  39 2.58   5 2.77  10 2.79  27 2.80   9 2.80  29 2.82  15 2.84
                            12 2.93
   8  0.377  0.956  0.415-  81 1.53  43 2.53  52 2.56  61 2.68  13 2.75  27 2.80  11 2.81   6 2.83
                            10 2.84  14 2.90
   9  0.864  0.211  0.396-  75 2.60  22 2.67   4 2.72  17 2.73  15 2.74  60 2.77   7 2.80   6 2.88
                            10 3.01
  10  0.129  0.214  0.413-  81 2.04  22 2.64  43 2.69  13 2.72   5 2.76  39 2.77   7 2.79   8 2.84
                             6 2.90   9 3.01
  11  0.629  0.952  0.410-  61 2.65  12 2.71  19 2.73  27 2.76  17 2.79  13 2.81   8 2.81   4 2.83
                             1 2.85
  12  0.875  0.714  0.408-  29 2.66  16 2.68  11 2.71   5 2.72   4 2.81  33 2.81  27 2.83   1 2.85
                             7 2.93
  13  0.378  0.200  0.413-  43 2.70  10 2.72  19 2.73   8 2.75   3 2.76  25 2.78  17 2.80  11 2.81
                             5 2.98
  14  0.381  0.696  0.403-  52 2.55  44 2.56  15 2.69  25 2.81  27 2.84  30 2.88  16 2.90   8 2.90
                             6 2.91
  15  0.620  0.456  0.399-  75 2.53  44 2.61  14 2.69   9 2.74  25 2.79  17 2.83   7 2.84  18 2.85
                            27 2.87
  16  0.116  0.709  0.404-  12 2.68  30 2.69   5 2.73  33 2.76   4 2.79   6 2.86  14 2.90  25 2.92
                             2 2.94
  17  0.627  0.201  0.404-  18 2.69   4 2.72   9 2.73  19 2.79  11 2.79  25 2.79  13 2.80  60 2.82
                            15 2.83
  18  0.538  0.348  0.301-  67 2.46  26 2.59  68 2.67  17 2.69  60 2.69  19 2.70  25 2.82  15 2.85
                             3 2.87  30 2.95  75 3.20
  19  0.527  0.113  0.308-  59 2.47  80 2.51  68 2.57  43 2.61  61 2.63  18 2.70  13 2.73  11 2.73
                            17 2.79   1 2.80   3 2.81  60 2.92
  20  0.546  0.126  0.067-  48 2.50  57 2.52  47 2.52  62 2.53  37 2.60  56 2.66  34 2.70  63 2.89

  21  0.118  0.408  0.119-  47 2.44  40 2.48  36 2.49  69 2.60  57 2.64  42 2.67  64 2.70  70 2.72
                            31 2.74  50 3.30
  22  0.055  0.148  0.310-  77 2.43  65 2.51  55 2.51  43 2.57  39 2.62  10 2.64   9 2.67   6 2.70
                            75 2.90  31 3.04  52 3.05   2 3.17  60 3.23
  23  0.009  0.102  0.049-  40 2.49  62 2.55  70 2.57  41 2.59  45 2.66  76 2.69  24 2.70  35 2.74
                            53 3.07
  24  0.138  0.927  0.142-  79 2.46  35 2.50  77 2.54  58 2.54  53 2.56  55 2.59  38 2.59  73 2.64
                            70 2.65  23 2.70  66 2.83
  25  0.376  0.448  0.407-  30 2.76  13 2.78   3 2.78  15 2.79  17 2.79  14 2.81  18 2.82   5 2.85
                            16 2.92
  26  0.480  0.554  0.230-  74 2.50  73 2.52  44 2.52  51 2.59  18 2.59  79 2.60  78 2.62  30 2.63
                            32 2.66  67 2.70
  27  0.627  0.707  0.413-  44 2.49  61 2.70  11 2.76   7 2.80   8 2.80  29 2.80  12 2.83  14 2.84
                            15 2.87
  28  0.953  0.759  0.204-  58 2.53  50 2.61  66 2.61  42 2.62  36 2.63  33 2.66   1 2.69   2 2.76
                            64 2.80  49 2.88  34 3.22  59 3.23  35 3.30
  29  0.797  0.631  0.311-  39 2.59  32 2.61  49 2.62  75 2.62  42 2.63  33 2.64  44 2.65  12 2.66
                             1 2.75  27 2.80   7 2.82  61 2.84
  30  0.274  0.608  0.304-  79 2.43  33 2.60  26 2.63  64 2.65  16 2.69  25 2.76   3 2.76  14 2.88
                             2 2.90  18 2.95  52 3.26
  31  0.187  0.262  0.225-  70 2.52  57 2.57  65 2.58  55 2.59  39 2.62   3 2.63  43 2.63  42 2.72
                            80 2.73  21 2.74  68 2.76  64 2.79  22 3.04
  32  0.711  0.561  0.214-  69 2.53  51 2.56  54 2.61  29 2.61  49 2.62  26 2.66  65 2.66  50 2.66
                            42 2.68  75 2.69  78 2.71  67 2.73  44 2.73
  33  0.042  0.609  0.305-  42 2.47  64 2.50  39 2.51  30 2.60  29 2.64  28 2.66   5 2.70   3 2.70
                            16 2.76  12 2.81   1 2.94   2 2.99
  34  0.782  0.884  0.080-  48 2.38  35 2.38  50 2.53  66 2.54  36 2.55  62 2.67  20 2.70  28 3.22

  35  0.002  0.866  0.072-  36 2.37  34 2.38  66 2.43  24 2.50  58 2.60  23 2.74  62 2.75  28 3.30

  36  0.006  0.657  0.094-  50 2.33  35 2.37  58 2.38  21 2.49  34 2.55  28 2.63
  37  0.628  0.234  0.150-  41 2.41  56 2.42  59 2.43  67 2.44  62 2.45  68 2.50  51 2.50  74 2.51
                            20 2.60  66 2.60
  38  0.361  0.942  0.135-  53 2.40  45 2.41  63 2.42  57 2.43  48 2.45  55 2.45  54 2.46  78 2.48
                            80 2.54  73 2.59  24 2.59  70 2.83
  39  0.024  0.396  0.316-  42 2.46  33 2.51   7 2.58  75 2.58  65 2.58  29 2.59   5 2.60  31 2.62
                            22 2.62   3 2.67  10 2.77
  40  0.013  0.321  0.044-  69 2.32  76 2.45  21 2.48  23 2.49  70 2.51  45 2.63  71 2.93
  41  0.844  0.228  0.139-  67 2.35  76 2.37  77 2.38  37 2.41  62 2.44  51 2.48  69 2.48  66 2.49
                            65 2.58  23 2.59  70 2.61
  42  0.967  0.520  0.219-  39 2.46  33 2.47  50 2.48  64 2.48  65 2.50  28 2.62  29 2.63  69 2.65
                            21 2.67  32 2.68  31 2.72
  43  0.303  0.099  0.319-  52 2.45  80 2.46  55 2.51   8 2.53  61 2.56  22 2.57  19 2.61  31 2.63
                            10 2.69  13 2.70   3 2.82
  44  0.553  0.648  0.317-  61 2.45  78 2.47  27 2.49  26 2.52  14 2.56  52 2.57  15 2.61  29 2.65
                            75 2.73  32 2.73
  45  0.251  0.091  0.049-  38 2.41  57 2.45  53 2.48  70 2.50  63 2.54  40 2.63  23 2.66
  46  0.529  0.612  0.047-  54 2.37  73 2.44  51 2.45  71 2.47  72 2.53  53 2.63  56 2.72  76 2.87
                            63 3.07
  47  0.334  0.361  0.072-  74 2.29  56 2.44  21 2.44  57 2.50  72 2.50  20 2.52
  48  0.581  0.937  0.137-  49 2.29  63 2.35  34 2.38  54 2.38  80 2.38  38 2.45  59 2.46  20 2.50
                            57 2.63  50 2.74
  49  0.677  0.809  0.223-  48 2.29  50 2.34  61 2.46  78 2.47   1 2.47  59 2.54  80 2.57  29 2.62
                            32 2.62  54 2.79  28 2.88
  50  0.810  0.679  0.140-  36 2.33  49 2.34  54 2.38  71 2.39  42 2.48  69 2.52  34 2.53  28 2.61
                            32 2.66  48 2.74  21 3.30
  51  0.629  0.454  0.133-  56 2.40  76 2.44  46 2.45  41 2.48  37 2.50  67 2.53  32 2.56  26 2.59
                            74 2.59  69 2.66  73 2.78  54 2.83
  52  0.320  0.872  0.317-  55 2.38  79 2.41  61 2.43  43 2.45  78 2.46  14 2.55   8 2.56  44 2.57
                             6 2.62  22 3.05   2 3.23  30 3.26
  53  0.299  0.850  0.050-  73 2.39  38 2.40  45 2.48  24 2.56  63 2.58  46 2.63  72 2.82  23 3.07

  54  0.581  0.726  0.124-  46 2.37  50 2.38  48 2.38  73 2.40  71 2.42  63 2.42  38 2.46  78 2.50
                            32 2.61  49 2.79  51 2.83
  55  0.229  0.013  0.230-  52 2.38  80 2.44  79 2.44  38 2.45  43 2.51  22 2.51  78 2.56  24 2.59
                            31 2.59  77 2.61  70 2.62
  56  0.549  0.361  0.055-  51 2.40  37 2.42  47 2.44  74 2.52  76 2.56  62 2.60  72 2.61  20 2.66
                            46 2.72
  57  0.344  0.167  0.132-  38 2.43  45 2.45  80 2.47  47 2.50  20 2.52  68 2.55  31 2.57  48 2.63
[...]

 FORCES acting on ions
    electron-ion (+dipol)            ewald-force                    non-local-force                 convergence-correction
   -.140E+03 0.394E+02 -.130E+04   0.140E+03 -.392E+02 0.130E+04   0.385E+00 -.193E+00 0.253E+01   -.749E-01 -.197E-01 -.259E+00
   0.464E+02 0.645E+02 -.116E+04   -.465E+02 -.639E+02 0.115E+04   0.124E+00 -.588E+00 0.190E+01   0.241E-01 -.159E-01 -.215E+00
   -.614E+02 -.438E+02 -.146E+04   0.602E+02 0.442E+02 0.146E+04   0.117E+01 -.344E+00 0.182E+01   0.104E-01 -.237E-01 -.246E+00
   -.432E+02 0.179E+02 -.271E+04   0.435E+02 -.172E+02 0.270E+04   -.303E+00 -.697E+00 0.160E+01   0.159E-01 0.286E-03 -.572E-01
   -.694E+02 -.331E+02 -.283E+04   0.685E+02 0.337E+02 0.283E+04   0.947E+00 -.528E+00 0.246E+01   -.173E-01 -.216E-01 -.535E-01
   0.103E+03 0.182E+02 -.269E+04   -.103E+03 -.192E+02 0.269E+04   0.408E-01 0.987E+00 0.140E+01   0.224E-01 0.237E-01 -.589E-01
   0.146E+02 0.542E+01 -.291E+04   -.145E+02 -.641E+01 0.291E+04   -.148E+00 0.948E+00 0.274E+01   -.230E-01 0.266E-01 -.357E-01
   0.434E+02 0.139E+02 -.296E+04   -.429E+02 -.138E+02 0.295E+04   -.433E+00 -.983E-01 0.275E+01   -.447E-01 -.475E-02 -.740E-01
   0.169E+02 0.739E+02 -.272E+04   -.180E+02 -.732E+02 0.272E+04   0.102E+01 -.681E+00 0.205E+01   0.233E-01 0.259E-01 -.550E-01
   0.545E+02 0.489E+00 -.287E+04   -.537E+02 0.589E+00 0.287E+04   -.844E+00 -.104E+01 0.228E+01   -.179E-01 -.339E-01 -.119E-01
   -.104E+03 -.185E+02 -.284E+04   0.104E+03 0.179E+02 0.284E+04   0.604E+00 0.549E+00 0.162E+01   -.740E-01 -.917E-02 -.334E-01
   -.636E+02 -.356E+02 -.279E+04   0.639E+02 0.355E+02 0.279E+04   -.223E+00 0.651E-01 0.185E+01   -.503E-01 -.137E-01 -.537E-01
   -.429E+02 -.673E+02 -.286E+04   0.431E+02 0.670E+02 0.286E+04   -.154E+00 0.352E+00 0.218E+01   -.404E-01 -.563E-01 -.161E-01
   0.110E+03 0.480E+02 -.275E+04   -.109E+03 -.484E+02 0.274E+04   -.647E+00 0.394E+00 0.259E+01   0.526E-01 0.148E-02 -.952E-01
   0.866E+02 0.418E+02 -.274E+04   -.860E+02 -.409E+02 0.274E+04   -.631E+00 -.886E+00 0.206E+01   0.299E-01 0.464E-01 -.897E-01
   -.309E+02 -.314E+02 -.270E+04   0.303E+02 0.311E+02 0.269E+04   0.526E+00 0.318E+00 0.174E+01   0.109E-01 -.104E-03 -.807E-01
   -.372E+02 -.237E+02 -.277E+04   0.372E+02 0.234E+02 0.277E+04   0.457E-01 0.305E+00 0.182E+01   0.387E-02 0.248E-02 -.413E-01
   0.455E+02 -.611E+02 -.133E+04   -.443E+02 0.601E+02 0.133E+04   -.108E+01 0.935E+00 0.203E+01   -.185E-01 0.311E-01 -.269E+00
   -.107E+03 -.827E+02 -.148E+04   0.106E+03 0.823E+02 0.148E+04   0.122E+01 0.491E+00 0.234E+01   -.380E-01 -.383E-01 -.279E+00
   0.597E+02 0.538E+02 0.278E+04   -.590E+02 -.537E+02 -.278E+04   -.648E+00 -.426E+00 -.193E+01   -.442E-01 0.137E+00 -.292E-01
   -.119E+03 -.144E+03 0.197E+04   0.118E+03 0.144E+03 -.197E+04   -.154E+00 -.383E+00 0.135E+01   0.182E+00 -.294E-01 -.209E+00
   0.716E+02 0.693E+02 -.155E+04   -.709E+02 -.688E+02 0.155E+04   -.859E+00 -.460E+00 0.185E+01   0.409E-01 0.166E-01 -.230E+00
   0.761E+01 0.189E+03 0.297E+04   -.731E+01 -.187E+03 -.296E+04   -.200E+00 -.164E+01 -.200E+01   0.159E-01 0.327E-01 -.516E-01
   0.158E+03 0.252E+02 0.147E+04   -.157E+03 -.260E+02 -.147E+04   -.770E+00 0.959E+00 -.370E+00   0.496E-01 -.398E-01 -.169E+00
   -.218E+02 -.383E+02 -.276E+04   0.218E+02 0.378E+02 0.276E+04   -.282E-01 0.512E+00 0.182E+01   0.224E-01 -.123E-01 -.948E-01
   0.110E+03 0.883E+02 -.232E+03   -.110E+03 -.880E+02 0.232E+03   0.457E-01 -.291E+00 0.162E+00   -.109E-01 0.374E-02 -.259E+00
   -.771E+01 0.470E+02 -.292E+04   0.773E+01 -.465E+02 0.292E+04   0.374E-01 -.491E+00 0.265E+01   -.647E-01 0.136E-01 -.760E-01
   -.478E+02 -.465E+02 0.334E+03   0.476E+02 0.453E+02 -.334E+03   0.246E+00 0.124E+01 -.543E-01   -.360E-01 -.306E-01 -.268E+00
   -.863E+02 -.507E+02 -.145E+04   0.868E+02 0.501E+02 0.144E+04   -.412E+00 0.622E+00 0.199E+01   -.588E-01 0.199E-01 -.220E+00
   0.107E+02 0.412E+01 -.133E+04   -.114E+02 -.351E+01 0.133E+04   0.720E+00 -.521E+00 0.189E+01   0.130E-01 -.358E-01 -.238E+00
   -.650E+02 -.967E+02 -.268E+02   0.647E+02 0.962E+02 0.268E+02   0.396E+00 0.481E+00 0.281E+00   0.431E-01 -.276E-02 -.268E+00
   -.212E+02 -.284E+02 0.129E+03   0.217E+02 0.284E+02 -.129E+03   -.509E+00 -.764E-01 0.809E+00   -.253E-02 0.242E-01 -.200E+00
   -.680E+02 -.122E+03 -.120E+04   0.680E+02 0.122E+03 0.120E+04   0.540E-01 0.828E+00 0.727E+00   -.372E-01 -.355E-01 -.220E+00
   -.224E+01 0.110E+03 0.236E+04   0.357E+01 -.110E+03 -.236E+04   -.113E+01 -.357E+00 -.152E+01   -.458E-01 0.688E-02 -.647E-01
   0.749E+01 0.137E+03 0.248E+04   -.856E+01 -.137E+03 -.248E+04   0.106E+01 -.764E+00 -.243E+01   -.617E-01 -.336E-01 -.560E-01
   -.770E+01 0.875E+02 0.223E+04   0.759E+01 -.858E+02 -.223E+04   0.623E-01 -.137E+01 -.214E+01   -.255E-02 -.438E-01 -.840E-01
   0.126E+03 0.693E+02 0.108E+04   -.126E+03 -.695E+02 -.108E+04   -.282E+00 0.699E-02 0.388E-01   -.112E+00 0.392E-01 -.221E+00
   0.501E+02 -.606E+02 0.142E+04   -.496E+02 0.606E+02 -.142E+04   -.525E+00 0.209E-01 -.338E+00   0.287E-01 0.222E-01 -.158E+00
   -.707E+02 0.153E+02 -.140E+04   0.706E+02 -.151E+02 0.140E+04   0.172E+00 -.282E+00 0.352E+00   -.235E-01 -.290E-01 -.221E+00
   -.256E+03 -.127E+03 0.278E+04   0.255E+03 0.126E+03 -.277E+04   0.151E+01 0.151E+01 -.399E+01   0.586E-01 0.151E-02 -.293E-01
   -.172E+02 0.994E+02 0.132E+04   0.168E+02 -.993E+02 -.132E+04   0.421E+00 -.263E+00 -.699E+00   -.376E-01 0.301E-01 -.177E+00
   -.981E+02 -.853E+02 0.139E+03   0.980E+02 0.855E+02 -.139E+03   0.535E-01 -.171E+00 -.332E+00   -.491E-03 -.129E-02 -.236E+00
   0.212E+02 -.128E+03 -.148E+04   -.214E+02 0.128E+03 0.148E+04   0.152E+00 0.510E+00 0.476E+00   0.140E-01 -.238E-01 -.197E+00
   0.852E+02 0.130E+03 -.141E+04   -.853E+02 -.129E+03 0.141E+04   -.404E-01 -.624E+00 -.657E+00   0.444E-01 0.216E-01 -.197E+00
   -.796E+02 -.138E+03 0.273E+04   0.778E+02 0.137E+03 -.272E+04   0.156E+01 0.163E+01 -.331E+01   0.637E-01 0.443E-01 -.177E-01
   0.169E+02 -.254E+02 0.276E+04   -.174E+02 0.255E+02 -.276E+04   0.412E+00 -.142E+00 -.331E+01   -.422E-01 -.305E-01 -.852E-02
   0.228E+03 -.397E+02 0.247E+04   -.226E+03 0.395E+02 -.247E+04   -.130E+01 0.243E+00 -.199E+01   0.307E-01 0.233E-02 -.465E-01
   -.185E+03 -.301E+02 0.146E+04   0.185E+03 0.302E+02 -.146E+04   0.257E+00 -.221E-01 0.202E+00   0.415E-01 0.282E-01 -.162E+00
   -.191E+03 0.591E+02 0.103E+02   0.191E+03 -.588E+02 -.975E+01   0.370E+00 -.403E+00 -.471E+00   -.824E-02 0.104E-01 -.214E+00
   -.188E+03 -.404E+02 0.139E+04   0.188E+03 0.409E+02 -.139E+04   -.685E-01 -.438E+00 0.509E+00   0.242E-01 0.404E-01 -.168E+00
   0.268E+02 -.682E+02 0.135E+04   -.267E+02 0.679E+02 -.135E+04   -.539E-01 0.509E+00 -.401E-01   -.817E-01 0.220E-02 -.175E+00
   0.194E+03 0.389E+02 -.148E+04   -.194E+03 -.390E+02 0.148E+04   -.781E+00 0.176E+00 0.124E+00   0.569E-01 -.108E-01 -.172E+00
   0.180E+03 0.546E+01 0.274E+04   -.178E+03 -.556E+01 -.273E+04   -.187E+01 0.105E+00 -.328E+01   0.266E-01 -.199E-01 -.172E-01
   -.968E+02 0.350E+02 0.159E+04   0.969E+02 -.347E+02 -.159E+04   -.183E+00 -.413E+00 0.290E+00   0.861E-02 0.461E-02 -.134E+00
   0.113E+03 -.577E+02 -.106E+03   -.112E+03 0.576E+02 0.106E+03   -.399E+00 0.112E+00 -.155E+00   0.508E-01 0.294E-02 -.195E+00
   0.134E+03 0.309E+02 0.297E+04   -.134E+03 -.305E+02 -.297E+04   -.151E+00 -.304E+00 -.150E+01   -.185E+00 0.325E-02 0.489E-02
   -.521E+02 -.162E+03 0.172E+04   0.520E+02 0.162E+03 -.172E+04   -.592E-01 0.330E+00 0.141E+00   0.915E-01 0.128E+00 -.237E+00
   0.192E+03 -.103E+02 0.134E+04   -.192E+03 0.105E+02 -.134E+04   0.406E+00 -.417E-01 0.482E+00   0.251E-01 -.116E+00 -.211E+00
   -.125E+03 0.270E+02 0.203E+03   0.124E+03 -.270E+02 -.202E+03   0.387E+00 -.970E-01 -.349E+00   -.616E-01 0.161E-01 -.274E+00
   0.603E+00 0.571E+02 -.127E+04   -.442E+00 -.572E+02 0.127E+04   -.133E+00 0.109E+00 0.532E+00   -.311E-01 0.191E-01 -.240E+00
[...]
   -.108E+02 -.953E+02 0.171E+03   0.112E+02 0.952E+02 -.170E+03   -.460E+00 0.123E-02 -.314E+00   -.135E-01 0.174E-01 -.345E+00
   -.170E+03 -.109E+03 0.165E+04   0.170E+03 0.109E+03 -.165E+04   0.351E-01 -.185E+00 -.337E+00   0.246E-01 0.233E-01 -.152E+00
   -.703E+02 0.754E+01 0.148E+04   0.706E+02 -.750E+01 -.148E+04   -.240E+00 -.125E+00 -.692E+00   0.754E-01 0.238E-01 -.179E+00
   -.272E+03 -.156E+03 0.302E+04   0.269E+03 0.155E+03 -.302E+04   0.223E+01 0.136E+01 -.369E+01   0.637E-02 0.200E-01 -.309E-01
   0.296E+03 -.679E+02 0.296E+04   -.294E+03 0.673E+02 -.296E+04   -.220E+01 0.769E+00 -.281E+01   -.455E-01 -.184E+00 0.635E-02
   0.878E+02 0.273E+02 0.151E+04   -.878E+02 -.274E+02 -.151E+04   0.106E+00 0.197E+00 -.207E-02   -.277E-01 -.596E-01 -.181E+00
   0.140E+03 0.119E+02 0.120E+04   -.140E+03 -.118E+02 -.120E+04   0.108E+00 -.254E-01 -.318E+00   -.107E+00 -.891E-01 -.338E+00
   0.869E+02 0.244E+02 -.156E+04   -.867E+02 -.244E+02 0.156E+04   -.156E+00 -.410E-01 -.277E+00   0.407E-03 0.365E-01 -.240E+00
   -.795E+00 -.985E+01 0.308E+04   0.850E+00 0.103E+02 -.308E+04   -.808E-01 -.399E+00 -.174E+01   -.525E-01 0.100E-01 -.427E-01
   0.605E+02 0.176E+03 -.539E+02   -.610E+02 -.176E+03 0.549E+02   0.460E+00 0.277E+00 -.801E+00   0.228E-01 0.252E-01 -.220E+00
   0.113E+02 0.941E+02 -.294E+02   -.115E+02 -.935E+02 0.296E+02   0.255E+00 -.660E+00 -.139E+00   0.202E-01 -.887E-02 -.195E+00
   0.227E+03 0.499E+02 -.246E+03   -.227E+03 -.495E+02 0.247E+03   0.362E+00 -.373E+00 -.582E+00   0.322E-01 -.378E-01 -.249E+00
   -.571E+02 -.118E+03 -.896E+01   0.571E+02 0.117E+03 0.895E+01   -.148E+00 0.287E+00 0.186E+00   0.246E-01 0.223E-01 -.238E+00
   0.141E+02 0.499E+00 -.326E+03   -.143E+02 -.285E+00 0.327E+03   0.189E+00 -.164E+00 -.123E+01   0.313E-02 -.401E-02 0.296E-02
   -.239E+01 -.891E+00 0.494E+01   0.425E-12 -.297E-12 -.983E-11   0.279E+01 0.944E+00 0.723E+01   -.424E+00 -.198E-01 -.122E+02

 POSITION                                       TOTAL-FORCE (eV/Angst)
     13.78384      8.54143      6.62814         0.020678     -0.006425      0.019294
      5.29653      8.56346      6.42189        -0.014632     -0.014779     -0.011868
      5.12938      3.50547      6.84081        -0.007618     -0.007897     -0.015338
     15.24695      9.36463      8.78339        -0.034225     -0.008457      0.013238
      3.91064      4.53381      9.02344        -0.014486      0.018839      0.004768
      6.75838      9.22515      8.76023         0.014144     -0.012250      0.002326
     12.36432      4.41951      9.06833        -0.018775      0.007108     -0.004685
      9.62780      9.23739      9.16785        -0.006814     -0.009517     -0.014367
     10.87399      2.07195      8.72549         0.005349     -0.005269     -0.009913
      2.65092      2.09606      9.12473        -0.029080      0.018098     -0.018254
     12.40088      9.24776      9.01669         0.004239     -0.034198     -0.008157
     13.84819      6.93412      8.97757        -0.002407      0.002343      0.019799
      5.39148      1.95782      9.10498        -0.005058      0.009300     -0.020394
      8.12752      6.76866      8.79315        -0.026765      0.002644     -0.000982
      9.52879      4.45219      8.78046        -0.004313     -0.007963     -0.003997
      5.31188      6.90665      8.80987        -0.010386      0.023006      0.015267
      8.16832      1.94099      8.89553         0.010157      0.008316     -0.000879
      7.99416      3.37280      6.61843        -0.001118     -0.023132      0.001596
      6.55396      1.09518      6.78731        -0.000288      0.023912      0.011776
      6.83385      1.22925      1.47033        -0.000865      0.034471      0.003682
      3.61235      3.96468      2.61995        -0.005969      0.002073      0.001425
      1.43716      1.43142      6.84224         0.007332      0.006846      0.042182
      0.67127      0.98910      1.08188        -0.012964     -0.019315      0.008305
      6.74807      9.00879      3.12342        -0.008137      0.012504     -0.010940
      6.74591      4.36958      8.92826         0.005462      0.004185      0.028430
      8.49330      5.38439      5.05378        -0.002794      0.023006      0.029246
     11.01531      6.85956      9.09828        -0.001418      0.009484     -0.008792
     14.94884      7.37673      4.49249         0.029908     -0.033331     -0.037103
     12.48497      6.13427      6.83345        -0.009004      0.005766     -0.010400
      6.47551      5.89341      6.64903         0.025982      0.015732     -0.027735
      3.57422      2.54624      4.95878        -0.007847     -0.041766     -0.022399
     11.12614      5.45251      4.71025         0.017378      0.000512     -0.018795
      3.88231      5.90935      6.70391         0.016396     -0.011272      0.011102
     13.73438      8.58852      1.76277         0.003357     -0.015031     -0.036332
      4.87663      8.41395      1.57788         0.003971      0.008565      0.014117
      3.75877      6.38414      2.06092         0.026993      0.000090      0.013734
      8.35850      2.27224      3.29405         0.000856     -0.000257      0.013253
      9.33367      9.15886      2.96349         0.003727     -0.000474      0.025618
      2.48225      3.84380      6.94662        -0.009766      0.014325      0.001117
      1.94892      3.12368      0.97734        -0.009301      0.008152      0.006023
     10.75187      2.21221      3.05623        -0.003250      0.006753     -0.003577
     13.77799      5.05868      4.81470        -0.006605      0.005468     -0.028570
      3.96135      0.96470      7.03436        -0.013282     -0.019086      0.003491
      9.84036      6.29518      6.97253        -0.004120      0.006277      0.001581
      3.32747      0.88717      1.07332         0.000124     -0.000673     -0.001804
      9.37038      5.94444      1.03355         0.020643      0.007549     -0.038626
      5.77436      3.51120      1.58883         0.009959      0.005269      0.011349
     11.78080      9.10211      3.01275        -0.019050     -0.007858      0.024802
     12.14221      7.86485      4.90717         0.007855     -0.032374     -0.067814
     12.89855      6.59993      3.08536        -0.011249     -0.000589      0.023902
      9.60902      4.40928      2.93166        -0.006067     -0.007367     -0.002269
      8.51140      8.48108      6.97269        -0.014227      0.012394     -0.006759
      8.12654      8.25967      1.10014        -0.020448      0.009188     -0.005767
     10.59532      7.05732      2.72628        -0.004761     -0.003558      0.011288
      2.64345      0.12582      5.05287         0.019232     -0.010746      0.043147
      8.18206      3.50560      1.21995        -0.008614     -0.028738      0.010789
      4.79851      1.62222      2.89617        -0.004765     -0.006138      0.013963
      5.80940      6.64990      3.24762        -0.006735      0.012958     -0.010521
      7.65468      0.41297      4.68699        -0.020675      0.000948     -0.021006
      9.45576      1.13617      6.52839        -0.001261     -0.005650     -0.001001
[...]
      9.85949      3.06130      5.05334         0.008925     -0.001030     -0.002208
      6.31739      2.58312      4.70295        -0.004068     -0.020464     -0.019665
     12.25313      4.17493      2.83324        -0.005342     -0.006386     -0.002488
      2.09525      1.75623      3.07324         0.006193     -0.000441      0.019381
     11.83128      5.72145      1.13423         0.035060     -0.000007      0.000718
      6.85743      5.74904      1.30355         0.000351     -0.005126      0.011486
      8.21979      6.81570      3.00225         0.005296      0.007287     -0.004327
      7.04013      4.41026      3.27464         0.002237      0.004292      0.003509
     11.12813      3.90081      6.89923         0.007879     -0.007885      0.010291
     10.73608      3.41609      1.01158         0.009540     -0.010305      0.008043
     11.35396      0.81935      4.88330         0.015443      0.044656      0.028095
      9.67608      7.72321      4.95729        -0.002341      0.004688      0.012631
      7.20385      7.63915      5.11888         0.030251      0.013907      0.016181
      5.07803      0.26935      4.93904        -0.026915     -0.000578      0.006614
      2.45622      0.29877      9.76153         0.000085      0.042640     -0.019833
    total drift:                               -0.021724      0.033214      0.003478

  FREE ENERGIE OF THE ION-ELECTRON SYSTEM (eV)
  free  energy   TOTEN  =      -503.53824498 eV

  energy  without entropy=     -503.56583939  energy(sigma->0) =     -503.54744312

 d Force = 0.5690282E-04[-0.166E-03, 0.280E-03]  d Energy = 0.1069460E-03-0.500E-04
 d Force =-0.8550642E+01[-0.855E+01,-0.855E+01]  d Ewald  =-0.8550637E+01-0.478E-05

 reached required accuracy - stopping structural energy minimisation