 vasp.5.4.4.18Apr17-6-g9f103f2a35 (build Nov 30 2020 22:55:02) complex

 executed on             LinuxIFC date 2021.11.27  22:14:45

 INCAR:
 POTCAR:    PAW_PBE Pt 04Feb2005
 POTCAR:    PAW_PBE Fe 06Sep2000
 POTCAR:    PAW_PBE Co 02Aug2007
 POTCAR:    PAW_PBE Cu 22Jun2005
 POTCAR:    PAW_PBE Ni 02Aug2007
 POTCAR:    PAW_PBE H 15Jun2001
 POTCAR:    PAW_PBE Pt 04Feb2005
   VRHFIN =Pt: s1d9

   TITEL  = PAW_PBE Pt 04Feb2005
   POMASS =  195.080; ZVAL   =   10.000    mass and valenz
   ENMAX  =  230.283; ENMIN  =  172.712 eV

 POTCAR:    PAW_PBE Fe 06Sep2000
   VRHFIN =Fe:  d7 s1

   TITEL  = PAW_PBE Fe 06Sep2000
   POMASS =   55.847; ZVAL   =    8.000    mass and valenz
   ENMAX  =  267.882; ENMIN  =  200.911 eV

 POTCAR:    PAW_PBE Co 02Aug2007
   VRHFIN =Co: d8 s1

   TITEL  = PAW_PBE Co 02Aug2007
   POMASS =   58.933; ZVAL   =    9.000    mass and valenz
   ENMAX  =  267.968; ENMIN  =  200.976 eV

 POTCAR:    PAW_PBE Cu 22Jun2005
   VRHFIN =Cu: d10 p1

   TITEL  = PAW_PBE Cu 22Jun2005
   POMASS =   63.546; ZVAL   =   11.000    mass and valenz
   ENMAX  =  295.446; ENMIN  =  221.585 eV

 POTCAR:    PAW_PBE Ni 02Aug2007
   VRHFIN =Ni:

   TITEL  = PAW_PBE Ni 02Aug2007
   POMASS =   58.690; ZVAL   =   10.000    mass and valenz
   ENMAX  =  269.532; ENMIN  =  202.149 eV

 POTCAR:    PAW_PBE H 15Jun2001
   VRHFIN =H: ultrasoft test

   TITEL  = PAW_PBE H 15Jun2001
   POMASS =    1.000; ZVAL   =    1.000    mass and valenz
   ENMAX  =  250.000; ENMIN  =  200.000 eV

 Optimization of the real space projectors (new method)

 maximal supplied QI-value         = 14.36
 optimisation between [QCUT,QGAM] = [ 11.92, 23.98] = [ 39.79,161.09] Ry
 Optimized for a Real-space Cutoff    1.49 Angstroem

   l    n(q)    QCUT    max X(q) W(low)/X(q) W(high)/X(q)  e(spline)
   2     10    11.920    66.195    0.79E-04    0.18E-03    0.24E-06
   2     10    11.920    64.643    0.81E-04    0.19E-03    0.24E-06
   0     11    11.920    95.520    0.28E-04    0.54E-04    0.18E-06
   0     11    11.920    63.403    0.27E-04    0.52E-04    0.17E-06
   1     10    11.920    19.961    0.18E-04    0.11E-03    0.23E-06
   1     10    11.920    13.289    0.25E-04    0.87E-04    0.19E-06
 Optimization of the real space projectors (new method)

[...]

   l    n(q)    QCUT    max X(q) W(low)/X(q) W(high)/X(q)  e(spline)
   2      9    11.864    60.317    0.21E-03    0.51E-03    0.25E-06
   2      9    11.864    55.921    0.21E-03    0.51E-03    0.26E-06
   0      9    11.864    51.690    0.22E-03    0.30E-04    0.17E-06
   0      9    11.864    30.015    0.20E-03    0.28E-04    0.15E-06
   1      9    11.864    18.849    0.76E-04    0.33E-03    0.17E-06
   1      9    11.864    14.624    0.60E-04    0.28E-03    0.15E-06
 Optimization of the real space projectors (new method)

 maximal supplied QI-value         = 34.20
 optimisation between [QCUT,QGAM] = [ 11.97, 23.94] = [ 40.13,160.53] Ry
 Optimized for a Real-space Cutoff    1.18 Angstroem

   l    n(q)    QCUT    max X(q) W(low)/X(q) W(high)/X(q)  e(spline)
   0      8    11.971    19.460    0.15E-03    0.31E-03    0.25E-06
   0      8    11.971    12.209    0.13E-03    0.29E-03    0.25E-06
   1      8    11.971     4.655    0.22E-03    0.24E-03    0.21E-06
  PAW_PBE Pt 04Feb2005                  :
  PAW_PBE Fe 06Sep2000                  :
  PAW_PBE Co 02Aug2007                  :
  PAW_PBE Cu 22Jun2005                  :
  PAW_PBE Ni 02Aug2007                  :
  PAW_PBE H 15Jun2001                   :

 POSCAR: 10.56
  positions in direct lattice
  velocities in cartesian coordinates
 exchange correlation table for  LEXCH =        8
   RHO(1)=    0.500       N(1)  =     2000
   RHO(2)=  100.500       N(2)  =     4000

 ion  position               nearest neighbor table
   1  0.787  0.880  0.317-  28 2.62  49 2.63  19 2.63  59 2.64  61 2.66  33 2.66  29 2.67  60 2.69
                             2 2.73  11 2.77   4 2.79  12 2.87
   2  0.043  0.884  0.316-  79 2.55  77 2.60  60 2.62  30 2.65  52 2.65  28 2.67  22 2.68  33 2.69
                             1 2.73   6 2.81   4 2.81  16 2.90
   3  0.280  0.380  0.319-  39 2.56  64 2.57  33 2.60  31 2.63  19 2.68  43 2.69  68 2.71  30 2.72
                             5 2.77  18 2.82  25 2.86  13 2.88
   4  0.873  0.963  0.423-  11 2.61  17 2.63  12 2.64   6 2.65  16 2.65   9 2.66  60 2.78   1 2.79
                             2 2.81
   5  0.121  0.467  0.426-  12 2.60  16 2.60   7 2.64  10 2.65  25 2.68  33 2.68  39 2.71  13 2.72
                             3 2.77
   6  0.126  0.960  0.426-  81 1.69  14 2.62  16 2.62   4 2.65   8 2.66   9 2.69  10 2.69   2 2.81
                            52 2.86  22 2.91
   7  0.872  0.465  0.426-  15 2.61  27 2.62  12 2.63   9 2.64   5 2.64  10 2.66  39 2.69  75 2.76
                            29 2.77
   8  0.378  0.958  0.418-  43 2.58  27 2.59  14 2.59  11 2.64   6 2.66  13 2.67  52 2.67  61 2.68
                            10 2.69
   9  0.872  0.215  0.425-  81 1.74  15 2.61  17 2.63   7 2.64   4 2.66  10 2.67   6 2.69  75 2.75
                            60 2.79  22 2.87
  10  0.126  0.214  0.427-  82 1.80  13 2.64   5 2.65   7 2.66   9 2.67   6 2.69   8 2.69  39 2.74
                            43 2.80  22 2.85
  11  0.627  0.962  0.424-   4 2.61  12 2.62  13 2.63  27 2.64  17 2.64   8 2.64   1 2.77  19 2.81
                            61 2.86
  12  0.874  0.713  0.428-   5 2.60  11 2.62   7 2.63   4 2.64  16 2.64  27 2.65  33 2.72  29 2.85
                             1 2.87
  13  0.378  0.210  0.429-  82 1.72  17 2.63  11 2.63  10 2.64   8 2.67  25 2.67   5 2.72  43 2.86
                            19 2.88   3 2.88
  14  0.375  0.714  0.423-   8 2.59  27 2.61   6 2.62  25 2.64  15 2.65  16 2.66  44 2.70  52 2.76
                            30 2.77
  15  0.626  0.464  0.422-   7 2.61   9 2.61  27 2.62  25 2.64  14 2.65  17 2.65  44 2.69  75 2.71
                            18 2.76
  16  0.125  0.712  0.427-   5 2.60   6 2.62  25 2.63  12 2.64   4 2.65  14 2.66  33 2.69  30 2.83
                             2 2.90
  17  0.625  0.213  0.422-   9 2.63  13 2.63   4 2.63  11 2.64  25 2.65  15 2.65  18 2.75  60 2.77
                            19 2.84
  18  0.549  0.376  0.317-  67 2.56  60 2.58  75 2.61  44 2.65  68 2.66  26 2.66  30 2.71  19 2.72
                            17 2.75  15 2.76   3 2.82  25 2.87
  19  0.534  0.126  0.316-  43 2.56  80 2.57  68 2.59  59 2.62  61 2.63   1 2.63   3 2.68  18 2.72
                            60 2.78  11 2.81  17 2.84  13 2.88
  20  0.547  0.124  0.040-  37 2.55  57 2.56  48 2.58  62 2.64  63 2.68  47 2.68  45 2.68  56 2.70
                            34 2.71
  21  0.121  0.460  0.128-  40 2.52  36 2.53  47 2.53  42 2.60  69 2.61  64 2.62  70 2.64  50 2.64
                            58 2.67  31 2.70  57 2.71  74 2.72
  22  0.044  0.138  0.316-  65 2.54  55 2.56  39 2.57  43 2.57  75 2.60  77 2.61  60 2.67   2 2.68
                            52 2.74  10 2.85   9 2.87   6 2.91  31 3.40
  23  0.042  0.130  0.033-  70 2.58  40 2.60  41 2.61  45 2.62  62 2.64  76 2.64  24 2.69  35 2.73
                            53 2.78
  24  0.130  0.958  0.132-  79 2.51  77 2.54  35 2.57  53 2.57  55 2.58  70 2.62  38 2.64  58 2.64
                            73 2.65  23 2.69  66 2.70  41 2.72
  25  0.376  0.464  0.426-  16 2.63  15 2.64  14 2.64  17 2.65  13 2.67   5 2.68  30 2.81   3 2.86
                            18 2.87
  26  0.455  0.546  0.219-  73 2.50  74 2.54  51 2.56  79 2.61  64 2.63  30 2.65  18 2.66  68 2.67
                            78 2.67  32 2.68  67 2.72  44 2.75
  27  0.623  0.713  0.424-   8 2.59  14 2.61   7 2.62  15 2.62  11 2.64  12 2.65  44 2.71  61 2.78
                            29 2.79
  28  0.956  0.790  0.221-  58 2.57  66 2.57  50 2.58  42 2.59  49 2.61   1 2.62  64 2.63   2 2.67
                            59 2.70  33 2.71  79 2.76  77 2.77
  29  0.795  0.624  0.319-  39 2.54  42 2.55  75 2.57  32 2.62  44 2.65  33 2.65   1 2.67  61 2.67
                            49 2.67   7 2.77  27 2.79  12 2.85
  30  0.292  0.632  0.318-  79 2.56  64 2.61  52 2.61  44 2.62   2 2.65  26 2.65  33 2.65  18 2.71
                             3 2.72  14 2.77  25 2.81  16 2.83
  31  0.203  0.281  0.225-  70 2.52  55 2.56  65 2.57  43 2.59  57 2.60   3 2.63  39 2.67  80 2.70
                            21 2.70  42 2.71  68 2.75  64 2.79  22 3.40
  32  0.706  0.549  0.221-  54 2.53  69 2.56  51 2.58  49 2.59  42 2.60  29 2.62  78 2.62  65 2.63
                            26 2.68  44 2.69  75 2.69  67 2.70
  33  0.041  0.632  0.325-   3 2.60  39 2.64  29 2.65  30 2.65   1 2.66   5 2.68   2 2.69  16 2.69
                            64 2.70  28 2.71  12 2.72  42 2.73
  34  0.797  0.862  0.042-  50 2.38  66 2.51  48 2.53  36 2.55  71 2.56  63 2.61  20 2.71  35 2.76
                            62 2.76
  35  0.056  0.866  0.038-  58 2.54  72 2.55  36 2.56  24 2.57  66 2.62  53 2.65  23 2.73  62 2.73
                            34 2.76
  36  0.046  0.628  0.037-  21 2.53  34 2.55  35 2.56  58 2.58  50 2.61  47 2.63  72 2.64  40 2.69
                            71 2.72
  37  0.627  0.222  0.129-  51 2.51  74 2.51  67 2.52  56 2.53  41 2.55  20 2.55  68 2.56  59 2.56
                            62 2.59  66 2.66  57 2.73  48 2.89
  38  0.382  0.955  0.130-  53 2.47  80 2.48  45 2.49  78 2.53  48 2.54  73 2.55  63 2.55  54 2.56
                            55 2.59  57 2.62  24 2.64  70 2.67
  39  0.036  0.384  0.325-  29 2.54   3 2.56  22 2.57  75 2.58  33 2.64  42 2.67  31 2.67   7 2.69
                             5 2.71  10 2.74  65 2.77  43 2.78
  40  0.031  0.382  0.038-  69 2.44  21 2.52  71 2.53  76 2.56  70 2.57  23 2.60  36 2.69  45 2.78
                            47 2.78
  41  0.872  0.215  0.128-  76 2.45  65 2.52  77 2.53  67 2.54  37 2.55  69 2.57  62 2.57  51 2.59
                            23 2.61  70 2.65  66 2.66  24 2.72
  42  0.955  0.545  0.224-  29 2.55  50 2.56  28 2.59  21 2.60  32 2.60  69 2.61  49 2.63  65 2.64
                            64 2.65  39 2.67  31 2.71  33 2.73
  43  0.296  0.117  0.322-  52 2.54  55 2.55  19 2.56  22 2.57  61 2.57   8 2.58  31 2.59  80 2.67
                             3 2.69  39 2.78  10 2.80  13 2.86
  44  0.541  0.630  0.322-  61 2.57  52 2.57  30 2.62  78 2.63  18 2.65  29 2.65  75 2.66  32 2.69
                            15 2.69  14 2.70  27 2.71  26 2.75
  45  0.295  0.119  0.039-  70 2.49  38 2.49  57 2.57  53 2.60  23 2.62  63 2.64  20 2.68  47 2.75
                            40 2.78
  46  0.548  0.625  0.044-  51 2.38  73 2.39  54 2.41  71 2.56  53 2.56  63 2.58  76 2.59  56 2.62
                            72 2.64
  47  0.296  0.379  0.039-  74 2.41  21 2.53  57 2.61  72 2.61  56 2.62  36 2.63  20 2.68  45 2.75
                            40 2.78
  48  0.625  0.950  0.132-  49 2.40  80 2.48  54 2.48  34 2.53  38 2.54  59 2.55  50 2.56  63 2.57
                            20 2.58  57 2.65  66 2.68  37 2.89
  49  0.706  0.794  0.220-  48 2.40  50 2.48  54 2.49  80 2.53  32 2.59  28 2.61  61 2.61  78 2.61
                             1 2.63  42 2.63  29 2.67  59 2.69
  50  0.866  0.706  0.129-  34 2.38  71 2.42  54 2.48  49 2.48  42 2.56  48 2.56  69 2.58  28 2.58
[...]
   0.379E+02 -.566E+01 -.154E+04   -.396E+02 0.572E+01 0.154E+04   0.171E+01 -.556E-01 0.206E+01   0.868E-02 -.127E-02 -.307E-01
   -.428E+01 0.263E+02 -.291E+04   0.360E+01 -.266E+02 0.291E+04   0.721E+00 0.312E+00 0.966E+00   0.146E-03 0.630E-02 -.191E-01
   -.148E+02 0.526E+01 -.290E+04   0.143E+02 -.377E+01 0.290E+04   0.507E+00 -.156E+01 0.186E+01   -.408E-02 0.245E-01 -.107E-01
   -.149E+02 0.240E+02 -.290E+04   0.146E+02 -.243E+02 0.290E+04   0.300E+00 0.265E+00 -.616E+00   -.203E-01 0.145E-01 -.727E-01
   -.189E+02 -.780E+01 -.293E+04   0.187E+02 0.776E+01 0.293E+04   0.216E+00 0.754E-02 0.131E+01   -.140E-01 -.111E-02 -.190E-03
   0.137E+02 -.195E+02 -.289E+04   -.139E+02 0.189E+02 0.289E+04   0.217E+00 0.712E+00 0.212E+01   -.491E-02 -.446E-02 -.186E-02
   -.128E+01 -.644E+01 -.293E+04   0.137E+01 0.666E+01 0.293E+04   -.114E+00 -.202E+00 -.380E+00   -.496E-02 -.251E-01 -.599E-01
   0.206E+01 0.324E+00 -.287E+04   -.135E+01 0.291E+00 0.287E+04   -.644E+00 -.589E+00 0.101E+01   -.362E-01 -.779E-02 0.517E-01
   -.127E+01 -.262E+00 -.293E+04   0.173E+01 0.644E-01 0.293E+04   -.567E+00 0.104E+00 0.642E+00   0.350E-01 0.192E-01 -.983E-02
   -.679E+01 -.657E+00 -.292E+04   0.706E+01 0.304E+00 0.292E+04   -.322E+00 0.332E+00 0.958E+00   0.239E-01 0.236E-01 -.579E-02
   -.196E+02 -.175E+02 -.292E+04   0.190E+02 0.173E+02 0.292E+04   0.517E+00 0.238E+00 -.101E+01   0.235E-01 -.699E-02 -.129E-01
   0.156E+02 0.151E+02 -.292E+04   -.153E+02 -.148E+02 0.292E+04   -.289E+00 -.353E+00 0.135E+01   -.553E-02 0.733E-02 0.484E-02
   0.244E+02 -.197E+02 -.292E+04   -.240E+02 0.197E+02 0.292E+04   -.420E+00 0.996E-01 0.125E+01   0.157E-01 -.152E-01 -.380E-02
   -.174E+01 -.566E+00 -.291E+04   0.150E+01 -.667E-01 0.291E+04   0.250E+00 0.605E+00 0.101E+01   -.218E-01 0.202E-01 -.223E-02
   0.231E+02 -.927E+01 -.292E+04   -.234E+02 0.955E+01 0.291E+04   0.238E+00 -.296E+00 0.969E+00   0.113E-01 -.253E-01 -.837E-02
   0.698E+02 -.698E+02 -.152E+04   -.686E+02 0.700E+02 0.152E+04   -.124E+01 -.153E+00 0.176E+01   0.185E-01 -.153E-01 -.173E-01
   0.310E+02 -.457E+02 -.153E+04   -.324E+02 0.455E+02 0.153E+04   0.139E+01 0.186E+00 0.207E+01   0.189E-01 -.185E-01 -.289E-01
   0.334E+02 0.316E+02 0.304E+04   -.335E+02 -.318E+02 -.304E+04   0.104E+00 0.172E+00 -.241E+01   -.762E-02 -.170E-01 0.195E-01
   0.355E+02 -.781E+01 0.160E+04   -.364E+02 0.853E+01 -.160E+04   0.923E+00 -.657E+00 0.906E+00   -.162E-02 -.588E-02 -.121E-01
   -.694E+02 0.125E+02 -.150E+04   0.705E+02 -.116E+02 0.150E+04   -.103E+01 -.810E+00 0.253E+01   -.253E-02 -.359E-02 -.144E-01
   -.542E+02 0.512E+02 0.309E+04   0.548E+02 -.503E+02 -.309E+04   -.680E+00 -.859E+00 -.208E+01   0.123E-01 -.120E-01 0.847E-02
   0.184E+00 -.539E+02 0.160E+04   0.566E-01 0.534E+02 -.159E+04   -.331E+00 0.418E+00 -.775E+00   0.118E-01 0.140E-01 -.903E-02
   0.111E+02 0.204E+01 -.291E+04   -.109E+02 -.182E+01 0.291E+04   -.150E+00 -.257E+00 0.616E+00   -.549E-02 -.509E-03 -.971E-04
   -.224E+02 -.718E+01 0.143E+02   0.223E+02 0.746E+01 -.156E+02   0.357E-01 -.333E+00 0.122E+01   0.710E-02 -.562E-02 -.127E-01
   -.750E+01 0.952E+01 -.293E+04   0.700E+01 -.969E+01 0.293E+04   0.513E+00 0.206E+00 0.111E+01   0.150E-01 0.295E-02 -.214E-02
   0.169E+02 0.634E+02 0.724E+01   -.179E+02 -.647E+02 -.766E+01   0.123E+01 0.115E+01 0.330E+00   -.281E-01 0.610E-02 -.163E-01
   -.665E+02 0.896E+01 -.148E+04   0.669E+02 -.102E+02 0.148E+04   -.377E+00 0.129E+01 0.294E+01   0.317E-02 0.109E-01 -.372E-01
   0.294E+02 0.264E+02 -.154E+04   -.292E+02 -.257E+02 0.153E+04   -.214E+00 -.717E+00 0.233E+01   -.682E-02 0.856E-02 -.141E-01
   0.215E+02 -.618E+02 -.751E+02   -.224E+02 0.613E+02 0.755E+02   0.101E+01 0.518E+00 -.297E+00   -.544E-02 -.273E-01 -.363E-01
   -.233E+02 -.198E+02 0.101E+02   0.241E+02 0.204E+02 -.109E+02   -.811E+00 -.749E+00 0.678E+00   0.114E-01 0.104E-01 -.111E-02
   0.181E+02 0.119E+02 -.124E+04   -.182E+02 -.123E+02 0.124E+04   0.105E+00 0.492E+00 0.513E+00   -.544E-02 0.183E-01 -.132E-01
   -.599E+02 -.284E+01 0.244E+04   0.602E+02 0.155E+01 -.244E+04   -.386E+00 0.131E+01 -.271E+01   0.198E-02 0.923E-02 0.145E-01
   0.306E+02 -.142E+02 0.247E+04   -.305E+02 0.128E+02 -.247E+04   -.851E-01 0.144E+01 -.230E+01   -.760E-02 -.176E-02 0.102E-02
   0.229E+02 -.400E+01 0.247E+04   -.230E+02 0.457E+01 -.247E+04   0.146E+00 -.609E+00 -.287E+01   0.431E-02 0.826E-02 0.173E-02
   0.686E+01 0.523E+02 0.129E+04   -.599E+01 -.517E+02 -.129E+04   -.924E+00 -.693E+00 -.203E+00   -.106E-01 -.202E-01 -.301E-02
   0.338E+02 -.552E+02 0.128E+04   -.337E+02 0.549E+02 -.128E+04   -.126E+00 0.242E+00 -.413E+00   0.130E-01 0.227E-01 0.113E-01
   -.536E+02 -.177E+02 -.123E+04   0.537E+02 0.178E+02 0.123E+04   -.129E+00 -.117E+00 0.789E+00   -.136E-01 0.182E-02 -.236E-01
   -.933E+02 0.207E+02 0.248E+04   0.930E+02 -.204E+02 -.248E+04   0.275E+00 -.211E+00 -.268E+01   0.183E-01 -.984E-02 0.262E-02
   -.338E+02 0.466E+02 0.130E+04   0.330E+02 -.461E+02 -.130E+04   0.817E+00 -.526E+00 -.426E+00   0.351E-02 -.120E-01 -.112E-02
   -.442E+02 0.418E+01 -.404E+02   0.440E+02 -.384E+01 0.404E+02   0.216E+00 -.422E+00 -.147E+00   -.599E-02 0.134E-01 -.146E-01
   0.154E+02 -.847E+02 -.125E+04   -.156E+02 0.846E+02 0.125E+04   0.225E+00 0.167E+00 0.125E+01   -.801E-03 -.111E-01 -.416E-01
   0.118E+02 0.308E+02 -.123E+04   -.120E+02 -.308E+02 0.123E+04   0.102E+00 -.366E-01 0.458E+00   0.107E-01 -.332E-02 -.236E-01
   0.146E+02 -.466E+02 0.245E+04   -.153E+02 0.459E+02 -.245E+04   0.719E+00 0.688E+00 -.272E+01   0.335E-02 0.176E-02 0.112E-01
   0.442E+01 -.196E+02 0.276E+04   -.448E+01 0.198E+02 -.275E+04   0.826E-01 -.230E+00 -.234E+01   -.947E-02 0.104E-01 0.322E-03
   0.119E+03 0.293E+02 0.279E+04   -.120E+03 -.285E+02 -.279E+04   0.452E+00 -.689E+00 -.237E+01   -.843E-02 -.631E-02 0.232E-02
   -.367E+02 -.285E+02 0.143E+04   0.362E+02 0.274E+02 -.143E+04   0.457E+00 0.109E+01 -.467E+00   -.191E-03 0.419E-02 0.863E-02
   -.613E+02 0.661E+02 0.293E+02   0.613E+02 -.659E+02 -.301E+02   -.404E-01 -.272E+00 0.743E+00   0.885E-03 0.224E-01 -.227E-01
   -.889E+02 0.189E+02 0.141E+04   0.884E+02 -.185E+02 -.141E+04   0.533E+00 -.490E+00 -.788E-01   -.729E-05 0.273E-01 0.468E-02
   -.209E+02 0.103E+02 0.139E+04   0.211E+02 -.105E+02 -.139E+04   -.145E+00 0.278E+00 -.978E-01   -.619E-02 -.154E-01 0.154E-01
   0.529E+02 -.168E+01 -.139E+04   -.528E+02 0.147E+01 0.139E+04   -.200E+00 0.239E+00 0.150E+01   -.158E-02 0.149E-01 -.318E-01
   0.530E+02 -.809E+02 0.277E+04   -.527E+02 0.807E+02 -.276E+04   -.364E+00 0.205E+00 -.242E+01   -.100E-01 0.235E-01 0.330E-02
   -.139E+02 0.186E+01 0.138E+04   0.140E+02 -.168E+01 -.138E+04   -.993E-01 -.252E+00 -.452E+00   0.249E-01 0.386E-01 0.242E-01
   0.205E+02 -.727E+02 -.158E+02   -.197E+02 0.722E+02 0.161E+02   -.819E+00 0.679E+00 -.310E+00   0.160E-01 0.749E-02 -.296E-01
   0.308E+02 0.341E+02 0.344E+04   -.309E+02 -.334E+02 -.344E+04   0.112E+00 -.800E+00 -.365E+01   -.255E-01 -.201E-01 0.240E-02
   0.632E+02 0.874E+01 0.174E+04   -.633E+02 -.939E+01 -.174E+04   0.113E+00 0.708E+00 -.194E+00   -.418E-02 -.334E-01 -.666E-02
   0.102E+03 -.320E+02 0.172E+04   -.102E+03 0.320E+02 -.172E+04   -.191E+00 -.159E-01 0.197E-01   -.155E-01 0.683E-02 -.270E-01
   0.145E+02 0.667E+02 0.838E+02   -.150E+02 -.667E+02 -.847E+02   0.542E+00 -.866E-01 0.883E+00   -.290E-01 -.221E-01 -.283E-01
   0.792E+01 0.515E+02 -.171E+04   -.720E+01 -.510E+02 0.171E+04   -.742E+00 -.497E+00 0.157E+01   -.575E-05 -.633E-02 0.160E-02
[...]
   -.737E+02 0.210E+01 0.155E+04   0.732E+02 -.196E+01 -.155E+04   0.404E+00 -.706E-01 -.119E+00   0.198E-01 -.701E-02 0.885E-02
   -.123E+02 0.197E+02 0.162E+04   0.126E+02 -.199E+02 -.162E+04   -.332E+00 0.240E+00 -.467E+00   0.143E-01 -.180E-01 -.589E-03
   -.101E+03 -.425E+01 0.309E+04   0.101E+03 0.426E+01 -.308E+04   -.539E+00 0.575E-02 -.131E+01   0.344E-01 0.176E-01 0.208E-02
   0.702E+02 -.525E+02 0.309E+04   -.706E+02 0.530E+02 -.309E+04   0.390E+00 -.607E+00 -.842E+00   -.281E-01 0.752E-02 -.479E-02
   0.151E+02 -.407E+02 0.155E+04   -.148E+02 0.404E+02 -.155E+04   -.404E+00 0.239E+00 -.164E-01   -.945E-02 0.185E-01 0.375E-02
   0.514E+02 0.271E+01 0.160E+04   -.509E+02 -.269E+01 -.160E+04   -.489E+00 0.401E-01 -.134E+00   -.107E-01 -.994E-02 -.109E-01
   -.403E+02 -.625E+02 -.155E+04   0.402E+02 0.624E+02 0.155E+04   0.136E+00 0.106E+00 0.790E+00   -.543E-02 -.983E-02 -.168E-01
   -.540E+02 0.298E+02 0.307E+04   0.545E+02 -.292E+02 -.307E+04   -.424E+00 -.579E+00 -.192E+01   0.104E-01 -.244E-01 0.419E-02
   -.481E+02 0.712E+02 0.751E+02   0.485E+02 -.710E+02 -.751E+02   -.391E+00 -.293E+00 0.234E-01   0.510E-02 0.270E-02 -.141E-01
   -.243E-01 0.606E+02 0.610E+01   -.368E-01 -.599E+02 -.619E+01   0.872E-01 -.876E+00 -.500E-01   0.216E-01 0.340E-01 -.188E-01
   0.490E+02 0.285E+01 -.266E+02   -.486E+02 -.221E+01 0.265E+02   -.393E+00 -.650E+00 0.578E-03   0.766E-02 0.209E-01 -.163E-01
   0.236E+02 -.543E+02 0.371E+02   -.239E+02 0.539E+02 -.372E+02   0.327E+00 0.491E+00 0.191E+00   0.284E-02 -.180E-01 -.404E-01
   0.166E+00 0.648E+00 -.352E+03   -.198E+00 -.644E+00 0.354E+03   -.501E-02 -.326E-01 -.197E+01   -.116E-02 0.718E-03 -.513E-03
   0.419E+01 -.108E+01 -.349E+03   -.465E+01 0.124E+01 0.351E+03   0.462E+00 -.174E+00 -.194E+01   -.288E-02 -.500E-03 0.202E-02
   -.364E+01 -.108E-01 0.134E+01   -.887E-12 0.153E-12 -.285E-10   0.360E+01 -.645E-01 -.610E+00   0.351E-01 0.449E-01 -.756E+00

 POSITION                                       TOTAL-FORCE (eV/Angst)
     12.95860      8.04933      6.97931         0.000314      0.002805     -0.003978
      5.12501      8.08657      6.95453         0.007577     -0.001497      0.024645
      4.96650      3.47669      7.03242        -0.011438     -0.008308      0.003772
     14.30225      8.80164      9.30135         0.024586      0.010520      0.002839
      3.74069      4.27298      9.39787         0.011806     -0.046261     -0.013130
      6.40092      8.78751      9.37279         0.008267     -0.022259      0.043313
     11.66642      4.24408      9.37510         0.003022     -0.005210     -0.012549
      9.05078      8.76421      9.20693        -0.003410      0.001150     -0.005813
     10.35823      1.96487      9.36160        -0.001443      0.007877      0.010637
      2.46117      1.95359      9.34710         0.002337      0.003821     -0.001555
     11.69270      8.79163      9.31928        -0.020093     -0.033009      0.007615
     12.99679      6.51581      9.40162        -0.031468      0.001210      0.007832
      5.09945      1.91892      9.46281        -0.022578      0.018263     -0.003025
      7.73070      6.53439      9.30779         0.023717      0.001000      0.012800
      9.05569      4.22980      9.28314         0.015730      0.031555      0.013220
      5.07817      6.50510      9.38806        -0.003266      0.003479      0.004592
      7.71686      1.94410      9.28081        -0.006126     -0.003626      0.002802
      7.77993      3.43462      6.97215         0.003060     -0.012676     -0.010253
      6.29520      1.14848      6.95343         0.004683     -0.001915     -0.000457
      6.42858      1.12974      0.87872        -0.008080     -0.005678     -0.008239
      3.70548      4.20844      2.81687         0.017072      0.000507     -0.012446
      1.18283      1.26063      6.93836        -0.009816     -0.007047      0.045839
      1.13569      1.19080      0.72557        -0.009970      0.014444     -0.005848
      6.43607      8.76100      2.90031        -0.030252      0.003143      0.015392
      6.42058      4.24586      9.36323        -0.021043     -0.021480      0.005723
      7.68135      4.99073      4.81474         0.032063     -0.012811     -0.050614
     10.34735      6.51772      9.31858        -0.007546      0.008435     -0.009997
     14.26424      7.22593      4.86299         0.089386     -0.022809     -0.045506
     11.68203      5.70218      7.01193        -0.012025     -0.004830      0.005277
      6.41242      5.77648      6.99942        -0.009346      0.013950     -0.014647
      3.62119      2.56589      4.96023         0.007412     -0.008538      0.004880
     10.36091      5.02430      4.85652         0.024237     -0.021712     -0.061241
      3.76432      5.77480      7.16271        -0.001287      0.003820     -0.007125
     12.96907      7.87977      0.92567         0.000085      0.000680      0.014748
      5.16340      7.91719      0.83030         0.017040      0.018467      0.009055
      3.80701      5.74502      0.81381         0.011529     -0.008251     -0.019942
      7.79852      2.03245      2.83251        -0.043186     -0.015518     -0.000355
      9.07755      8.73373      2.85743        -0.007195      0.003552      0.016741
      2.41071      3.51367      7.14335        -0.005283     -0.000742     -0.007732
      2.34409      3.49051      0.82510         0.013089      0.009148     -0.026712
     10.34814      1.96983      2.82249        -0.010684      0.009479      0.004327
     12.96035      4.98587      4.92559         0.016922     -0.032840     -0.021188
      3.74200      1.07407      7.07579        -0.010990     -0.005046     -0.003673
      9.03599      5.76326      7.07828         0.001852     -0.001266     -0.011801
      3.74824      1.09182      0.86700        -0.013836      0.007891     -0.007684
      9.09121      5.71867      0.96043        -0.005631      0.022114     -0.024347
      5.12448      3.47045      0.85563        -0.000179      0.026242     -0.001272
     11.62092      8.68758      2.90590        -0.007373      0.015486      0.020100
     11.65313      7.26450      4.84229         0.004157     -0.002740     -0.028211
     12.86756      6.45280      2.83379         0.031201      0.012064      0.009331
      9.04201      4.20780      2.79628         0.011160      0.024928     -0.005825
      7.77712      8.00575      6.97809        -0.008555     -0.002947      0.009881
      7.81315      7.93922      0.88653        -0.007449      0.003625     -0.001742
     10.39144      6.53566      2.82198         0.006054     -0.010761      0.007743
      2.51347      0.25826      5.00083        -0.010285      0.087706      0.082309
      7.74264      3.48454      0.76157         0.000029     -0.013693      0.007917
      5.07835      1.87760      2.91701        -0.001606     -0.008305     -0.005349
      5.16037      6.44715      2.89923        -0.008717     -0.005924     -0.014660
      7.70892      0.45986      4.84799        -0.001761      0.037543      0.018196
      9.07561      1.20059      6.98422         0.009327     -0.000588      0.009690
[...]
      6.37169      2.66558      4.85827        -0.009182     -0.036278      0.049041
     11.65891      4.17486      2.81483        -0.021648     -0.001910     -0.020120
      2.44098      1.89237      2.83279         0.011134      0.024382      0.008663
     11.64953      5.68621      0.88546         0.002549      0.024618     -0.002072
      6.44743      5.71949      0.92597        -0.006468      0.012094     -0.001509
      7.82927      6.50651      2.83621        -0.024231      0.001656     -0.016382
      6.41922      4.13007      2.78290        -0.010519      0.008574     -0.022991
     10.38838      3.47443      7.05335        -0.005945     -0.003670      0.008712
     10.34410      3.45013      0.86804         0.003624     -0.010852     -0.018347
     10.37063      0.48410      4.87151        -0.024552     -0.002929      0.013884
      9.04079      7.29017      4.93700         0.025849     -0.025717     -0.045999
      6.46265      7.29503      4.94074         0.007833      0.041562     -0.020929
      5.04247      0.27633      4.88406         0.025577      0.040375      0.051349
      0.46973      0.81135     10.49869        -0.037905     -0.026495      0.013269
      3.81014      2.07531     10.57169        -0.001155     -0.010429     -0.023071
    total drift:                               -0.003263     -0.030410     -0.029731

  FREE ENERGIE OF THE ION-ELECTRON SYSTEM (eV)
  free  energy   TOTEN  =      -514.61247624 eV

  energy  without entropy=     -514.63971343  energy(sigma->0) =     -514.62155530

 d Force = 0.1405880E-02[ 0.982E-03, 0.183E-02]  d Energy = 0.1348663E-02 0.572E-04
 d Force = 0.1684764E+02[ 0.169E+02, 0.168E+02]  d Ewald  = 0.1684764E+02-0.295E-05

 Conjugate gradient step on ions:
 trial-energy change:   -0.001349  1 .order   -0.001406   -0.001830   -0.000982
  (g-gl).g = 0.221E-03      g.g   = 0.202E-03  gl.gl    = 0.252E-03
 g(Force)  = 0.202E-03   g(Stress)= 0.000E+00 ortho     =-0.457E-05
 gamma     =   0.87655
 trial     =   9.23736
 opt step  =  19.92731  (harmonic =  19.92731) maximal distance =0.01678778
 next E    =  -514.613102   (d E  =  -0.00197)

 reached required accuracy - stopping structural energy minimisation