 vasp.5.4.4.18Apr17-6-g9f103f2a35 (build Oct 25 2019 11:13:22) complex

 executed on             LinuxIFC date 2022.02.05  11:21:30

 INCAR:
 POTCAR:    PAW_PBE Pt 04Feb2005
 POTCAR:    PAW_PBE Fe 06Sep2000
 POTCAR:    PAW_PBE Co 02Aug2007
 POTCAR:    PAW_PBE Cu 22Jun2005
 POTCAR:    PAW_PBE Ni 02Aug2007
 POTCAR:    PAW_PBE H 15Jun2001

 POTCAR:    PAW_PBE Pt 04Feb2005
   VRHFIN =Pt: s1d9

   TITEL  = PAW_PBE Pt 04Feb2005
   POMASS =  195.080; ZVAL   =   10.000    mass and valenz
   ENMAX  =  230.283; ENMIN  =  172.712 eV

 POTCAR:    PAW_PBE Fe 06Sep2000
   VRHFIN =Fe:  d7 s1

   TITEL  = PAW_PBE Fe 06Sep2000
   POMASS =   55.847; ZVAL   =    8.000    mass and valenz
   ENMAX  =  267.882; ENMIN  =  200.911 eV

 POTCAR:    PAW_PBE Co 02Aug2007
   VRHFIN =Co: d8 s1

   TITEL  = PAW_PBE Co 02Aug2007
   POMASS =   58.933; ZVAL   =    9.000    mass and valenz
   ENMAX  =  267.968; ENMIN  =  200.976 eV

 POTCAR:    PAW_PBE Cu 22Jun2005
   VRHFIN =Cu: d10 p1

   TITEL  = PAW_PBE Cu 22Jun2005
   POMASS =   63.546; ZVAL   =   11.000    mass and valenz
   ENMAX  =  295.446; ENMIN  =  221.585 eV

 POTCAR:    PAW_PBE Ni 02Aug2007
   VRHFIN =Ni:

   TITEL  = PAW_PBE Ni 02Aug2007
   POMASS =   58.690; ZVAL   =   10.000    mass and valenz
   ENMAX  =  269.532; ENMIN  =  202.149 eV

 POTCAR:    PAW_PBE H 15Jun2001
   VRHFIN =H: ultrasoft test

   TITEL  = PAW_PBE H 15Jun2001
   POMASS =    1.000; ZVAL   =    1.000    mass and valenz
   ENMAX  =  250.000; ENMIN  =  200.000 eV

 Optimization of the real space projectors (new method)

 maximal supplied QI-value         = 14.36
 optimisation between [QCUT,QGAM] = [ 11.92, 23.98] = [ 39.79,161.09] Ry
 Optimized for a Real-space Cutoff    1.49 Angstroem

   l    n(q)    QCUT    max X(q) W(low)/X(q) W(high)/X(q)  e(spline)
   2     10    11.920    66.195    0.79E-04    0.18E-03    0.24E-06
   2     10    11.920    64.643    0.81E-04    0.19E-03    0.24E-06
   0     11    11.920    95.520    0.28E-04    0.54E-04    0.18E-06
   0     11    11.920    63.403    0.27E-04    0.52E-04    0.17E-06
   1     10    11.920    19.961    0.18E-04    0.11E-03    0.23E-06
   1     10    11.920    13.289    0.25E-04    0.87E-04    0.19E-06
 Optimization of the real space projectors (new method)

[...]

   l    n(q)    QCUT    max X(q) W(low)/X(q) W(high)/X(q)  e(spline)
   2      9    11.864    60.317    0.21E-03    0.51E-03    0.25E-06
   2      9    11.864    55.921    0.21E-03    0.51E-03    0.26E-06
   0      9    11.864    51.690    0.22E-03    0.30E-04    0.17E-06
   0      9    11.864    30.015    0.20E-03    0.28E-04    0.15E-06
   1      9    11.864    18.849    0.76E-04    0.33E-03    0.17E-06
   1      9    11.864    14.624    0.60E-04    0.28E-03    0.15E-06
 Optimization of the real space projectors (new method)

 maximal supplied QI-value         = 34.20
 optimisation between [QCUT,QGAM] = [ 11.97, 23.94] = [ 40.13,160.53] Ry
 Optimized for a Real-space Cutoff    1.18 Angstroem

   l    n(q)    QCUT    max X(q) W(low)/X(q) W(high)/X(q)  e(spline)
   0      8    11.971    19.460    0.15E-03    0.31E-03    0.25E-06
   0      8    11.971    12.209    0.13E-03    0.29E-03    0.25E-06
   1      8    11.971     4.655    0.22E-03    0.24E-03    0.21E-06
  PAW_PBE Pt 04Feb2005                  :
  PAW_PBE Fe 06Sep2000                  :
  PAW_PBE Co 02Aug2007                  :
  PAW_PBE Cu 22Jun2005                  :
  PAW_PBE Ni 02Aug2007                  :
  PAW_PBE H 15Jun2001                   :

 POSCAR: 10.46
  positions in cartesian coordinates
 exchange correlation table for  LEXCH =        8
   RHO(1)=    0.500       N(1)  =     2000
   RHO(2)=  100.500       N(2)  =     4000

 ion  position               nearest neighbor table
   1  0.787  0.879  0.320-  19 2.59  61 2.62  33 2.64  29 2.65  28 2.66  60 2.66  49 2.67  59 2.68
                             2 2.69  12 2.83   4 2.84  11 2.91
   2  0.043  0.883  0.317-  79 2.55  60 2.59  77 2.60  30 2.63  52 2.65  28 2.65  33 2.66  22 2.67
                             1 2.69   6 2.77   4 2.84  16 2.89
   3  0.283  0.377  0.322-  39 2.53  33 2.59  64 2.63  19 2.65  43 2.65  31 2.66  30 2.71  68 2.74
                             5 2.77  18 2.78  25 2.88  13 2.91
   4  0.879  0.964  0.427-   9 2.61   6 2.61  17 2.61  16 2.61  11 2.62  12 2.63   1 2.84  60 2.84
                             2 2.84
   5  0.126  0.464  0.430-  12 2.60   7 2.61  16 2.61  10 2.61  13 2.63  25 2.64  33 2.72  39 2.77
                             3 2.77
   6  0.128  0.963  0.423-   4 2.61   8 2.61   9 2.61  14 2.61  10 2.62  16 2.62   2 2.77  52 2.79
                            22 2.86
   7  0.877  0.462  0.429-  15 2.59   9 2.61   5 2.61  12 2.62  10 2.62  27 2.62  39 2.71  29 2.82
                            75 2.83
   8  0.378  0.961  0.419-  43 2.57  14 2.59  27 2.60   6 2.61  10 2.62  11 2.66  13 2.67  52 2.68
                            61 2.69
   9  0.878  0.213  0.423-  17 2.60   7 2.61   4 2.61   6 2.61  15 2.62  10 2.62  75 2.71  60 2.77
                            22 2.82
  10  0.129  0.213  0.423-   5 2.61  13 2.62   7 2.62   6 2.62   9 2.62   8 2.62  39 2.65  43 2.73
                            22 2.81
  11  0.629  0.962  0.435-  81 1.78  12 2.60   4 2.62  27 2.63  13 2.63  17 2.64   8 2.66   1 2.91
                            19 3.00  61 3.07
  12  0.877  0.713  0.429-   5 2.60  11 2.60  27 2.62   7 2.62  16 2.62   4 2.63  33 2.69   1 2.83
                            29 2.87
  13  0.377  0.214  0.436-  81 1.74  10 2.62   5 2.63  25 2.63  11 2.63  17 2.65   8 2.67   3 2.91
                            19 3.01  43 3.01
  14  0.379  0.714  0.425-   8 2.59  27 2.59   6 2.61  25 2.62  15 2.62  16 2.64  44 2.70  52 2.78
                            30 2.79
  15  0.629  0.464  0.424-   7 2.59  27 2.60   9 2.62  17 2.62  14 2.62  25 2.62  44 2.70  75 2.72
                            18 2.79
  16  0.128  0.713  0.428-   5 2.61  25 2.61   4 2.61  12 2.62   6 2.62  14 2.64  33 2.70  30 2.83
                             2 2.89
  17  0.630  0.213  0.421-   9 2.60   4 2.61  15 2.62  25 2.64  11 2.64  13 2.65  18 2.72  60 2.72
                            19 2.84
  18  0.549  0.376  0.317-  67 2.56  60 2.57  75 2.58  44 2.63  26 2.66  68 2.66  30 2.67  19 2.71
                            17 2.72   3 2.78  15 2.79  25 2.91
  19  0.536  0.123  0.316-  43 2.54  80 2.57   1 2.59  61 2.59  68 2.60  59 2.61   3 2.65  18 2.71
                            60 2.74  17 2.84  11 3.00  13 3.01
  20  0.546  0.123  0.038-  37 2.55  57 2.56  48 2.58  62 2.61  45 2.65  63 2.65  47 2.66  56 2.67
                            34 2.68
  21  0.121  0.460  0.127-  40 2.52  47 2.53  36 2.53  69 2.59  42 2.60  70 2.61  50 2.62  64 2.62
                            58 2.64  57 2.68  74 2.69  31 2.70
  22  0.043  0.138  0.314-  65 2.51  55 2.53  39 2.56  43 2.56  75 2.57  77 2.58  60 2.65   2 2.67
                            52 2.71  10 2.81   9 2.82   6 2.86  31 3.38
  23  0.043  0.130  0.032-  70 2.58  40 2.59  45 2.59  41 2.62  62 2.62  76 2.62  24 2.68  35 2.69
                            53 2.75
  24  0.130  0.958  0.131-  79 2.51  77 2.53  53 2.57  35 2.58  55 2.58  70 2.59  58 2.62  38 2.62
                            73 2.63  66 2.68  23 2.68  41 2.70
  25  0.378  0.465  0.429-  16 2.61  14 2.62  15 2.62  13 2.63  17 2.64   5 2.64  30 2.85   3 2.88
                            18 2.91
  26  0.454  0.545  0.219-  73 2.49  74 2.54  51 2.56  79 2.59  64 2.60  68 2.65  30 2.65  78 2.65
                            18 2.66  32 2.67  67 2.70  44 2.76
  27  0.627  0.713  0.425-  14 2.59  15 2.60   8 2.60  12 2.62   7 2.62  11 2.63  44 2.72  29 2.78
                            61 2.79
  28  0.956  0.790  0.221-  58 2.57  42 2.57  66 2.58  50 2.59  49 2.59  64 2.61   2 2.65   1 2.66
                            59 2.67  79 2.72  77 2.73  33 2.74
  29  0.795  0.623  0.319-  39 2.52  42 2.55  75 2.55  44 2.61  32 2.62  33 2.63  61 2.65   1 2.65
                            49 2.69  27 2.78   7 2.82  12 2.87
  30  0.293  0.631  0.319-  79 2.58  52 2.60  44 2.60  64 2.61   2 2.63  33 2.63  26 2.65  18 2.67
                             3 2.71  14 2.79  16 2.83  25 2.85
  31  0.203  0.282  0.225-  70 2.53  55 2.55  65 2.56  43 2.58  57 2.61   3 2.66  80 2.67  39 2.67
                            42 2.68  21 2.70  68 2.71  64 2.75  22 3.38
  32  0.707  0.549  0.221-  54 2.53  69 2.56  49 2.57  42 2.58  51 2.58  65 2.60  78 2.60  29 2.62
                            26 2.67  67 2.68  75 2.69  44 2.69
  33  0.042  0.630  0.327-   3 2.59  39 2.60  29 2.63  30 2.63   1 2.64   2 2.66  12 2.69  16 2.70
                            64 2.71   5 2.72  28 2.74  42 2.75
  34  0.798  0.862  0.040-  50 2.39  66 2.50  71 2.53  36 2.54  48 2.54  63 2.59  20 2.68  35 2.72
                            62 2.73
  35  0.056  0.867  0.036-  72 2.53  58 2.54  36 2.55  24 2.58  53 2.62  66 2.62  23 2.69  62 2.70
                            34 2.72
  36  0.047  0.627  0.035-  21 2.53  34 2.54  35 2.55  58 2.59  47 2.59  72 2.62  50 2.62  40 2.64
                            71 2.69
  37  0.627  0.221  0.128-  74 2.49  51 2.51  67 2.52  41 2.54  56 2.54  20 2.55  59 2.56  68 2.56
                            62 2.60  66 2.63  57 2.68  48 2.82
  38  0.382  0.955  0.129-  80 2.48  53 2.48  45 2.51  48 2.52  78 2.53  73 2.54  54 2.54  63 2.55
                            55 2.59  57 2.60  24 2.62  70 2.65
  39  0.037  0.384  0.325-  29 2.52   3 2.53  22 2.56  75 2.57  33 2.60  10 2.65  42 2.67  31 2.67
                             7 2.71  43 2.77   5 2.77  65 2.79
  40  0.032  0.382  0.036-  69 2.46  71 2.51  21 2.52  76 2.55  70 2.58  23 2.59  36 2.64  47 2.73
                            45 2.75
  41  0.872  0.216  0.128-  76 2.46  65 2.51  37 2.54  69 2.54  67 2.54  77 2.54  51 2.57  62 2.58
                            23 2.62  70 2.63  66 2.64  24 2.70
  42  0.955  0.545  0.224-  29 2.55  50 2.56  28 2.57  32 2.58  21 2.60  49 2.61  64 2.62  69 2.62
                            65 2.63  39 2.67  31 2.68  33 2.75
  43  0.298  0.116  0.321-  52 2.51  55 2.52  19 2.54  61 2.54  22 2.56   8 2.57  31 2.58  80 2.64
                             3 2.65  10 2.73  39 2.77  13 3.01
  44  0.541  0.631  0.322-  61 2.53  52 2.54  30 2.60  29 2.61  78 2.63  18 2.63  75 2.64  32 2.69
                            14 2.70  15 2.70  27 2.72  26 2.76
  45  0.295  0.120  0.038-  70 2.50  38 2.51  57 2.57  53 2.59  23 2.59  63 2.62  20 2.65  47 2.72
                            40 2.75
  46  0.548  0.625  0.042-  51 2.38  73 2.40  54 2.42  53 2.54  71 2.55  63 2.56  76 2.57  56 2.59
                            72 2.61
  47  0.295  0.380  0.037-  74 2.43  21 2.53  72 2.58  36 2.59  56 2.61  57 2.61  20 2.66  45 2.72
                            40 2.73
  48  0.625  0.951  0.131-  49 2.40  54 2.48  80 2.48  38 2.52  34 2.54  59 2.54  50 2.54  63 2.58
                            20 2.58  57 2.62  66 2.64  37 2.82
  49  0.706  0.795  0.220-  48 2.40  50 2.48  54 2.49  80 2.51  32 2.57  78 2.59  28 2.59  42 2.61
                            61 2.61  59 2.66   1 2.67  29 2.69
  50  0.866  0.707  0.128-  34 2.39  71 2.43  54 2.46  49 2.48  48 2.54  42 2.56  69 2.57  28 2.59
                            21 2.62  36 2.62  66 2.71  58 2.80
[...]
     12.75801      6.40091      2.81726         0.036609      0.010020      0.018408
      8.95770      4.17295      2.77896         0.015804      0.022025      0.003910
      7.70982      7.93098      6.98678        -0.009591     -0.000074      0.015453
      7.73138      7.86096      0.86088        -0.025350     -0.000208     -0.015580
     10.29450      6.46618      2.80924        -0.006363     -0.013463     -0.004210
      2.48849      0.26233      4.99690        -0.024751     -0.003826     -0.068359
      7.67241      3.44637      0.72761        -0.003510     -0.022487      0.007218
      5.03303      1.85843      2.89234        -0.021485      0.008583      0.008071
      5.10108      6.38920      2.87489        -0.011241     -0.004104      0.007123
      7.63667      0.45282      4.84968         0.004794     -0.035111      0.054678
      8.98810      1.17912      6.98548        -0.003985     -0.026673     -0.010409
[...]
      8.97964      2.61894      4.90350         0.004222     -0.007267     -0.017191
      6.30589      2.63413      4.85503        -0.013830     -0.001595      0.051152
     11.54224      4.13511      2.79014         0.003123      0.013931     -0.019162
      2.41993      1.87995      2.81735         0.008275      0.006513      0.015970
     11.54338      5.63874      0.85840         0.007267      0.016781     -0.010325
      6.38743      5.66222      0.89172        -0.012638      0.023109     -0.002399
      7.74928      6.43552      2.82185        -0.001944      0.018868     -0.040299
      6.36172      4.09062      2.75984        -0.012870     -0.012129      0.021924
     10.28692      3.43055      7.05384         0.015814      0.026437      0.013509
     10.24544      3.41772      0.83401        -0.000349     -0.016574     -0.021542
     10.26946      0.46989      4.86907         0.007160     -0.029447     -0.007169
      8.95807      7.22027      4.93062        -0.012521     -0.011945     -0.081747
      6.39295      7.22925      4.93874         0.043735     -0.001382     -0.001430
      4.99996      0.28300      4.87997         0.051356      0.015432      0.054020
      5.62723      0.75556     10.73673         0.005263     -0.000687      0.114317
    total drift:                               -0.007132     -0.021481     -0.092391

  FREE ENERGIE OF THE ION-ELECTRON SYSTEM (eV)
  free  energy   TOTEN  =      -511.55523992 eV

  energy  without entropy=     -511.55523992  energy(sigma->0) =     -511.55523992

 d Force = 0.1098810E-03[-0.343E-02, 0.365E-02]  d Energy = 0.1528981E-02-0.142E-02
 d Force =-0.1060907E+02[-0.106E+02,-0.106E+02]  d Ewald  =-0.1060925E+02 0.173E-03

 Finite differences progress:
  Degree of freedom:   3/  3
  Displacement:        2/  2
  Total:               6/  6

 SECOND DERIVATIVES (NOT SYMMETRIZED)
              81X         81Y         81Z
 81X    -0.972719    0.570870    0.220758
 81Y     0.573250   -1.783949    0.704386
 81Z     0.222774    0.699892   -7.865291

 Eigenvectors and eigenvalues of the dynamical matrix

   1 f  =   44.075941 THz   276.937307 2PiTHz 1470.215104 cm-1   182.283507 meV
             X         Y         Z           dx          dy          dz
     12.833858  7.966026  7.041643            0           0           0
      5.064071  7.997153  6.970138            0           0           0
      4.928268  3.411366  7.092216            0           0           0
     14.231586  8.729839  9.393952            0           0           0
      3.743706  4.206148  9.466623            0           0           0
      6.378769  8.725406  9.302577            0           0           0
     11.595716  4.187699  9.445554            0           0           0
      8.985978  8.709367  9.213119            0           0           0
     10.302389  1.929292  9.304338            0           0           0
      2.465356  1.933519  9.307844            0           0           0
     11.617275  8.718173  9.578102            0           0           0
     12.901736  6.459121  9.430993            0           0           0
      5.066647  1.939071  9.598743            0           0           0
      7.697310  6.469132  9.353362            0           0           0
      9.003908  4.199682  9.321218            0           0           0
      5.062623  6.457718  9.418810            0           0           0
      7.699484  1.930575  9.265868            0           0           0
      7.709394  3.405087  6.983918            0           0           0
      6.252672  1.117772  6.960242            0           0           0
      6.360598  1.118418  0.836434            0           0           0
      3.676042  4.170544  2.797305            0           0           0
      1.172204  1.247835  6.914902            0           0           0
      1.127025  1.175942  0.698123            0           0           0
      6.373624  8.680686  2.887431            0           0           0
      6.386038  4.208012  9.443380            0           0           0
      7.601892  4.941036  4.811584            0           0           0
     10.287616  6.459235  9.344596            0           0           0
     14.137687  7.160553  4.867965            0           0           0
     11.570441  5.639455  7.023272            0           0           0
      6.359652  5.711659  7.019780            0           0           0
      3.597724  2.553772  4.958234            0           0           0
     10.267537  4.969746  4.851478            0           0           0
      3.733389  5.707161  7.194898            0           0           0
     12.852282  7.807618  0.888681            0           0           0
      5.114080  7.849718  0.793090            0           0           0
      3.770227  5.682576  0.769145            0           0           0
      7.709702  1.997558  2.815724            0           0           0
      8.995271  8.651687  2.845548            0           0           0
      2.397554  3.478981  7.158464            0           0           0
      2.337773  3.464190  0.785560            0           0           0
     10.246202  1.952172  2.805117            0           0           0
     12.841951  4.937451  4.921441            0           0           0
      3.719101  1.049602  7.053546            0           0           0
      8.960618  5.718583  7.083656            0           0           0
      3.713945  1.087838  0.825141            0           0           0
      8.998291  5.665219  0.927996            0           0           0
      5.067435  3.441468  0.812654            0           0           0
     11.517273  8.616645  2.892278            0           0           0
     11.544645  7.199779  4.832406            0           0           0
     12.758010  6.400910  2.817256            0           0           0
      8.957703  4.172950  2.778963            0           0           0
      7.709815  7.930981  6.986783            0           0           0
      7.731381  7.860956  0.860880            0           0           0
     10.294496  6.466176  2.809236            0           0           0
      2.488487  0.262328  4.996902            0           0           0
      7.672412  3.446372  0.727611            0           0           0
      5.033028  1.858433  2.892341            0           0           0
      5.101077  6.389203  2.874891            0           0           0
      7.636675  0.452821  4.849681            0           0           0
      8.988098  1.179123  6.985481            0           0           0
[...]
      8.979643  2.618940  4.903500            0           0           0
      6.305890  2.634134  4.855031            0           0           0
     11.542241  4.135108  2.790143            0           0           0
      2.419927  1.879955  2.817345            0           0           0
     11.543384  5.638735  0.858402            0           0           0
      6.387432  5.662223  0.891717            0           0           0
      7.749284  6.435515  2.821853            0           0           0
      6.361720  4.090624  2.759842            0           0           0
     10.286917  3.430553  7.053839            0           0           0
     10.245443  3.417720  0.834008            0           0           0
     10.269464  0.469889  4.869075            0           0           0
      8.958072  7.220273  4.930624            0           0           0
      6.392947  7.229252  4.938737            0           0           0
      4.999964  0.283003  4.879972            0           0           0
      5.627226  0.755563 10.751732    -0.022476   -0.111074    0.993558

[...]

   3 f  =   12.494276 THz    78.503854 2PiTHz  416.764190 cm-1    51.672193 meV
             X         Y         Z           dx          dy          dz
     12.833858  7.966026  7.041643            0           0           0
      5.064071  7.997153  6.970138            0           0           0
      4.928268  3.411366  7.092216            0           0           0
     14.231586  8.729839  9.393952            0           0           0
      3.743706  4.206148  9.466623            0           0           0
      6.378769  8.725406  9.302577            0           0           0
     11.595716  4.187699  9.445554            0           0           0
      8.985978  8.709367  9.213119            0           0           0
     10.302389  1.929292  9.304338            0           0           0
      2.465356  1.933519  9.307844            0           0           0
     11.617275  8.718173  9.578102            0           0           0
     12.901736  6.459121  9.430993            0           0           0
      5.066647  1.939071  9.598743            0           0           0
      7.697310  6.469132  9.353362            0           0           0
      9.003908  4.199682  9.321218            0           0           0
      5.062623  6.457718  9.418810            0           0           0
      7.699484  1.930575  9.265868            0           0           0
      7.709394  3.405087  6.983918            0           0           0
      6.252672  1.117772  6.960242            0           0           0
      6.360598  1.118418  0.836434            0           0           0
      3.676042  4.170544  2.797305            0           0           0
      1.172204  1.247835  6.914902            0           0           0
      1.127025  1.175942  0.698123            0           0           0
      6.373624  8.680686  2.887431            0           0           0
      6.386038  4.208012  9.443380            0           0           0
      7.601892  4.941036  4.811584            0           0           0
     10.287616  6.459235  9.344596            0           0           0
     14.137687  7.160553  4.867965            0           0           0
     11.570441  5.639455  7.023272            0           0           0
      6.359652  5.711659  7.019780            0           0           0
      3.597724  2.553772  4.958234            0           0           0
     10.267537  4.969746  4.851478            0           0           0
      3.733389  5.707161  7.194898            0           0           0
     12.852282  7.807618  0.888681            0           0           0
      5.114080  7.849718  0.793090            0           0           0
      3.770227  5.682576  0.769145            0           0           0
      7.709702  1.997558  2.815724            0           0           0
      8.995271  8.651687  2.845548            0           0           0
      2.397554  3.478981  7.158464            0           0           0
      2.337773  3.464190  0.785560            0           0           0
     10.246202  1.952172  2.805117            0           0           0
     12.841951  4.937451  4.921441            0           0           0
      3.719101  1.049602  7.053546            0           0           0
      8.960618  5.718583  7.083656            0           0           0
      3.713945  1.087838  0.825141            0           0           0
      8.998291  5.665219  0.927996            0           0           0
      5.067435  3.441468  0.812654            0           0           0
     11.517273  8.616645  2.892278            0           0           0
     11.544645  7.199779  4.832406            0           0           0
     12.758010  6.400910  2.817256            0           0           0
      8.957703  4.172950  2.778963            0           0           0
      7.709815  7.930981  6.986783            0           0           0
      7.731381  7.860956  0.860880            0           0           0
     10.294496  6.466176  2.809236            0           0           0
      2.488487  0.262328  4.996902            0           0           0
      7.672412  3.446372  0.727611            0           0           0
      5.033028  1.858433  2.892341            0           0           0
      5.101077  6.389203  2.874891            0           0           0
      7.636675  0.452821  4.849681            0           0           0
      8.988098  1.179123  6.985481            0           0           0
[...]
      8.979643  2.618940  4.903500            0           0           0
      6.305890  2.634134  4.855031            0           0           0
     11.542241  4.135108  2.790143            0           0           0
      2.419927  1.879955  2.817345            0           0           0
     11.543384  5.638735  0.858402            0           0           0
      6.387432  5.662223  0.891717            0           0           0
      7.749284  6.435515  2.821853            0           0           0
      6.361720  4.090624  2.759842            0           0           0
     10.286917  3.430553  7.053839            0           0           0
     10.245443  3.417720  0.834008            0           0           0
     10.269464  0.469889  4.869075            0           0           0
      8.958072  7.220273  4.930624            0           0           0
      6.392947  7.229252  4.938737            0           0           0
      4.999964  0.283003  4.879972            0           0           0
      5.627226  0.755563 10.751732    -0.873409   -0.481397   -0.073576

 Finite differences POTIM=  1.500000000000000E-002
  LATTYP: Found a hexagonal cell.
 ALAT       =    10.4600000381
 C/A-ratio  =     2.1032504704

  Lattice vectors:

 A1 = (   5.2300000190,  -9.0586257566,   0.0000000000)
 A2 = ( -10.4600000381,   0.0000000000,   0.0000000000)
 A3 = (   0.0000000000,   0.0000000000, -22.0000000000)

Analysis of symmetry for initial positions (statically):
 Subroutine PRICEL returns:
 Original cell was already a primitive cell.

[...]

The static configuration has the point symmetry C_1 .

Analysis of symmetry for dynamics (positions and initial velocities):
 Subroutine PRICEL returns:
 Original cell was already a primitive cell.

[...]

The dynamic configuration has the point symmetry C_1 .

Analysis of constrained symmetry for selective dynamics:
 Subroutine PRICEL returns:
 Original cell was already a primitive cell.

[...]

The constrained configuration has the point symmetry C_1 .

Analysis of structural, dynamic, and magnetic symmetry:
 Subroutine PRICEL returns:
 Original cell was already a primitive cell.

 Routine SETGRP: Setting up the symmetry group for a
 hexagonal supercell.

 Subroutine GETGRP returns: Found  1 space group operations
 (whereof  1 operations were pure point group operations)
 out of a pool of 24 trial point group operations.

The magnetic configuration has the point symmetry C_1 .

 Subroutine INISYM returns: Found  1 space group operations
 (whereof  1 operations are pure point group operations),
 and found     1 'primitive' translations

 KPOINTS: mesh auto

Automatic generation of k-mesh.
Space group operators:
 irot       det(A)        alpha          n_x          n_y          n_z        tau_x        tau_y        tau_z
    1     1.000000     0.000000     1.000000     0.000000     0.000000     0.000000     0.000000     0.000000

 Subroutine IBZKPT returns following result:

 Found      4 irreducible k-points:

 Following reciprocal coordinates:
            Coordinates               Weight
  0.000000  0.000000  0.000000      1.000000
  0.500000 -0.000000  0.000000      1.000000
  0.000000  0.500000  0.000000      1.000000
  0.500000  0.500000  0.000000      1.000000

 Following cartesian coordinates:
            Coordinates               Weight
  0.000000  0.000000  0.000000      1.000000
  0.047801 -0.027598  0.000000      1.000000
  0.000000  0.055196  0.000000      1.000000
  0.047801  0.027598  0.000000      1.000000

 TETIRR: Found     12 inequivalent tetrahedra from       24
 BZINTS: Fermi energy:  2.172627;778.000000 electrons
         Band energy:-614.042056;  BLOECHL correction: -0.190792