 vasp.5.4.4.18Apr17-6-g9f103f2a35 (build Nov 30 2020 22:55:02) complex

 executed on             LinuxIFC date 2021.11.28  13:44:29

 INCAR:
 POTCAR:    PAW_PBE Pt 04Feb2005
 POTCAR:    PAW_PBE Fe 06Sep2000
 POTCAR:    PAW_PBE Co 02Aug2007
 POTCAR:    PAW_PBE Cu 22Jun2005
 POTCAR:    PAW_PBE Ni 02Aug2007
 POTCAR:    PAW_PBE H 15Jun2001

 POTCAR:    PAW_PBE Pt 04Feb2005
   VRHFIN =Pt: s1d9

   TITEL  = PAW_PBE Pt 04Feb2005
   POMASS =  195.080; ZVAL   =   10.000    mass and valenz
   ENMAX  =  230.283; ENMIN  =  172.712 eV

 POTCAR:    PAW_PBE Fe 06Sep2000
   VRHFIN =Fe:  d7 s1

   TITEL  = PAW_PBE Fe 06Sep2000
   POMASS =   55.847; ZVAL   =    8.000    mass and valenz
   ENMAX  =  267.882; ENMIN  =  200.911 eV

 POTCAR:    PAW_PBE Co 02Aug2007
   VRHFIN =Co: d8 s1

   TITEL  = PAW_PBE Co 02Aug2007
   POMASS =   58.933; ZVAL   =    9.000    mass and valenz
   ENMAX  =  267.968; ENMIN  =  200.976 eV

 POTCAR:    PAW_PBE Cu 22Jun2005
   VRHFIN =Cu: d10 p1

   TITEL  = PAW_PBE Cu 22Jun2005
   POMASS =   63.546; ZVAL   =   11.000    mass and valenz
   ENMAX  =  295.446; ENMIN  =  221.585 eV

 POTCAR:    PAW_PBE Ni 02Aug2007
   VRHFIN =Ni:

   TITEL  = PAW_PBE Ni 02Aug2007
   POMASS =   58.690; ZVAL   =   10.000    mass and valenz
   ENMAX  =  269.532; ENMIN  =  202.149 eV

 POTCAR:    PAW_PBE H 15Jun2001
   VRHFIN =H: ultrasoft test

   TITEL  = PAW_PBE H 15Jun2001
   POMASS =    1.000; ZVAL   =    1.000    mass and valenz
   ENMAX  =  250.000; ENMIN  =  200.000 eV

 Optimization of the real space projectors (new method)

 maximal supplied QI-value         = 14.36
 optimisation between [QCUT,QGAM] = [ 11.92, 23.98] = [ 39.79,161.09] Ry
 Optimized for a Real-space Cutoff    1.49 Angstroem

   l    n(q)    QCUT    max X(q) W(low)/X(q) W(high)/X(q)  e(spline)
   2     10    11.920    66.195    0.79E-04    0.18E-03    0.24E-06
   2     10    11.920    64.643    0.81E-04    0.19E-03    0.24E-06
   0     11    11.920    95.520    0.28E-04    0.54E-04    0.18E-06
   0     11    11.920    63.403    0.27E-04    0.52E-04    0.17E-06
   1     10    11.920    19.961    0.18E-04    0.11E-03    0.23E-06
   1     10    11.920    13.289    0.25E-04    0.87E-04    0.19E-06
 Optimization of the real space projectors (new method)

[...]

   l    n(q)    QCUT    max X(q) W(low)/X(q) W(high)/X(q)  e(spline)
   2      9    11.864    60.317    0.21E-03    0.51E-03    0.25E-06
   2      9    11.864    55.921    0.21E-03    0.51E-03    0.26E-06
   0      9    11.864    51.690    0.22E-03    0.30E-04    0.17E-06
   0      9    11.864    30.015    0.20E-03    0.28E-04    0.15E-06
   1      9    11.864    18.849    0.76E-04    0.33E-03    0.17E-06
   1      9    11.864    14.624    0.60E-04    0.28E-03    0.15E-06
 Optimization of the real space projectors (new method)

 maximal supplied QI-value         = 34.20
 optimisation between [QCUT,QGAM] = [ 11.97, 23.94] = [ 40.13,160.53] Ry
 Optimized for a Real-space Cutoff    1.18 Angstroem

   l    n(q)    QCUT    max X(q) W(low)/X(q) W(high)/X(q)  e(spline)
   0      8    11.971    19.460    0.15E-03    0.31E-03    0.25E-06
   0      8    11.971    12.209    0.13E-03    0.29E-03    0.25E-06
   1      8    11.971     4.655    0.22E-03    0.24E-03    0.21E-06
  PAW_PBE Pt 04Feb2005                  :
  PAW_PBE Fe 06Sep2000                  :
  PAW_PBE Co 02Aug2007                  :
  PAW_PBE Cu 22Jun2005                  :
  PAW_PBE Ni 02Aug2007                  :
  PAW_PBE H 15Jun2001                   :

 POSCAR: 10.56
  positions in cartesian coordinates
 exchange correlation table for  LEXCH =        8
   RHO(1)=    0.500       N(1)  =     2000
   RHO(2)=  100.500       N(2)  =     4000

 ion  position               nearest neighbor table
   1  0.788  0.880  0.317-  28 2.62  49 2.63  19 2.64  59 2.64  33 2.65  61 2.67  29 2.68  60 2.68
                             2 2.73  11 2.76   4 2.79  12 2.85
   2  0.044  0.885  0.318-  79 2.57  77 2.61  60 2.62  30 2.64  52 2.64  22 2.66  33 2.69  28 2.70
                             1 2.73   4 2.80  16 2.87   6 2.94
   3  0.279  0.382  0.320-  39 2.56  64 2.57  33 2.59  31 2.63  19 2.70  68 2.72  30 2.72  43 2.73
                             5 2.80  13 2.80  18 2.82  25 2.85
   4  0.873  0.963  0.423-  11 2.63  17 2.63  12 2.63   6 2.67  16 2.67   9 2.67  60 2.78   1 2.79
                             2 2.80
   5  0.122  0.465  0.429-  10 2.61  16 2.61  12 2.62   7 2.63  25 2.66  13 2.67  33 2.75  39 2.76
                             3 2.80
   6  0.125  0.962  0.434-  82 1.68  81 1.75  14 2.66  16 2.67   4 2.67   8 2.68   9 2.68  10 2.71
                             2 2.94  52 3.02  22 3.07
   7  0.874  0.463  0.427-  15 2.62   9 2.62   5 2.63  10 2.63  27 2.64  12 2.64  39 2.70  75 2.78
                            29 2.79
   8  0.379  0.961  0.426-  82 1.84  11 2.60  27 2.61  13 2.63  14 2.64  43 2.68   6 2.68  10 2.69
                            61 2.79  52 2.83
   9  0.871  0.216  0.428-  81 1.76  15 2.60   7 2.62  17 2.63   4 2.67   6 2.68  10 2.69  75 2.78
                            60 2.84  22 2.93
  10  0.126  0.217  0.421-   5 2.61  13 2.61  39 2.63   7 2.63  43 2.66   8 2.69   9 2.69   6 2.71
                            22 2.76
  11  0.624  0.962  0.423-   8 2.60   4 2.63  13 2.63  12 2.64  27 2.64  17 2.65   1 2.76  19 2.81
                            61 2.81
  12  0.875  0.713  0.426-   5 2.62  16 2.63   4 2.63   7 2.64  11 2.64  27 2.65  33 2.70  29 2.83
                             1 2.85
  13  0.375  0.212  0.425-  10 2.61   8 2.63  11 2.63  17 2.64  25 2.66   5 2.67  43 2.77   3 2.80
                            19 2.83
  14  0.376  0.713  0.422-  27 2.61  15 2.64  25 2.64   8 2.64   6 2.66  44 2.66  16 2.67  30 2.74
                            52 2.75
  15  0.626  0.463  0.422-   9 2.60   7 2.62  27 2.62  14 2.64  17 2.65  25 2.66  44 2.69  75 2.70
                            18 2.76
  16  0.125  0.710  0.426-   5 2.61  25 2.62  12 2.63   6 2.67   4 2.67  33 2.67  14 2.67  30 2.82
                             2 2.87
  17  0.624  0.213  0.422-   9 2.63   4 2.63  13 2.64  25 2.64  11 2.65  15 2.65  18 2.74  60 2.76
                            19 2.86
  18  0.548  0.376  0.317-  67 2.56  60 2.59  75 2.61  44 2.65  68 2.66  26 2.66  30 2.71  19 2.73
                            17 2.74  15 2.76   3 2.82  25 2.88
  19  0.533  0.126  0.315-  80 2.55  68 2.57  43 2.58  59 2.61  61 2.63   1 2.64   3 2.70  18 2.73
                            60 2.78  11 2.81  13 2.83  17 2.86
  20  0.547  0.124  0.040-  37 2.55  57 2.56  48 2.58  62 2.64  63 2.68  47 2.68  45 2.68  56 2.70
                            34 2.71
  21  0.121  0.460  0.128-  40 2.52  36 2.53  47 2.53  42 2.60  69 2.61  64 2.62  70 2.64  50 2.64
                            58 2.67  31 2.70  57 2.71  74 2.72
  22  0.042  0.137  0.315-  65 2.53  55 2.56  43 2.57  77 2.59  39 2.59  75 2.59   2 2.66  60 2.66
                            52 2.73  10 2.76   9 2.93   6 3.07  31 3.41
  23  0.042  0.130  0.033-  70 2.58  40 2.60  41 2.61  45 2.62  62 2.64  76 2.64  24 2.69  35 2.73
                            53 2.78
  24  0.130  0.958  0.132-  79 2.51  77 2.54  35 2.57  53 2.57  55 2.58  70 2.62  38 2.64  58 2.64
                            73 2.65  23 2.69  66 2.70  41 2.72
  25  0.374  0.464  0.426-  16 2.62  14 2.64  17 2.64  13 2.66   5 2.66  15 2.66  30 2.84   3 2.85
                            18 2.88
  26  0.455  0.546  0.219-  73 2.50  74 2.54  51 2.56  79 2.61  64 2.63  30 2.64  18 2.66  68 2.67
                            78 2.67  32 2.68  67 2.72  44 2.76
  27  0.624  0.712  0.424-   8 2.61  14 2.61  15 2.62   7 2.64  11 2.64  12 2.65  44 2.70  61 2.76
                            29 2.78
  28  0.956  0.790  0.221-  58 2.57  66 2.57  50 2.58  42 2.59  49 2.61   1 2.62  64 2.63  59 2.70
                             2 2.70  33 2.71  79 2.76  77 2.77
  29  0.794  0.624  0.319-  39 2.54  42 2.56  75 2.58  32 2.62  44 2.64  33 2.65  49 2.68   1 2.68
                            61 2.68  27 2.78   7 2.79  12 2.83
  30  0.291  0.633  0.318-  79 2.55  64 2.61  52 2.62  44 2.63   2 2.64  26 2.64  33 2.66  18 2.71
                             3 2.72  14 2.74  16 2.82  25 2.84
  31  0.203  0.281  0.225-  70 2.52  55 2.56  65 2.57  57 2.60  43 2.62   3 2.63  39 2.66  80 2.70
                            21 2.70  42 2.71  68 2.75  64 2.79  22 3.41
  32  0.706  0.549  0.221-  54 2.53  69 2.56  51 2.58  49 2.59  42 2.60  29 2.62  78 2.62  65 2.63
                            26 2.68  44 2.69  75 2.69  67 2.70
  33  0.041  0.632  0.325-   3 2.59  39 2.64   1 2.65  29 2.65  30 2.66  16 2.67   2 2.69  64 2.69
                            12 2.70  28 2.71  42 2.73   5 2.75
  34  0.797  0.862  0.042-  50 2.38  66 2.51  48 2.53  36 2.55  71 2.56  63 2.61  20 2.71  35 2.76
                            62 2.76
  35  0.056  0.866  0.038-  58 2.54  72 2.55  36 2.56  24 2.57  66 2.62  53 2.65  23 2.73  62 2.73
                            34 2.76
  36  0.046  0.628  0.037-  21 2.53  34 2.55  35 2.56  58 2.58  50 2.61  47 2.63  72 2.64  40 2.69
                            71 2.72
  37  0.627  0.222  0.129-  51 2.51  74 2.51  67 2.52  56 2.53  41 2.55  20 2.55  68 2.56  59 2.56
                            62 2.59  66 2.66  57 2.73  48 2.89
  38  0.382  0.955  0.130-  53 2.47  80 2.48  45 2.49  78 2.53  48 2.54  73 2.55  63 2.55  54 2.56
                            55 2.59  57 2.62  24 2.64  70 2.67
  39  0.035  0.385  0.324-  29 2.54   3 2.56  75 2.58  22 2.59  10 2.63  33 2.64  42 2.65  31 2.66
                             7 2.70  65 2.75   5 2.76  43 2.79
  40  0.031  0.382  0.038-  69 2.44  21 2.52  71 2.53  76 2.56  70 2.57  23 2.60  36 2.69  45 2.78
                            47 2.78
  41  0.872  0.215  0.128-  76 2.45  65 2.52  77 2.53  67 2.54  37 2.55  69 2.57  62 2.57  51 2.59
                            23 2.61  70 2.65  66 2.66  24 2.72
  42  0.955  0.545  0.224-  50 2.56  29 2.56  28 2.59  21 2.60  32 2.60  69 2.61  49 2.63  65 2.64
                            39 2.65  64 2.65  31 2.71  33 2.73
  43  0.295  0.116  0.323-  52 2.51  61 2.55  55 2.56  22 2.57  19 2.58  31 2.62  10 2.66   8 2.68
                            80 2.70   3 2.73  13 2.77  39 2.79
  44  0.541  0.631  0.322-  61 2.56  52 2.58  78 2.63  30 2.63  29 2.64  18 2.65  14 2.66  75 2.66
                            15 2.69  32 2.69  27 2.70  26 2.76
  45  0.295  0.119  0.039-  70 2.49  38 2.49  57 2.57  53 2.60  23 2.62  63 2.64  20 2.68  47 2.75
                            40 2.78
  46  0.548  0.625  0.044-  51 2.38  73 2.39  54 2.41  71 2.56  53 2.56  63 2.58  76 2.59  56 2.62
                            72 2.64
  47  0.296  0.379  0.039-  74 2.41  21 2.53  57 2.61  72 2.61  56 2.62  36 2.63  20 2.68  45 2.75
                            40 2.78
  48  0.625  0.950  0.132-  49 2.40  80 2.48  54 2.48  34 2.53  38 2.54  59 2.55  50 2.56  63 2.57
                            20 2.58  57 2.65  66 2.68  37 2.89
  49  0.706  0.794  0.220-  48 2.40  50 2.48  54 2.49  80 2.53  32 2.59  28 2.61  78 2.61  42 2.63
                             1 2.63  61 2.65  29 2.68  59 2.69
  50  0.866  0.706  0.129-  34 2.38  71 2.42  54 2.48  49 2.48  42 2.56  48 2.56  69 2.58  28 2.58
[...]
      2.51347      0.25826      5.00083         0.004525      0.105703      0.092507
      7.74264      3.48454      0.76157         0.002907     -0.011838      0.019622
      5.07835      1.87760      2.91701        -0.002105     -0.012959     -0.005565
      5.16037      6.44715      2.89923        -0.002387     -0.005137     -0.003642
      7.70892      0.45986      4.84799         0.017075      0.027013     -0.007341
      9.07519      1.20375      6.99035         0.001352      0.000268      0.008956
[...]
      6.37169      2.66558      4.85827        -0.006414      0.024790     -0.010181
     11.65891      4.17486      2.81483        -0.012866      0.008519     -0.028463
      2.44098      1.89237      2.83279         0.016186      0.021791      0.002373
     11.64953      5.68621      0.88546         0.014462      0.030095      0.004890
      6.44743      5.71949      0.92597         0.000668      0.025916     -0.000631
      7.82927      6.50651      2.83621        -0.025932      0.003207     -0.017990
      6.41922      4.13007      2.78290        -0.015074     -0.006607      0.002203
     10.38663      3.47071      7.05642         0.010088     -0.004500     -0.000356
     10.34410      3.45013      0.86804        -0.003860     -0.043270     -0.035016
     10.37063      0.48410      4.87151        -0.011603     -0.044272      0.117791
      9.04079      7.29017      4.93700         0.052124     -0.011705      0.012461
      6.46265      7.29503      4.94074        -0.013600      0.105644      0.069349
      5.04247      0.27633      4.88406        -0.030414      0.010712      0.013656
     10.77636      0.74893     10.58665        -0.022749     -0.004754     -0.008522
      7.70266      8.80962     10.59355         0.048147     -0.016283      0.115266
    total drift:                                0.009177      0.008729     -0.014337

  FREE ENERGIE OF THE ION-ELECTRON SYSTEM (eV)
  free  energy   TOTEN  =      -514.59509713 eV

  energy  without entropy=     -514.59509713  energy(sigma->0) =     -514.59509713

 d Force = 0.4816647E-04[-0.346E-02, 0.355E-02]  d Energy = 0.2550896E-03-0.207E-03
 d Force =-0.1052040E+02[-0.105E+02,-0.105E+02]  d Ewald  =-0.1052059E+02 0.189E-03

 Finite differences progress:
  Degree of freedom:   6/  6
  Displacement:        2/  2
  Total:              12/ 12

 SECOND DERIVATIVES (NOT SYMMETRIZED)
              81X         81Y         81Z         82X         82Y         82Z
 81X    -1.075614    1.087545    0.979567    0.152195   -0.124636   -0.090072
 81Y     1.062441   -1.995631    0.265424   -0.083263   -0.012550   -0.031275
 81Z     0.992029    0.244877   -7.361964    0.017357   -0.090241   -0.163827
 82X     0.142444   -0.084541    0.015805   -3.326958    0.163068   -3.064963
 82Y    -0.122671   -0.010082   -0.078409    0.126864   -0.469296   -0.178119
 82Z    -0.079852   -0.032163   -0.157807   -3.069968   -0.181232   -7.791438

 Eigenvectors and eigenvalues of the dynamical matrix

   1 f  =   47.839188 THz   300.582481 2PiTHz 1595.743487 cm-1   197.847048 meV
             X         Y         Z           dx          dy          dz
     12.965071  8.052353  6.981228            0           0           0
      5.134317  8.094973  6.985606            0           0           0
      4.961557  3.490883  7.029915            0           0           0
     14.300219  8.807302  9.306417            0           0           0
      3.743541  4.249393  9.431151            0           0           0
      6.395578  8.800209  9.550322            0           0           0
     11.675092  4.235785  9.392659            0           0           0
      9.072871  8.790214  9.378775            0           0           0
     10.340968  1.979212  9.405989            0           0           0
      2.470268  1.982699  9.258147            0           0           0
     11.673759  8.800573  9.305919            0           0           0
     12.998115  6.517962  9.379389            0           0           0
      5.080019  1.937015  9.354604            0           0           0
      7.737106  6.516649  9.278266            0           0           0
      9.059941  4.234237  9.285308            0           0           0
      5.068386  6.494929  9.368829            0           0           0
      7.714257  1.950163  9.278295            0           0           0
      7.778198  3.440552  6.976953            0           0           0
      6.295992  1.149078  6.925627            0           0           0
      6.428579  1.129740  0.878720            0           0           0
      3.705484  4.208436  2.816869            0           0           0
      1.170100  1.255970  6.932171            0           0           0
      1.135691  1.190800  0.725566            0           0           0
      6.436066  8.760995  2.900314            0           0           0
      6.401089  4.243235  9.376412            0           0           0
      7.681351  4.990728  4.814740            0           0           0
     10.350255  6.515100  9.319189            0           0           0
     14.264242  7.225928  4.862987            0           0           0
     11.677925  5.706923  7.016984            0           0           0
      6.417252  5.785671  6.997046            0           0           0
      3.621194  2.565893  4.960228            0           0           0
     10.360912  5.024302  4.856517            0           0           0
      3.766529  5.781640  7.151653            0           0           0
     12.969068  7.879772  0.925674            0           0           0
      5.163396  7.917194  0.830298            0           0           0
      3.807011  5.745024  0.813805            0           0           0
      7.798522  2.032451  2.832513            0           0           0
      9.077547  8.733730  2.857427            0           0           0
      2.402900  3.521319  7.129056            0           0           0
      2.344093  3.490514  0.825101            0           0           0
     10.348141  1.969830  2.822490            0           0           0
     12.960353  4.985870  4.925592            0           0           0
      3.727416  1.060887  7.106800            0           0           0
      9.043159  5.770888  7.080117            0           0           0
      3.748243  1.091821  0.867003            0           0           0
      9.091210  5.718673  0.960427            0           0           0
      5.124479  3.470454  0.855627            0           0           0
     11.620923  8.687580  2.905895            0           0           0
     11.653130  7.264496  4.842290            0           0           0
     12.867560  6.452796  2.833790            0           0           0
      9.042010  4.207796  2.796278            0           0           0
      7.776141  8.020961  6.979403            0           0           0
      7.813155  7.939223  0.886525            0           0           0
     10.391439  6.535663  2.821980            0           0           0
      2.513474  0.258257  5.000827            0           0           0
      7.742638  3.484538  0.761574            0           0           0
      5.078354  1.877603  2.917008            0           0           0
      5.160365  6.447147  2.899226            0           0           0
      7.708921  0.459858  4.847993            0           0           0
      9.075195  1.203749  6.990353            0           0           0
[...]
      6.371693  2.665576  4.858272            0           0           0
     11.658911  4.174860  2.814827            0           0           0
      2.440982  1.892366  2.832794            0           0           0
     11.649530  5.686214  0.885461            0           0           0
      6.447433  5.719494  0.925972            0           0           0
      7.829267  6.506514  2.836212            0           0           0
      6.419224  4.130068  2.782896            0           0           0
     10.386628  3.470715  7.056424            0           0           0
     10.344097  3.450125  0.868038            0           0           0
     10.370626  0.484098  4.871515            0           0           0
      9.040790  7.290173  4.936995            0           0           0
      6.462653  7.295032  4.940739            0           0           0
      5.042471  0.276335  4.884059            0           0           0
     10.776360  0.748933 10.586647    -0.008217    0.007721    0.071216
      7.702657  8.809623 10.608552     0.451649    0.011172    0.889207

[...]

   6 f  =    6.688598 THz    42.025699 2PiTHz  223.107600 cm-1    27.661827 meV
             X         Y         Z           dx          dy          dz
     12.965071  8.052353  6.981228            0           0           0
      5.134317  8.094973  6.985606            0           0           0
      4.961557  3.490883  7.029915            0           0           0
     14.300219  8.807302  9.306417            0           0           0
      3.743541  4.249393  9.431151            0           0           0
      6.395578  8.800209  9.550322            0           0           0
     11.675092  4.235785  9.392659            0           0           0
      9.072871  8.790214  9.378775            0           0           0
     10.340968  1.979212  9.405989            0           0           0
      2.470268  1.982699  9.258147            0           0           0
     11.673759  8.800573  9.305919            0           0           0
     12.998115  6.517962  9.379389            0           0           0
      5.080019  1.937015  9.354604            0           0           0
      7.737106  6.516649  9.278266            0           0           0
      9.059941  4.234237  9.285308            0           0           0
      5.068386  6.494929  9.368829            0           0           0
      7.714257  1.950163  9.278295            0           0           0
      7.778198  3.440552  6.976953            0           0           0
      6.295992  1.149078  6.925627            0           0           0
      6.428579  1.129740  0.878720            0           0           0
      3.705484  4.208436  2.816869            0           0           0
      1.170100  1.255970  6.932171            0           0           0
      1.135691  1.190800  0.725566            0           0           0
      6.436066  8.760995  2.900314            0           0           0
      6.401089  4.243235  9.376412            0           0           0
      7.681351  4.990728  4.814740            0           0           0
     10.350255  6.515100  9.319189            0           0           0
     14.264242  7.225928  4.862987            0           0           0
     11.677925  5.706923  7.016984            0           0           0
      6.417252  5.785671  6.997046            0           0           0
      3.621194  2.565893  4.960228            0           0           0
     10.360912  5.024302  4.856517            0           0           0
      3.766529  5.781640  7.151653            0           0           0
     12.969068  7.879772  0.925674            0           0           0
      5.163396  7.917194  0.830298            0           0           0
      3.807011  5.745024  0.813805            0           0           0
      7.798522  2.032451  2.832513            0           0           0
      9.077547  8.733730  2.857427            0           0           0
      2.402900  3.521319  7.129056            0           0           0
      2.344093  3.490514  0.825101            0           0           0
     10.348141  1.969830  2.822490            0           0           0
     12.960353  4.985870  4.925592            0           0           0
      3.727416  1.060887  7.106800            0           0           0
      9.043159  5.770888  7.080117            0           0           0
      3.748243  1.091821  0.867003            0           0           0
      9.091210  5.718673  0.960427            0           0           0
      5.124479  3.470454  0.855627            0           0           0
     11.620923  8.687580  2.905895            0           0           0
     11.653130  7.264496  4.842290            0           0           0
     12.867560  6.452796  2.833790            0           0           0
      9.042010  4.207796  2.796278            0           0           0
      7.776141  8.020961  6.979403            0           0           0
      7.813155  7.939223  0.886525            0           0           0
     10.391439  6.535663  2.821980            0           0           0
      2.513474  0.258257  5.000827            0           0           0
      7.742638  3.484538  0.761574            0           0           0
      5.078354  1.877603  2.917008            0           0           0
      5.160365  6.447147  2.899226            0           0           0
      7.708921  0.459858  4.847993            0           0           0
      9.075195  1.203749  6.990353            0           0           0
[...]
      6.371693  2.665576  4.858272            0           0           0
     11.658911  4.174860  2.814827            0           0           0
      2.440982  1.892366  2.832794            0           0           0
     11.649530  5.686214  0.885461            0           0           0
      6.447433  5.719494  0.925972            0           0           0
      7.829267  6.506514  2.836212            0           0           0
      6.419224  4.130068  2.782896            0           0           0
     10.386628  3.470715  7.056424            0           0           0
     10.344097  3.450125  0.868038            0           0           0
     10.370626  0.484098  4.871515            0           0           0
      9.040790  7.290173  4.936995            0           0           0
      6.462653  7.295032  4.940739            0           0           0
      5.042471  0.276335  4.884059            0           0           0
     10.776360  0.748933 10.586647     0.779870    0.482369    0.128976
      7.702657  8.809623 10.608552     0.018813   -0.376812   -0.012132

 Finite differences POTIM=  1.500000000000000E-002
  LATTYP: Found a hexagonal cell.
 ALAT       =    10.5600004196
 C/A-ratio  =     2.0833332505

  Lattice vectors:

 A1 = (   5.2800002098,  -9.1452286274,   0.0000000000)
 A2 = ( -10.5600004196,   0.0000000000,   0.0000000000)
 A3 = (   0.0000000000,   0.0000000000, -22.0000000000)

Analysis of symmetry for initial positions (statically):
 Subroutine PRICEL returns:
 Original cell was already a primitive cell.

[...]

The static configuration has the point symmetry C_1 .

Analysis of symmetry for dynamics (positions and initial velocities):
 Subroutine PRICEL returns:
 Original cell was already a primitive cell.

[...]

The dynamic configuration has the point symmetry C_1 .

Analysis of constrained symmetry for selective dynamics:
 Subroutine PRICEL returns:
 Original cell was already a primitive cell.

[...]

The constrained configuration has the point symmetry C_1 .

Analysis of structural, dynamic, and magnetic symmetry:
 Subroutine PRICEL returns:
 Original cell was already a primitive cell.

 Routine SETGRP: Setting up the symmetry group for a
 hexagonal supercell.

 Subroutine GETGRP returns: Found  1 space group operations
 (whereof  1 operations were pure point group operations)
 out of a pool of 24 trial point group operations.

The magnetic configuration has the point symmetry C_1 .

 Subroutine INISYM returns: Found  1 space group operations
 (whereof  1 operations are pure point group operations),
 and found     1 'primitive' translations

 KPOINTS: mesh auto

Automatic generation of k-mesh.
Space group operators:
 irot       det(A)        alpha          n_x          n_y          n_z        tau_x        tau_y        tau_z
    1     1.000000     0.000001     1.000000     0.000000     0.000000     0.000000     0.000000     0.000000

 Subroutine IBZKPT returns following result:

 Found      4 irreducible k-points:

 Following reciprocal coordinates:
            Coordinates               Weight
  0.000000  0.000000  0.000000      1.000000
  0.500000  0.000000  0.000000      1.000000
  0.000000  0.500000  0.000000      1.000000
  0.500000  0.500000  0.000000      1.000000

 Following cartesian coordinates:
            Coordinates               Weight
  0.000000  0.000000  0.000000      1.000000
  0.047348 -0.027337  0.000000      1.000000
  0.000000  0.054673  0.000000      1.000000
  0.047348  0.027337  0.000000      1.000000

 TETIRR: Found     12 inequivalent tetrahedra from       24
 BZINTS: Fermi energy:  2.078007;779.000000 electrons
         Band energy:-668.745653;  BLOECHL correction: -0.228984