 vasp.5.4.4.18Apr17-6-g9f103f2a35 (build Oct 25 2019 11:13:22) complex

 executed on             LinuxIFC date 2021.10.11  16:35:15

 INCAR:
 POTCAR:    PAW_PBE Pt 04Feb2005
 POTCAR:    PAW_PBE Fe 06Sep2000
 POTCAR:    PAW_PBE Co 02Aug2007
 POTCAR:    PAW_PBE Cu 22Jun2005
 POTCAR:    PAW_PBE Ni 02Aug2007
 POTCAR:    PAW_PBE H 15Jun2001
 POTCAR:    PAW_PBE Pt 04Feb2005
   VRHFIN =Pt: s1d9

   TITEL  = PAW_PBE Pt 04Feb2005
   POMASS =  195.080; ZVAL   =   10.000    mass and valenz
   ENMAX  =  230.283; ENMIN  =  172.712 eV

 POTCAR:    PAW_PBE Fe 06Sep2000
   VRHFIN =Fe:  d7 s1

   TITEL  = PAW_PBE Fe 06Sep2000
   POMASS =   55.847; ZVAL   =    8.000    mass and valenz
   ENMAX  =  267.882; ENMIN  =  200.911 eV

 POTCAR:    PAW_PBE Co 02Aug2007
   VRHFIN =Co: d8 s1

   TITEL  = PAW_PBE Co 02Aug2007
   POMASS =   58.933; ZVAL   =    9.000    mass and valenz
   ENMAX  =  267.968; ENMIN  =  200.976 eV

 POTCAR:    PAW_PBE Cu 22Jun2005
   VRHFIN =Cu: d10 p1

   TITEL  = PAW_PBE Cu 22Jun2005
   POMASS =   63.546; ZVAL   =   11.000    mass and valenz
   ENMAX  =  295.446; ENMIN  =  221.585 eV

 POTCAR:    PAW_PBE Ni 02Aug2007
   VRHFIN =Ni:

   TITEL  = PAW_PBE Ni 02Aug2007
   POMASS =   58.690; ZVAL   =   10.000    mass and valenz
   ENMAX  =  269.532; ENMIN  =  202.149 eV

 POTCAR:    PAW_PBE H 15Jun2001
   VRHFIN =H: ultrasoft test

   TITEL  = PAW_PBE H 15Jun2001
   POMASS =    1.000; ZVAL   =    1.000    mass and valenz
   ENMAX  =  250.000; ENMIN  =  200.000 eV

 Optimization of the real space projectors (new method)

 maximal supplied QI-value         = 14.36
 optimisation between [QCUT,QGAM] = [ 11.92, 23.98] = [ 39.79,161.09] Ry
 Optimized for a Real-space Cutoff    1.49 Angstroem

   l    n(q)    QCUT    max X(q) W(low)/X(q) W(high)/X(q)  e(spline)
   2     10    11.920    66.195    0.79E-04    0.18E-03    0.24E-06
   2     10    11.920    64.643    0.81E-04    0.19E-03    0.24E-06
   0     11    11.920    95.520    0.28E-04    0.54E-04    0.18E-06
   0     11    11.920    63.403    0.27E-04    0.52E-04    0.17E-06
   1     10    11.920    19.961    0.18E-04    0.11E-03    0.23E-06
   1     10    11.920    13.289    0.25E-04    0.87E-04    0.19E-06
 Optimization of the real space projectors (new method)

[...]

   l    n(q)    QCUT    max X(q) W(low)/X(q) W(high)/X(q)  e(spline)
   2      9    11.864    60.317    0.21E-03    0.51E-03    0.25E-06
   2      9    11.864    55.921    0.21E-03    0.51E-03    0.26E-06
   0      9    11.864    51.690    0.22E-03    0.30E-04    0.17E-06
   0      9    11.864    30.015    0.20E-03    0.28E-04    0.15E-06
   1      9    11.864    18.849    0.76E-04    0.33E-03    0.17E-06
   1      9    11.864    14.624    0.60E-04    0.28E-03    0.15E-06
 Optimization of the real space projectors (new method)

 maximal supplied QI-value         = 34.20
 optimisation between [QCUT,QGAM] = [ 11.97, 23.94] = [ 40.13,160.53] Ry
 Optimized for a Real-space Cutoff    1.18 Angstroem

   l    n(q)    QCUT    max X(q) W(low)/X(q) W(high)/X(q)  e(spline)
   0      8    11.971    19.460    0.15E-03    0.31E-03    0.25E-06
   0      8    11.971    12.209    0.13E-03    0.29E-03    0.25E-06
   1      8    11.971     4.655    0.22E-03    0.24E-03    0.21E-06
  PAW_PBE Pt 04Feb2005                  :
  PAW_PBE Fe 06Sep2000                  :
  PAW_PBE Co 02Aug2007                  :
  PAW_PBE Cu 22Jun2005                  :
  PAW_PBE Ni 02Aug2007                  :
  PAW_PBE H 15Jun2001                   :

 POSCAR: 10.46
  positions in direct lattice
  velocities in cartesian coordinates
 exchange correlation table for  LEXCH =        8
   RHO(1)=    0.500       N(1)  =     2000
   RHO(2)=  100.500       N(2)  =     4000

 ion  position               nearest neighbor table
   1  0.789  0.879  0.319-  19 2.61  33 2.62  28 2.63  60 2.64  61 2.64  49 2.65  29 2.66  59 2.66
                             2 2.67  11 2.78  12 2.84   4 2.93
   2  0.042  0.883  0.318-  79 2.57  60 2.59  30 2.62  77 2.62  52 2.64  33 2.65  22 2.66  28 2.67
                             1 2.67   6 2.80   4 2.97  16 2.99
   3  0.279  0.381  0.321-  39 2.54  33 2.56  64 2.58  31 2.63  43 2.68  19 2.68  30 2.69  68 2.73
                            18 2.79  13 2.80   5 2.80  25 2.87
   4  0.872  0.963  0.433-  17 2.59  11 2.60   9 2.64  12 2.64   6 2.66  16 2.67   1 2.93  60 2.95
                             2 2.97
   5  0.123  0.461  0.431-  16 2.60  12 2.60   7 2.61  10 2.61  13 2.64  25 2.64  33 2.74  39 2.75
                             3 2.80
   6  0.125  0.963  0.426-   8 2.60  10 2.60   9 2.63  14 2.63   4 2.66  16 2.66   2 2.80  52 2.86
                            22 2.92
   7  0.874  0.460  0.430-  81 1.82  15 2.60   9 2.60   5 2.61  12 2.61  10 2.61  27 2.63  39 2.72
                            75 2.82  29 2.84
   8  0.374  0.960  0.421-  14 2.59   6 2.60  27 2.60  43 2.61  13 2.61  11 2.62  10 2.62  52 2.70
                            61 2.73
   9  0.873  0.213  0.421-  15 2.59   7 2.60  17 2.61  10 2.63   6 2.63   4 2.64  75 2.67  60 2.71
                            22 2.81
  10  0.125  0.211  0.424-   6 2.60  13 2.60   5 2.61   7 2.61   8 2.62   9 2.63  39 2.67  43 2.73
                            22 2.80
  11  0.624  0.961  0.426-   4 2.60  13 2.61  27 2.62  17 2.62  12 2.62   8 2.62   1 2.78  19 2.84
                            61 2.86
  12  0.874  0.710  0.428-  81 1.87   5 2.60   7 2.61  27 2.61  11 2.62  16 2.64   4 2.64  33 2.67
                            29 2.82   1 2.84
  13  0.375  0.209  0.426-  10 2.60  11 2.61   8 2.61  17 2.63   5 2.64  25 2.64  43 2.78   3 2.80
                            19 2.84
  14  0.377  0.711  0.424-  27 2.57   8 2.59  15 2.61  25 2.63   6 2.63  16 2.64  44 2.69  30 2.75
                            52 2.78
  15  0.626  0.461  0.424-   9 2.59   7 2.60  27 2.60  14 2.61  25 2.62  17 2.63  44 2.71  75 2.73
                            18 2.76
  16  0.127  0.708  0.433-  25 2.59   5 2.60  12 2.64  14 2.64   6 2.66   4 2.67  33 2.75  30 2.91
                             2 2.99
  17  0.625  0.211  0.423-   4 2.59   9 2.61  11 2.62  25 2.62  15 2.63  13 2.63  18 2.77  60 2.77
                            19 2.86
  18  0.548  0.376  0.317-  67 2.57  60 2.57  75 2.58  44 2.63  68 2.66  26 2.66  30 2.68  19 2.70
                            15 2.76  17 2.77   3 2.79  25 2.91
  19  0.535  0.124  0.316-  43 2.55  80 2.55  68 2.58  59 2.60  61 2.61   1 2.61   3 2.68  18 2.70
                            60 2.72  11 2.84  13 2.84  17 2.86
  20  0.546  0.123  0.038-  37 2.55  57 2.56  48 2.58  62 2.61  45 2.65  63 2.65  47 2.66  56 2.67
                            34 2.68
  21  0.121  0.460  0.127-  40 2.52  47 2.53  36 2.53  69 2.59  42 2.60  70 2.61  50 2.62  64 2.62
                            58 2.64  57 2.68  74 2.69  31 2.70
  22  0.043  0.136  0.315-  65 2.52  55 2.53  43 2.55  39 2.56  77 2.57  75 2.58  60 2.65   2 2.66
                            52 2.70  10 2.80   9 2.81   6 2.92  31 3.39
  23  0.043  0.130  0.032-  70 2.58  40 2.59  45 2.59  41 2.62  62 2.62  76 2.62  24 2.68  35 2.69
                            53 2.75
  24  0.130  0.958  0.131-  79 2.51  77 2.53  53 2.57  35 2.58  55 2.58  70 2.59  58 2.62  38 2.62
                            73 2.63  66 2.68  23 2.68  41 2.70
  25  0.375  0.461  0.429-  16 2.59  17 2.62  15 2.62  14 2.63   5 2.64  13 2.64  30 2.86   3 2.87
                            18 2.91
  26  0.454  0.545  0.219-  73 2.49  74 2.54  51 2.56  79 2.59  64 2.60  68 2.65  78 2.65  18 2.66
                            30 2.66  32 2.67  67 2.70  44 2.76
  27  0.623  0.711  0.426-  81 1.93  14 2.57   8 2.60  15 2.60  12 2.61  11 2.62   7 2.63  44 2.71
                            29 2.80  61 2.80
  28  0.956  0.790  0.221-  58 2.57  42 2.57  66 2.58  50 2.59  49 2.59  64 2.61   1 2.63   2 2.67
                            59 2.67  79 2.72  77 2.73  33 2.75
  29  0.794  0.622  0.319-  39 2.51  75 2.55  42 2.56  44 2.61  32 2.62  33 2.64  61 2.65   1 2.66
                            49 2.70  27 2.80  12 2.82   7 2.84
  30  0.291  0.631  0.319-  79 2.58  52 2.59  44 2.61  64 2.61   2 2.62  33 2.62  26 2.66  18 2.68
                             3 2.69  14 2.75  25 2.86  16 2.91
  31  0.203  0.282  0.225-  70 2.53  55 2.55  65 2.56  43 2.60  57 2.61   3 2.63  80 2.67  42 2.68
                            39 2.68  21 2.70  68 2.71  64 2.75  22 3.39
  32  0.707  0.549  0.221-  54 2.53  69 2.56  49 2.57  42 2.58  51 2.58  65 2.60  78 2.60  29 2.62
                            26 2.67  67 2.68  75 2.69  44 2.70
  33  0.041  0.631  0.328-   3 2.56  39 2.62   1 2.62  30 2.62  29 2.64   2 2.65  12 2.67  64 2.73
                             5 2.74  16 2.75  28 2.75  42 2.77
  34  0.798  0.862  0.040-  50 2.39  66 2.50  71 2.53  36 2.54  48 2.54  63 2.59  20 2.68  35 2.72
                            62 2.73
  35  0.056  0.867  0.036-  72 2.53  58 2.54  36 2.55  24 2.58  53 2.62  66 2.62  23 2.69  62 2.70
                            34 2.72
  36  0.047  0.627  0.035-  21 2.53  34 2.54  35 2.55  58 2.59  47 2.59  72 2.62  50 2.62  40 2.64
                            71 2.69
  37  0.627  0.221  0.128-  74 2.49  51 2.51  67 2.52  41 2.54  56 2.54  20 2.55  59 2.56  68 2.56
                            62 2.60  66 2.63  57 2.68  48 2.82
  38  0.382  0.955  0.129-  80 2.48  53 2.48  45 2.51  48 2.52  78 2.53  73 2.54  54 2.54  63 2.55
                            55 2.59  57 2.60  24 2.62  70 2.65
  39  0.035  0.383  0.326-  29 2.51   3 2.54  22 2.56  75 2.56  33 2.62  10 2.67  42 2.68  31 2.68
                             7 2.72   5 2.75  43 2.76  65 2.78
  40  0.032  0.382  0.036-  69 2.46  71 2.51  21 2.52  76 2.55  70 2.58  23 2.59  36 2.64  47 2.73
                            45 2.75
  41  0.872  0.216  0.128-  76 2.46  65 2.51  37 2.54  69 2.54  67 2.54  77 2.54  51 2.57  62 2.58
                            23 2.62  70 2.63  66 2.64  24 2.70
  42  0.955  0.545  0.224-  29 2.56  50 2.56  28 2.57  32 2.58  21 2.60  49 2.61  64 2.62  69 2.62
                            65 2.63  31 2.68  39 2.68  33 2.77
  43  0.296  0.116  0.322-  52 2.51  55 2.54  61 2.54  22 2.55  19 2.55  31 2.60   8 2.61  80 2.67
                             3 2.68  10 2.73  39 2.76  13 2.78
  44  0.541  0.631  0.322-  61 2.53  52 2.55  29 2.61  30 2.61  18 2.63  78 2.63  75 2.64  14 2.69
                            32 2.70  15 2.71  27 2.71  26 2.76
  45  0.295  0.120  0.038-  70 2.50  38 2.51  57 2.57  53 2.59  23 2.59  63 2.62  20 2.65  47 2.72
                            40 2.75
  46  0.548  0.625  0.042-  51 2.38  73 2.40  54 2.42  53 2.54  71 2.55  63 2.56  76 2.57  56 2.59
                            72 2.61
  47  0.295  0.380  0.037-  74 2.43  21 2.53  72 2.58  36 2.59  56 2.61  57 2.61  20 2.66  45 2.72
                            40 2.73
  48  0.625  0.951  0.131-  49 2.40  54 2.48  80 2.48  38 2.52  34 2.54  59 2.54  50 2.54  63 2.58
                            20 2.58  57 2.62  66 2.64  37 2.82
  49  0.706  0.795  0.220-  48 2.40  50 2.48  54 2.49  80 2.51  32 2.57  78 2.59  28 2.59  42 2.61
                            61 2.63   1 2.65  59 2.66  29 2.70
  50  0.866  0.707  0.128-  34 2.39  71 2.43  54 2.46  49 2.48  48 2.54  42 2.56  69 2.57  28 2.59
[...]
   0.368E+02 -.137E+02 -.157E+04   -.384E+02 0.139E+02 0.157E+04   0.172E+01 -.229E+00 0.211E+01   -.215E-01 0.208E-01 0.415E-03
   -.101E+02 0.158E+02 -.297E+04   0.102E+02 -.157E+02 0.297E+04   -.641E-01 0.864E-02 0.581E+00   0.586E-02 0.339E-02 0.285E-01
   -.808E+01 0.457E+01 -.294E+04   0.791E+01 -.438E+01 0.294E+04   0.166E+00 -.152E+00 0.136E+01   -.899E-02 -.628E-02 -.121E-01
   -.441E+01 0.419E+01 -.293E+04   0.427E+01 -.441E+01 0.293E+04   0.162E+00 0.192E+00 0.676E+00   0.132E-01 -.111E-01 0.913E-02
   -.153E+02 0.155E+02 -.298E+04   0.154E+02 -.164E+02 0.298E+04   -.101E+00 0.898E+00 0.654E+00   0.288E-01 -.413E-01 -.211E-01
   0.177E+02 -.189E+02 -.295E+04   -.180E+02 0.191E+02 0.295E+04   0.259E+00 -.142E+00 0.165E+01   -.189E-01 -.699E-02 -.734E-02
   -.195E+02 0.155E+02 -.296E+04   0.194E+02 -.152E+02 0.296E+04   0.594E-01 -.267E+00 0.859E+00   -.266E-02 -.229E-01 0.506E-02
   -.988E+01 0.474E+01 -.293E+04   0.102E+02 -.441E+01 0.293E+04   -.342E+00 -.281E+00 0.137E+01   0.672E-03 -.649E-02 -.186E-01
   -.275E+01 -.548E+01 -.295E+04   0.308E+01 0.566E+01 0.295E+04   -.355E+00 -.223E+00 0.511E+00   -.983E-02 -.662E-03 0.149E-01
   -.235E+02 -.248E+01 -.295E+04   0.244E+02 0.276E+01 0.295E+04   -.901E+00 -.274E+00 0.284E+00   0.214E-01 0.125E-01 -.309E-01
   0.367E+01 -.165E+02 -.296E+04   -.394E+01 0.163E+02 0.296E+04   0.307E+00 0.215E+00 0.609E+00   0.581E-02 0.755E-02 -.186E-01
   0.240E+02 0.468E+01 -.295E+04   -.237E+02 -.464E+01 0.295E+04   -.381E+00 -.420E-01 0.115E+01   -.166E-01 0.191E-01 -.241E-01
   0.209E+02 -.138E+02 -.293E+04   -.208E+02 0.139E+02 0.293E+04   -.390E-01 0.317E-02 0.107E+01   -.357E-01 -.443E-02 0.105E-03
   -.867E+01 -.106E+01 -.294E+04   0.835E+01 0.659E+00 0.294E+04   0.310E+00 0.391E+00 0.842E+00   0.145E-01 0.273E-02 -.191E-02
   0.243E+02 -.963E+01 -.296E+04   -.243E+02 0.978E+01 0.296E+04   -.759E-01 -.170E+00 0.671E+00   -.122E-01 0.123E-01 0.130E-01
   0.708E+02 -.767E+02 -.155E+04   -.695E+02 0.769E+02 0.155E+04   -.120E+01 -.194E+00 0.180E+01   -.193E-01 0.119E-01 -.454E-03
   0.337E+02 -.414E+02 -.155E+04   -.348E+02 0.410E+02 0.154E+04   0.106E+01 0.442E+00 0.251E+01   -.169E-02 0.814E-02 0.543E-02
   0.346E+02 0.332E+02 0.308E+04   -.348E+02 -.333E+02 -.308E+04   0.150E+00 0.196E+00 -.229E+01   0.100E-01 0.689E-02 -.109E-01
   0.394E+02 -.893E+01 0.162E+04   -.402E+02 0.963E+01 -.162E+04   0.880E+00 -.633E+00 0.948E+00   -.149E-02 0.312E-02 -.387E-02
   -.740E+02 0.670E+01 -.150E+04   0.749E+02 -.598E+01 0.150E+04   -.906E+00 -.725E+00 0.272E+01   0.200E-01 -.917E-02 0.140E-01
   -.556E+02 0.487E+02 0.312E+04   0.562E+02 -.479E+02 -.312E+04   -.690E+00 -.774E+00 -.188E+01   -.885E-02 0.703E-02 -.561E-02
   -.436E+01 -.525E+02 0.161E+04   0.463E+01 0.521E+02 -.161E+04   -.346E+00 0.374E+00 -.746E+00   -.931E-03 -.683E-02 -.164E-01
   0.524E+01 0.161E+01 -.297E+04   -.544E+01 -.154E+01 0.297E+04   0.210E+00 -.981E-01 0.464E+00   0.306E-02 -.113E-01 0.105E-02
   -.260E+02 -.108E+02 0.728E+01   0.259E+02 0.111E+02 -.858E+01   0.806E-01 -.337E+00 0.128E+01   0.379E-02 0.410E-02 -.246E-01
   0.566E+01 0.159E+01 -.296E+04   -.695E+01 -.115E+01 0.296E+04   0.133E+01 -.409E+00 0.876E+00   -.183E-01 0.369E-01 -.162E-01
   0.257E+02 0.718E+02 -.806E+01   -.267E+02 -.730E+02 0.761E+01   0.993E+00 0.106E+01 0.369E+00   0.785E-02 -.163E-01 0.270E-02
   -.688E+02 0.892E+01 -.153E+04   0.691E+02 -.102E+02 0.153E+04   -.272E+00 0.135E+01 0.305E+01   0.312E-01 0.113E-02 -.476E-02
   0.282E+02 0.275E+02 -.157E+04   -.279E+02 -.268E+02 0.156E+04   -.329E+00 -.683E+00 0.231E+01   -.632E-03 0.168E-01 0.559E-02
   0.288E+02 -.637E+02 -.824E+02   -.297E+02 0.631E+02 0.826E+02   0.935E+00 0.477E+00 -.228E+00   -.835E-02 0.258E-01 0.540E-02
   -.275E+02 -.247E+02 -.126E+01   0.283E+02 0.253E+02 0.517E+00   -.780E+00 -.703E+00 0.877E+00   -.418E-02 0.164E-02 -.388E-01
   0.260E+02 0.131E+02 -.128E+04   -.262E+02 -.135E+02 0.127E+04   0.232E+00 0.485E+00 0.556E+00   -.184E-02 -.102E-01 -.385E-02
   -.571E+02 -.161E+01 0.247E+04   0.575E+02 0.367E+00 -.247E+04   -.447E+00 0.128E+01 -.257E+01   -.109E-02 -.156E-02 -.120E-01
   0.290E+02 -.126E+02 0.250E+04   -.289E+02 0.113E+02 -.250E+04   -.373E-01 0.141E+01 -.215E+01   0.328E-02 -.326E-02 -.465E-02
   0.226E+02 -.759E+01 0.251E+04   -.228E+02 0.809E+01 -.251E+04   0.172E+00 -.534E+00 -.274E+01   0.219E-02 -.183E-02 -.489E-02
   0.170E+01 0.472E+02 0.131E+04   -.882E+00 -.467E+02 -.131E+04   -.862E+00 -.633E+00 -.156E+00   0.965E-02 0.198E-01 -.153E-01
   0.354E+02 -.515E+02 0.129E+04   -.353E+02 0.512E+02 -.129E+04   -.126E+00 0.226E+00 -.430E+00   -.527E-02 -.168E-01 -.158E-01
   -.473E+02 -.303E+02 -.127E+04   0.474E+02 0.305E+02 0.126E+04   -.137E+00 -.306E+00 0.869E+00   0.200E-01 0.881E-02 -.328E-02
   -.857E+02 0.230E+02 0.251E+04   0.856E+02 -.227E+02 -.251E+04   0.952E-01 -.274E+00 -.250E+01   -.101E-01 0.545E-02 -.224E-02
   -.327E+02 0.456E+02 0.132E+04   0.319E+02 -.451E+02 -.131E+04   0.788E+00 -.547E+00 -.427E+00   -.722E-02 0.168E-01 -.167E-01
   -.363E+02 0.101E+01 -.514E+02   0.361E+02 -.649E+00 0.513E+02   0.123E+00 -.374E+00 -.696E-02   0.773E-02 -.989E-02 0.511E-02
   0.132E+02 -.821E+02 -.126E+04   -.133E+02 0.819E+02 0.126E+04   0.176E+00 0.230E+00 0.125E+01   -.143E-01 0.199E-02 0.953E-02
   0.703E+01 0.297E+02 -.125E+04   -.702E+01 -.297E+02 0.125E+04   0.115E-01 -.663E-01 0.555E+00   -.179E-01 0.226E-01 -.497E-02
   0.178E+02 -.424E+02 0.248E+04   -.184E+02 0.417E+02 -.248E+04   0.646E+00 0.602E+00 -.260E+01   -.149E-02 -.180E-02 -.718E-02
   0.156E+01 -.216E+02 0.279E+04   -.167E+01 0.218E+02 -.279E+04   0.141E+00 -.231E+00 -.219E+01   -.982E-03 -.124E-01 0.580E-02
   0.115E+03 0.301E+02 0.283E+04   -.116E+03 -.294E+02 -.282E+04   0.519E+00 -.682E+00 -.220E+01   0.105E-01 0.940E-02 -.270E-02
   -.310E+02 -.207E+02 0.144E+04   0.306E+02 0.197E+02 -.144E+04   0.397E+00 0.102E+01 -.468E+00   -.596E-03 -.412E-02 -.227E-01
   -.590E+02 0.747E+02 0.191E+02   0.591E+02 -.744E+02 -.200E+02   -.746E-02 -.289E+00 0.955E+00   -.120E-02 -.193E-01 -.745E-02
   -.817E+02 0.232E+02 0.142E+04   0.812E+02 -.228E+02 -.142E+04   0.503E+00 -.493E+00 -.744E-01   -.374E-02 -.147E-01 -.124E-01
   -.209E+02 0.131E+02 0.141E+04   0.210E+02 -.133E+02 -.141E+04   -.147E+00 0.253E+00 -.474E-01   0.108E-02 0.130E-01 -.283E-01
   0.449E+02 0.939E+01 -.141E+04   -.446E+02 -.960E+01 0.141E+04   -.351E+00 0.257E+00 0.163E+01   -.733E-02 -.906E-02 0.109E-01
   0.502E+02 -.832E+02 0.279E+04   -.500E+02 0.830E+02 -.279E+04   -.310E+00 0.227E+00 -.222E+01   0.660E-02 -.240E-01 -.488E-02
   -.145E+02 -.784E+00 0.139E+04   0.146E+02 0.101E+01 -.139E+04   -.108E+00 -.215E+00 -.413E+00   -.225E-01 -.274E-01 -.275E-01
   0.138E+02 -.672E+02 -.162E+02   -.130E+02 0.667E+02 0.164E+02   -.789E+00 0.607E+00 -.335E+00   -.439E-02 -.112E-01 0.746E-02
   0.309E+02 0.332E+02 0.348E+04   -.310E+02 -.324E+02 -.348E+04   0.735E-01 -.850E+00 -.337E+01   0.192E-01 0.239E-01 0.839E-02
   0.667E+02 0.847E+01 0.177E+04   -.668E+02 -.919E+01 -.177E+04   0.867E-01 0.735E+00 -.188E+00   0.469E-02 0.180E-01 -.150E-01
   0.969E+02 -.284E+02 0.174E+04   -.967E+02 0.283E+02 -.174E+04   -.184E+00 0.375E-01 0.145E+00   0.109E-01 -.993E-02 -.130E-01
   0.145E+02 0.778E+02 0.733E+02   -.151E+02 -.777E+02 -.743E+02   0.599E+00 -.270E+00 0.904E+00   0.126E-01 0.826E-02 -.929E-02
   0.134E+02 0.548E+02 -.173E+04   -.129E+02 -.544E+02 0.173E+04   -.475E+00 -.462E+00 0.162E+01   -.596E-03 -.153E-01 0.404E-03
[...]
   0.565E+02 -.425E+02 0.311E+01   -.559E+02 0.421E+02 -.353E+01   -.565E+00 0.412E+00 0.464E+00   0.295E-02 0.174E-01 -.155E-01
   -.759E+02 0.121E+01 0.157E+04   0.756E+02 -.109E+01 -.157E+04   0.387E+00 -.612E-01 -.371E-01   -.201E-01 0.510E-02 -.145E-01
   -.115E+02 0.204E+02 0.164E+04   0.118E+02 -.206E+02 -.164E+04   -.331E+00 0.196E+00 -.429E+00   -.823E-02 0.119E-01 -.121E-01
   -.988E+02 -.344E+01 0.312E+04   0.993E+02 0.352E+01 -.312E+04   -.537E+00 -.486E-01 -.112E+01   -.268E-01 -.712E-02 -.209E-02
   0.712E+02 -.554E+02 0.312E+04   -.715E+02 0.560E+02 -.312E+04   0.308E+00 -.551E+00 -.682E+00   0.237E-01 -.751E-02 -.101E-02
   0.130E+02 -.452E+02 0.156E+04   -.127E+02 0.450E+02 -.156E+04   -.377E+00 0.243E+00 0.411E-01   0.165E-01 -.245E-01 -.277E-01
   0.507E+02 0.189E+01 0.161E+04   -.503E+02 -.184E+01 -.161E+04   -.480E+00 -.120E-01 -.503E-01   0.200E-01 0.878E-02 -.177E-01
   -.479E+02 -.816E+02 -.157E+04   0.480E+02 0.818E+02 0.157E+04   -.302E-01 -.224E+00 0.817E+00   0.203E-01 0.102E-02 -.735E-02
   -.584E+02 0.293E+02 0.311E+04   0.588E+02 -.288E+02 -.310E+04   -.359E+00 -.529E+00 -.183E+01   -.174E-01 0.203E-01 0.641E-02
   -.470E+02 0.706E+02 0.744E+02   0.473E+02 -.704E+02 -.746E+02   -.311E+00 -.332E+00 0.162E+00   -.129E-02 -.414E-02 -.103E-01
   -.241E+01 0.632E+02 -.810E+00   0.237E+01 -.624E+02 0.764E+00   0.832E-01 -.859E+00 -.844E-01   -.151E-01 -.161E-01 -.315E-02
   0.417E+02 0.108E+02 -.333E+02   -.413E+02 -.102E+02 0.331E+02   -.372E+00 -.614E+00 0.131E+00   0.766E-02 -.967E-02 0.603E-02
   0.297E+02 -.426E+02 0.292E+02   -.300E+02 0.421E+02 -.295E+02   0.318E+00 0.487E+00 0.196E+00   -.682E-02 0.188E-02 -.337E-02
   0.276E+01 -.191E+01 -.352E+03   -.295E+01 0.207E+01 0.354E+03   0.214E+00 -.157E+00 -.173E+01   0.336E-03 0.995E-03 0.322E-02
   -.259E+01 -.450E+00 -.738E+01   -.507E-12 -.517E-12 0.568E-12   0.265E+01 0.468E+00 0.783E+01   -.172E-01 -.258E-02 -.493E+00

 POSITION                                       TOTAL-FORCE (eV/Angst)
     12.83202      7.93495      7.01676         0.001034      0.006063      0.001762
      5.05720      7.99546      6.96340         0.003892      0.006668      0.022417
      4.91827      3.43836      7.04999        -0.002075     -0.002454      0.009746
     14.17855      8.71368      9.39189         0.013139      0.013616      0.015652
      3.71193      4.17645      9.43989        -0.008066      0.005341      0.003793
      6.33194      8.70826      9.28981         0.013926     -0.002550      0.012582
     11.54438      4.13927      9.53735         0.010226     -0.036871      0.025536
      8.94256      8.69882      9.27858        -0.004188     -0.013386     -0.007719
     10.24764      1.90910      9.28397         0.004259      0.008826     -0.000884
      2.41665      1.90686      9.32675        -0.016850      0.014124      0.001948
     11.55856      8.72011      9.34937        -0.000495     -0.003821     -0.009953
     12.88033      6.46307      9.52200         0.017298      0.023788      0.009505
      5.01299      1.89786      9.40225         0.037216      0.021011      0.008814
      7.65174      6.44835      9.35173        -0.001141      0.018593     -0.001807
      8.94612      4.17091      9.29022        -0.012155     -0.016152      0.007603
      5.02189      6.43951      9.41648         0.008130      0.004362      0.025188
      7.63595      1.90970      9.32032         0.008101      0.022170     -0.013140
      7.69469      3.39451      6.98101         0.003845     -0.003105      0.017097
      6.24910      1.11603      6.94471        -0.000459      0.003847      0.008512
      6.36060      1.11842      0.83643        -0.008414     -0.004399     -0.009732
      3.67604      4.17054      2.79730        -0.000546      0.014563     -0.006693
      1.16265      1.24570      6.91277        -0.008887     -0.017112      0.009474
      1.12703      1.17594      0.69812        -0.022532      0.008100      0.005836
      6.37362      8.68069      2.88743        -0.019066     -0.006592     -0.011850
      6.33177      4.18192      9.45927         0.015359     -0.036198     -0.025155
      7.60189      4.94104      4.81158         0.033461     -0.010183     -0.044414
     10.22056      6.45678      9.43001        -0.022700      0.043636      0.004563
     14.13769      7.16055      4.86796        -0.037241     -0.020380     -0.018590
     11.55183      5.62371      7.05085        -0.000889     -0.006713      0.007019
      6.35413      5.71203      7.01957        -0.007371      0.006217      0.009179
      3.59772      2.55377      4.95823        -0.040670     -0.007701     -0.024136
     10.26754      4.96975      4.85148         0.040589     -0.021281      0.086237
      3.71948      5.70303      7.19450         0.004591     -0.003338     -0.015892
     12.85228      7.80762      0.88868        -0.004158      0.004085     -0.006300
      5.11408      7.84972      0.79309         0.010909      0.013025      0.010217
      3.77023      5.68258      0.76914         0.009106     -0.005193     -0.015774
      7.70970      1.99756      2.81572        -0.013472     -0.010157     -0.027240
      8.99527      8.65169      2.84555         0.005306      0.005709     -0.015859
      2.37968      3.47225      7.17458        -0.003365     -0.006770     -0.008541
      2.33777      3.46419      0.78556         0.002750      0.001864     -0.009266
     10.24620      1.95217      2.80512        -0.030076     -0.016854     -0.015539
     12.84195      4.93745      4.92144        -0.043273      0.000164      0.063156
      3.70408      1.04918      7.07938        -0.000056      0.000648      0.012493
      8.94788      5.70957      7.09045         0.001650     -0.002061     -0.002934
      3.71395      1.08784      0.82514        -0.000699     -0.001383      0.007605
      8.99829      5.66522      0.92800         0.004789      0.004475     -0.006162
      5.06743      3.44147      0.81265         0.002338      0.027021      0.003485
     11.51727      8.61665      2.89228        -0.001275     -0.019810      0.018787
     11.54465      7.19978      4.83241        -0.006256      0.020379      0.016859
     12.75801      6.40091      2.81726         0.022276     -0.000245      0.001950
      8.95770      4.17295      2.77896         0.003276      0.011325     -0.003546
      7.70003      7.93532      6.98973        -0.005324     -0.007498     -0.001652
      7.73138      7.86096      0.86088        -0.011021      0.009361      0.004879
     10.29450      6.46618      2.80924        -0.003549      0.000499     -0.023000
      2.48849      0.26233      4.99690         0.003079      0.019742     -0.027061
      7.67241      3.44637      0.72761        -0.003425     -0.011935      0.016361
      5.03303      1.85843      2.89234        -0.020229      0.002818      0.004696
      5.10108      6.38920      2.87489        -0.009320      0.004141      0.004921
      7.63667      0.45282      4.84968         0.000089     -0.033154      0.012171
      8.96832      1.16857      6.98725         0.001682     -0.005372      0.000303
[...]
      8.97964      2.61894      4.90350         0.003636     -0.012147     -0.015451
      6.30589      2.63413      4.85503        -0.004149     -0.019110     -0.033016
     11.54224      4.13511      2.79014         0.009286      0.010054     -0.009439
      2.41993      1.87995      2.81735         0.023116      0.021116      0.023058
     11.54338      5.63874      0.85840         0.012352      0.024255     -0.021756
      6.38743      5.66222      0.89172        -0.010238      0.009246     -0.015768
      7.74928      6.43552      2.82185        -0.011113      0.011615     -0.003358
      6.36172      4.09062      2.75984        -0.014914      0.001509     -0.001815
     10.27612      3.42409      7.06049         0.003553      0.002848     -0.007266
     10.24544      3.41772      0.83401         0.003424     -0.004432     -0.016493
     10.26946      0.46989      4.86907        -0.010547     -0.008648     -0.014659
      8.95807      7.22027      4.93062         0.001631     -0.009539     -0.016689
      6.39295      7.22925      4.93874         0.032900     -0.009020     -0.013998
      4.99996      0.28300      4.87997         0.002900     -0.013572      0.012571
     11.58188      5.66165     10.52187         0.024644      0.000709      0.040869
    total drift:                                0.036842      0.015440     -0.051255

  FREE ENERGIE OF THE ION-ELECTRON SYSTEM (eV)
  free  energy   TOTEN  =      -511.33589138 eV

  energy  without entropy=     -511.35201513  energy(sigma->0) =     -511.34126596

 d Force = 0.1404178E-02[-0.331E-03, 0.314E-02]  d Energy = 0.1245905E-02 0.158E-03
 d Force =-0.7330095E+01[-0.736E+01,-0.730E+01]  d Ewald  =-0.7330060E+01-0.348E-04

 Conjugate gradient step on ions:
 trial-energy change:   -0.001246  1 .order   -0.001404   -0.003140    0.000331
  (g-gl).g = 0.184E-02      g.g   = 0.206E-02  gl.gl    = 0.452E-02
 g(Force)  = 0.206E-02   g(Stress)= 0.000E+00 ortho     = 0.246E-03
 gamma     =   0.40596
 trial     =   1.45553
 opt step  =   1.27284  (harmonic =   1.31654) maximal distance =0.00823640
 next E    =  -511.335912   (d E  =  -0.00127)

 reached required accuracy - stopping structural energy minimisation