 vasp.5.4.4.18Apr17-6-g9f103f2a35 (build Oct 25 2019 11:13:22) complex

 executed on             LinuxIFC date 2021.10.30  02:57:46

 INCAR:
 POTCAR:    PAW_PBE Pt 04Feb2005
 POTCAR:    PAW_PBE Fe 06Sep2000
 POTCAR:    PAW_PBE Co 02Aug2007
 POTCAR:    PAW_PBE Cu 22Jun2005
 POTCAR:    PAW_PBE Ni 02Aug2007
 POTCAR:    PAW_PBE H 15Jun2001
 POTCAR:    PAW_PBE Pt 04Feb2005
   VRHFIN =Pt: s1d9

   TITEL  = PAW_PBE Pt 04Feb2005
   POMASS =  195.080; ZVAL   =   10.000    mass and valenz
   ENMAX  =  230.283; ENMIN  =  172.712 eV

 POTCAR:    PAW_PBE Fe 06Sep2000
   VRHFIN =Fe:  d7 s1

   TITEL  = PAW_PBE Fe 06Sep2000
   POMASS =   55.847; ZVAL   =    8.000    mass and valenz
   ENMAX  =  267.882; ENMIN  =  200.911 eV

 POTCAR:    PAW_PBE Co 02Aug2007
   VRHFIN =Co: d8 s1

   TITEL  = PAW_PBE Co 02Aug2007
   POMASS =   58.933; ZVAL   =    9.000    mass and valenz
   ENMAX  =  267.968; ENMIN  =  200.976 eV

 POTCAR:    PAW_PBE Cu 22Jun2005
   VRHFIN =Cu: d10 p1

   TITEL  = PAW_PBE Cu 22Jun2005
   POMASS =   63.546; ZVAL   =   11.000    mass and valenz
   ENMAX  =  295.446; ENMIN  =  221.585 eV

 POTCAR:    PAW_PBE Ni 02Aug2007
   VRHFIN =Ni:

   TITEL  = PAW_PBE Ni 02Aug2007
   POMASS =   58.690; ZVAL   =   10.000    mass and valenz
   ENMAX  =  269.532; ENMIN  =  202.149 eV

 POTCAR:    PAW_PBE H 15Jun2001
   VRHFIN =H: ultrasoft test

   TITEL  = PAW_PBE H 15Jun2001
   POMASS =    1.000; ZVAL   =    1.000    mass and valenz
   ENMAX  =  250.000; ENMIN  =  200.000 eV

 Optimization of the real space projectors (new method)

 maximal supplied QI-value         = 14.36
 optimisation between [QCUT,QGAM] = [ 11.92, 23.98] = [ 39.79,161.09] Ry
 Optimized for a Real-space Cutoff    1.49 Angstroem

   l    n(q)    QCUT    max X(q) W(low)/X(q) W(high)/X(q)  e(spline)
   2     10    11.920    66.195    0.79E-04    0.18E-03    0.24E-06
   2     10    11.920    64.643    0.81E-04    0.19E-03    0.24E-06
   0     11    11.920    95.520    0.28E-04    0.54E-04    0.18E-06
   0     11    11.920    63.403    0.27E-04    0.52E-04    0.17E-06
   1     10    11.920    19.961    0.18E-04    0.11E-03    0.23E-06
   1     10    11.920    13.289    0.25E-04    0.87E-04    0.19E-06
 Optimization of the real space projectors (new method)

[...]

   l    n(q)    QCUT    max X(q) W(low)/X(q) W(high)/X(q)  e(spline)
   2      9    11.864    60.317    0.21E-03    0.51E-03    0.25E-06
   2      9    11.864    55.921    0.21E-03    0.51E-03    0.26E-06
   0      9    11.864    51.690    0.22E-03    0.30E-04    0.17E-06
   0      9    11.864    30.015    0.20E-03    0.28E-04    0.15E-06
   1      9    11.864    18.849    0.76E-04    0.33E-03    0.17E-06
   1      9    11.864    14.624    0.60E-04    0.28E-03    0.15E-06
 Optimization of the real space projectors (new method)

 maximal supplied QI-value         = 34.20
 optimisation between [QCUT,QGAM] = [ 11.97, 23.94] = [ 40.13,160.53] Ry
 Optimized for a Real-space Cutoff    1.18 Angstroem

   l    n(q)    QCUT    max X(q) W(low)/X(q) W(high)/X(q)  e(spline)
   0      8    11.971    19.460    0.15E-03    0.31E-03    0.25E-06
   0      8    11.971    12.209    0.13E-03    0.29E-03    0.25E-06
   1      8    11.971     4.655    0.22E-03    0.24E-03    0.21E-06
  PAW_PBE Pt 04Feb2005                  :
  PAW_PBE Fe 06Sep2000                  :
  PAW_PBE Co 02Aug2007                  :
  PAW_PBE Cu 22Jun2005                  :
  PAW_PBE Ni 02Aug2007                  :
  PAW_PBE H 15Jun2001                   :

 POSCAR: 11.26-high
  positions in direct lattice
  velocities in cartesian coordinates
 exchange correlation table for  LEXCH =        8
   RHO(1)=    0.500       N(1)  =     2000
   RHO(2)=  100.500       N(2)  =     4000

 ion  position               nearest neighbor table
   1  0.776  0.870  0.315-  56 2.59  32 2.67  15 2.74  33 2.75  65 2.77  23 2.78   8 2.78  40 2.79
                            16 2.83  41 2.87   3 2.88   2 2.93
   2  0.037  0.869  0.316-  38 2.65  79 2.66  32 2.76  26 2.76   8 2.79  34 2.81  58 2.81  10 2.81
                            41 2.83   3 2.83  20 2.84   1 2.93
   3  0.036  0.617  0.313-  50 2.60  68 2.63  32 2.69   6 2.81   9 2.81   4 2.81   2 2.83  20 2.84
                            33 2.85  34 2.86  16 2.87   1 2.88
   4  0.028  0.371  0.319-  50 2.61  36 2.68  42 2.70  11 2.72  77 2.76   9 2.77  14 2.77  33 2.80
                             3 2.81  26 2.83   6 2.88   5 2.96
   5  0.290  0.106  0.318-  61 2.55  36 2.68  12 2.69  39 2.69  58 2.70  26 2.77  65 2.77  14 2.78
                            17 2.79  23 2.80   6 2.92   4 2.96
   6  0.287  0.368  0.317-  68 2.59  71 2.62  36 2.71  23 2.75  29 2.76   9 2.80  17 2.81   3 2.81
                            34 2.86   4 2.88  22 2.90   5 2.92
   7  0.860  0.689  0.125-  74 2.52  43 2.54  45 2.59  55 2.63  60 2.65  50 2.65  56 2.66  32 2.70
                            72 2.71  25 2.83  64 3.07
   8  0.861  0.955  0.416-  15 2.76  21 2.77   1 2.78  41 2.78   2 2.79  16 2.80  13 2.83  20 2.87
                            10 2.94
   9  0.115  0.456  0.419-  20 2.72   4 2.77  16 2.78  11 2.79   6 2.80  29 2.81   3 2.81  14 2.84
                            17 2.90
  10  0.124  0.953  0.420-  58 2.71  14 2.76  26 2.76  12 2.78   2 2.81  18 2.83  13 2.87  20 2.90
                             8 2.94
  11  0.870  0.449  0.421-   4 2.72  77 2.72  19 2.74  13 2.76  14 2.79   9 2.79  33 2.82  31 2.82
                            16 2.83
  12  0.375  0.947  0.418-   5 2.69  65 2.70  58 2.70  18 2.72  15 2.74  31 2.75  10 2.78  17 2.79
                            14 2.86
  13  0.866  0.205  0.416-  81 1.88  77 2.72  11 2.76  21 2.77  26 2.77  41 2.77  19 2.78  14 2.83
                             8 2.83  10 2.87
  14  0.120  0.201  0.420-  10 2.76   4 2.77   5 2.78  11 2.79  26 2.81  17 2.81  13 2.83   9 2.84
                            12 2.86
  15  0.619  0.946  0.418-   1 2.74  12 2.74  16 2.75  65 2.75  31 2.76   8 2.76  17 2.79  23 2.81
                            21 2.92
  16  0.867  0.703  0.420-  15 2.75  20 2.76  33 2.77   9 2.78  31 2.79   8 2.80   1 2.83  11 2.83
                             3 2.87
  17  0.372  0.197  0.420-  23 2.75  12 2.79   5 2.79  15 2.79   6 2.81  14 2.81  21 2.82  29 2.83
                             9 2.90
  18  0.378  0.703  0.417-  51 2.60  58 2.67  31 2.69  12 2.72  34 2.74  19 2.75  10 2.83  29 2.89
                            20 2.98
  19  0.622  0.456  0.419-  81 1.88  51 2.65  77 2.66  31 2.72  22 2.73  11 2.74  18 2.75  13 2.78
                            21 2.82  29 2.88
  20  0.115  0.699  0.421-   9 2.72  16 2.76  29 2.81  34 2.82   3 2.84   2 2.84   8 2.87  10 2.90
                            18 2.98
  21  0.619  0.206  0.417-  81 1.97  22 2.75  13 2.77   8 2.77  23 2.77  29 2.78  41 2.80  17 2.82
                            19 2.82  15 2.92
  22  0.541  0.377  0.317-  70 2.59  30 2.64  71 2.64  77 2.68  51 2.70  19 2.73  21 2.75  34 2.79
                            41 2.80  29 2.80   6 2.90  23 2.92
  23  0.532  0.121  0.317-  71 2.65  40 2.70  39 2.75  17 2.75   6 2.75  21 2.77   1 2.78   5 2.80
                            15 2.81  41 2.84  22 2.92  65 2.94
  24  0.544  0.120  0.050-  46 2.53  63 2.54  55 2.60  43 2.70  66 2.73  54 2.84  62 2.84  52 2.87
                            67 2.92
  25  0.114  0.439  0.123-  54 2.49  48 2.53  45 2.58  36 2.70  73 2.70  63 2.75  50 2.75  68 2.78
                             7 2.83  72 2.85  64 2.94  76 3.11
  26  0.039  0.114  0.316-  79 2.55  61 2.63  42 2.67   2 2.76  10 2.76  13 2.77   5 2.77  58 2.79
                            14 2.81  41 2.82   4 2.83  77 2.96
  27  0.024  0.132  0.037-  48 2.54  49 2.59  73 2.61  28 2.65  78 2.71  59 2.73  66 2.74  52 2.92
                            44 3.11
  28  0.115  0.958  0.130-  59 2.54  79 2.58  44 2.59  38 2.63  27 2.65  61 2.66  69 2.68  73 2.69
                            47 2.79  49 2.84  35 2.87  64 2.93
  29  0.368  0.451  0.419-   6 2.76  34 2.77  21 2.78  22 2.80   9 2.81  20 2.81  17 2.83  19 2.88
                            18 2.89
  30  0.456  0.540  0.221-  76 2.51  57 2.56  22 2.64  34 2.68  51 2.72  37 2.72  35 2.73  80 2.74
                            71 2.76  38 2.79  70 2.79  68 2.85
  31  0.619  0.700  0.421-  51 2.68  18 2.69  65 2.72  19 2.72  33 2.75  12 2.75  15 2.76  16 2.79
                            11 2.82
  32  0.941  0.791  0.218-  64 2.57  69 2.60   1 2.67   3 2.69   7 2.70   2 2.76  56 2.78  40 2.87
                            50 2.87  79 2.91  68 3.02  38 3.04
  33  0.780  0.622  0.318-  56 2.60  37 2.62  50 2.62  65 2.69  77 2.73  31 2.75  51 2.75   1 2.75
                            16 2.77   4 2.80  11 2.82   3 2.85
  34  0.289  0.621  0.318-  38 2.67  30 2.68  68 2.74  18 2.74  58 2.75  29 2.77  51 2.77  22 2.79
                             2 2.81  20 2.82   6 2.86   3 2.86
  35  0.377  0.709  0.122-  53 2.48  75 2.55  59 2.60  47 2.62  60 2.68  30 2.73  80 2.74  38 2.75
                            57 2.85  76 2.87  28 2.87  64 2.87
  36  0.198  0.277  0.223-  73 2.54  63 2.54   4 2.68   5 2.68  25 2.70   6 2.71  61 2.76  42 2.81
                            68 2.83  50 2.84  39 2.91  71 2.97
  37  0.694  0.548  0.222-  72 2.55  60 2.56  57 2.60  33 2.62  56 2.63  80 2.66  51 2.69  77 2.70
                            30 2.72  50 2.75  70 2.82  42 2.88
  38  0.211  0.792  0.224-  64 2.58  58 2.59  61 2.62  28 2.63   2 2.65  34 2.67  80 2.70  35 2.75
                            30 2.79  79 2.85  68 3.02  32 3.04
  39  0.456  0.016  0.221-  47 2.49  55 2.60  80 2.62  63 2.64  65 2.65  61 2.65   5 2.69  56 2.69
                            23 2.75  40 2.78  36 2.91  71 3.11
  40  0.686  0.047  0.215-  46 2.52  69 2.55  55 2.59  23 2.70  71 2.71  41 2.74  39 2.78   1 2.79
                            70 2.86  32 2.87  56 2.93  79 2.99
  41  0.785  0.121  0.313-  70 2.55  79 2.58  40 2.74  13 2.77   8 2.78  21 2.80  22 2.80  26 2.82
                             2 2.83  23 2.84  77 2.87   1 2.87
  42  0.943  0.286  0.222-  49 2.49  72 2.55  70 2.65  26 2.67  79 2.67  73 2.68  77 2.70   4 2.70
                            50 2.78  36 2.81  37 2.88  61 3.01
  43  0.787  0.882  0.049-  55 2.41  69 2.50   7 2.54  44 2.64  24 2.70  66 2.72  45 2.88  67 2.95

  44  0.036  0.851  0.047-  45 2.41  69 2.53  64 2.55  28 2.59  43 2.64  75 2.68  59 3.07  27 3.11

  45  0.048  0.630  0.044-  44 2.41  75 2.46  64 2.49  25 2.58   7 2.59  54 2.82  43 2.88
  46  0.621  0.226  0.132-  70 2.50  62 2.51  57 2.51  40 2.52  24 2.53  66 2.58  76 2.58  71 2.59
                            49 2.65  69 2.81  63 2.90
  47  0.371  0.944  0.131-  59 2.38  52 2.40  39 2.49  67 2.54  61 2.56  35 2.62  80 2.62  60 2.68
                            73 2.76  55 2.77  28 2.79
  48  0.994  0.372  0.045-  72 2.33  78 2.48  74 2.51  25 2.53  27 2.54  73 2.62
  49  0.863  0.212  0.131-  78 2.43  42 2.49  66 2.56  70 2.57  27 2.59  79 2.61  72 2.63  69 2.64
                            46 2.65  57 2.68  28 2.84  73 2.86
  50  0.946  0.532  0.224-   3 2.60   4 2.61  33 2.62  72 2.64   7 2.65  37 2.75  25 2.75  56 2.78
                            42 2.78  36 2.84  32 2.87  68 2.92
  51  0.537  0.619  0.323-  18 2.60  80 2.64  19 2.65  65 2.67  31 2.68  37 2.69  77 2.69  22 2.70
[...]

 FORCES acting on ions
    electron-ion (+dipol)            ewald-force                    non-local-force                 convergence-correction
   -.726E+02 -.192E+01 -.130E+04   0.716E+02 0.184E+01 0.130E+04   0.947E+00 0.141E+00 0.146E+01   0.390E-01 -.616E-01 -.183E+00
   0.484E+02 0.334E+02 -.132E+04   -.479E+02 -.330E+02 0.132E+04   -.565E+00 -.327E+00 0.160E+01   0.298E-01 -.629E-01 -.132E+00
   0.113E+02 -.266E+02 -.128E+04   -.115E+02 0.259E+02 0.128E+04   0.191E+00 0.726E+00 0.232E+01   0.130E-01 0.387E-01 -.159E+00
   -.408E+02 0.368E+00 -.135E+04   0.400E+02 0.187E+00 0.135E+04   0.719E+00 -.627E+00 0.162E+01   0.304E-01 0.461E-01 -.194E+00
   -.105E+01 -.823E+02 -.137E+04   0.485E+00 0.811E+02 0.137E+04   0.593E+00 0.119E+01 0.172E+01   -.362E-01 -.339E-01 -.210E+00
   0.505E+02 0.256E+01 -.140E+04   -.501E+02 -.276E+01 0.139E+04   -.369E+00 0.135E+00 0.169E+01   -.346E-01 0.902E-01 -.196E+00
   -.122E+03 -.414E+01 0.154E+04   0.121E+03 0.483E+01 -.154E+04   0.100E+01 -.722E+00 0.694E+00   -.286E-01 0.101E-01 -.217E+00
   -.404E+01 -.907E+01 -.264E+04   0.420E+01 0.836E+01 0.264E+04   -.234E+00 0.807E+00 0.176E+01   0.589E-01 -.885E-01 0.195E-02
   -.116E+02 0.402E+01 -.266E+04   0.113E+02 -.358E+01 0.266E+04   0.256E+00 -.531E+00 0.150E+01   -.449E-02 0.895E-01 0.191E-02
   0.392E+02 -.423E+01 -.267E+04   -.388E+02 0.401E+01 0.267E+04   -.384E+00 0.276E+00 0.224E+01   -.324E-01 -.620E-01 -.779E-02
   -.299E+02 0.292E+01 -.270E+04   0.302E+02 -.329E+01 0.270E+04   -.373E+00 0.317E+00 0.195E+01   0.675E-01 0.501E-01 0.275E-01
   0.121E+02 -.412E+02 -.271E+04   -.123E+02 0.411E+02 0.271E+04   0.282E+00 0.195E+00 0.212E+01   -.555E-01 -.302E-01 -.996E-02
   -.494E+01 0.426E+02 -.266E+04   0.517E+01 -.424E+02 0.265E+04   -.287E+00 -.346E-01 0.884E+00   0.362E-01 -.638E-01 0.138E-01
   -.806E+01 -.784E+01 -.268E+04   0.804E+01 0.786E+01 0.268E+04   0.240E-01 0.959E-02 0.160E+01   -.133E-02 -.685E-02 0.123E-01
   -.421E+02 -.293E+02 -.268E+04   0.421E+02 0.287E+02 0.268E+04   -.681E-01 0.575E+00 0.160E+01   0.340E-01 -.512E-01 0.120E-01
   -.381E+02 0.123E+01 -.266E+04   0.376E+02 -.977E+00 0.266E+04   0.431E+00 -.250E+00 0.137E+01   0.680E-01 -.101E-01 -.746E-02
   0.450E+01 -.278E+02 -.268E+04   -.413E+01 0.272E+02 0.268E+04   -.346E+00 0.574E+00 0.173E+01   -.407E-01 0.355E-01 0.263E-01
   0.594E+02 0.153E+02 -.269E+04   -.583E+02 -.150E+02 0.268E+04   -.105E+01 -.327E+00 0.207E+01   -.600E-01 0.412E-01 -.374E-01
   0.339E+02 0.202E+02 -.271E+04   -.332E+02 -.185E+02 0.271E+04   -.774E+00 -.174E+01 0.200E+01   -.135E-02 0.523E-01 0.176E-02
   0.830E+01 -.725E+01 -.266E+04   -.843E+01 0.705E+01 0.265E+04   0.142E+00 0.171E+00 0.142E+01   -.177E-01 0.195E-01 0.506E-02
   0.938E+01 0.223E+02 -.266E+04   -.976E+01 -.221E+02 0.266E+04   0.371E+00 -.242E+00 0.126E+01   0.931E-02 -.309E-01 0.730E-02
   0.458E+02 0.469E+01 -.144E+04   -.442E+02 -.402E+01 0.144E+04   -.151E+01 -.782E+00 0.135E+01   -.408E-01 0.802E-01 -.212E+00
   -.799E+01 0.117E+02 -.135E+04   0.791E+01 -.113E+02 0.135E+04   0.385E-01 -.328E+00 0.921E+00   -.242E-01 -.419E-01 -.227E+00
   0.817E+02 0.604E+02 0.270E+04   -.815E+02 -.605E+02 -.270E+04   -.265E+00 0.115E+00 -.264E+01   -.286E-01 0.424E-01 -.274E-01
   0.522E+02 -.337E+02 0.159E+04   -.529E+02 0.335E+02 -.160E+04   0.639E+00 0.165E+00 0.145E+01   0.707E-01 -.745E-02 -.265E+00
   -.110E+02 -.179E+02 -.135E+04   0.108E+02 0.177E+02 0.135E+04   0.151E+00 0.282E+00 0.174E+01   0.321E-01 -.770E-01 -.189E+00
   -.785E+02 0.856E+02 0.283E+04   0.793E+02 -.843E+02 -.283E+04   -.675E+00 -.133E+01 -.295E+01   0.112E-02 0.408E-01 -.223E-01
   -.142E+02 0.274E+02 0.149E+04   0.139E+02 -.273E+02 -.149E+04   0.303E+00 -.623E-01 -.311E+00   0.207E-02 -.216E-01 -.184E+00
   0.575E+01 0.591E+01 -.268E+04   -.660E+01 -.569E+01 0.268E+04   0.890E+00 -.294E+00 0.196E+01   -.352E-01 0.909E-01 0.947E-02
   0.969E+01 -.739E+02 0.429E+01   -.934E+01 0.732E+02 -.460E+01   -.392E+00 0.548E+00 0.677E+00   0.389E-02 0.527E-01 -.317E+00
   -.319E+02 0.108E+02 -.272E+04   0.312E+02 -.110E+02 0.272E+04   0.695E+00 0.137E+00 0.188E+01   -.347E-02 0.207E-01 -.123E-01
   0.231E+02 0.300E+02 0.972E+02   -.237E+02 -.307E+02 -.971E+02   0.753E+00 0.726E+00 0.147E+00   0.415E-02 -.305E-01 -.253E+00
   -.793E+02 0.251E+02 -.135E+04   0.784E+02 -.250E+02 0.135E+04   0.903E+00 -.213E+00 0.229E+01   0.231E-01 0.356E-01 -.196E+00
   0.462E+02 -.132E+02 -.137E+04   -.451E+02 0.137E+02 0.137E+04   -.114E+01 -.549E+00 0.134E+01   -.178E-01 0.735E-01 -.174E+00
   0.410E+02 -.774E+02 0.159E+04   -.397E+02 0.774E+02 -.159E+04   -.136E+01 -.325E-01 0.136E+01   0.378E-01 -.800E-01 -.195E+00
   0.400E+02 -.310E+02 0.316E+01   -.403E+02 0.310E+02 -.337E+01   0.422E+00 0.580E-01 0.565E+00   -.713E-02 0.167E-01 -.311E+00
   -.485E+02 -.732E+00 0.242E+01   0.489E+02 0.196E+01 -.285E+01   -.425E+00 -.139E+01 0.745E+00   -.229E-01 0.595E-01 -.322E+00
   0.522E+02 -.136E+01 0.279E+02   -.514E+02 0.259E+01 -.274E+02   -.899E+00 -.120E+01 -.289E+00   0.310E-01 -.313E-01 -.232E+00
   -.326E+02 -.610E+02 0.891E+02   0.317E+02 0.594E+02 -.903E+02   0.108E+01 0.168E+01 0.151E+01   -.146E-01 -.552E-01 -.323E+00
   0.122E+02 0.742E+02 0.136E+03   -.126E+02 -.734E+02 -.137E+03   0.545E+00 -.795E+00 0.172E+01   -.221E-01 -.314E-01 -.336E+00
   0.198E+02 0.693E+02 -.136E+04   -.195E+02 -.687E+02 0.136E+04   -.258E+00 -.515E+00 0.149E+01   0.304E-01 -.797E-01 -.203E+00
   -.102E+03 -.105E+01 0.257E+02   0.101E+03 0.856E+00 -.266E+02   0.857E+00 0.129E+00 0.133E+01   0.258E-01 0.198E-01 -.313E+00
   -.798E+00 0.744E+02 0.220E+04   0.198E+01 -.739E+02 -.220E+04   -.120E+01 -.485E+00 -.367E+01   -.186E-01 -.114E-01 -.173E-01
   -.188E+02 -.163E+02 0.222E+04   0.171E+02 0.145E+02 -.222E+04   0.177E+01 0.199E+01 -.302E+01   -.253E-01 -.488E-01 -.386E-01
   0.122E+03 0.274E+02 0.225E+04   -.120E+03 -.260E+02 -.224E+04   -.201E+01 -.137E+01 -.397E+01   0.434E-01 -.406E-01 -.274E-01
   0.418E+02 0.106E+03 0.112E+04   -.412E+02 -.106E+03 -.112E+04   -.587E+00 -.244E+00 -.647E+00   -.287E-01 0.350E-01 -.193E+00
   0.907E+01 -.400E+02 0.114E+04   -.895E+01 0.398E+02 -.114E+04   -.216E+00 0.152E+00 -.493E+00   0.438E-01 -.264E-01 -.135E+00
   -.212E+03 0.614E+01 0.225E+04   0.209E+03 -.639E+01 -.224E+04   0.269E+01 0.180E+00 -.346E+01   0.197E-01 0.248E-01 -.239E-01
   -.609E+02 0.683E+02 0.113E+04   0.607E+02 -.673E+02 -.112E+04   0.336E+00 -.106E+01 -.669E+00   -.949E-02 0.366E-01 -.174E+00
   -.535E+02 -.994E+01 0.346E+02   0.529E+02 0.989E+01 -.338E+02   0.575E+00 -.575E-02 -.686E+00   0.599E-02 0.120E-01 -.223E+00
   0.226E+02 0.134E+02 -.113E+04   -.225E+02 -.137E+02 0.113E+04   0.197E-02 0.131E+00 -.197E+00   -.172E-01 0.700E-01 -.186E+00
   -.290E+02 -.104E+03 0.220E+04   0.283E+02 0.102E+03 -.220E+04   0.698E+00 0.260E+01 -.312E+01   0.442E-01 0.563E-01 -.306E-01
   0.105E+03 -.140E+03 0.252E+04   -.104E+03 0.139E+03 -.252E+04   -.129E+01 0.989E+00 -.306E+01   0.469E-03 -.161E-01 -.153E-01
   0.201E+03 0.809E+02 0.252E+04   -.200E+03 -.796E+02 -.252E+04   -.117E+01 -.137E+01 -.301E+01   0.160E-01 0.280E-01 -.383E-01
   -.508E+02 -.586E+02 0.131E+04   0.506E+02 0.581E+02 -.131E+04   0.221E+00 0.653E+00 -.558E+00   -.112E-01 -.203E-01 -.202E+00
   -.100E+03 -.113E+01 0.405E+02   0.100E+03 0.942E+00 -.404E+02   0.251E+00 0.240E+00 0.111E+00   -.324E-01 -.648E-02 -.284E+00
   -.176E+01 -.456E+02 0.122E+04   0.199E+01 0.449E+02 -.122E+04   -.234E+00 0.771E+00 -.438E+00   -.163E-01 0.526E-01 -.235E+00
   0.523E+02 0.556E+01 -.125E+04   -.521E+02 -.554E+01 0.125E+04   -.263E+00 0.490E-01 0.346E+00   -.682E-02 -.444E-01 -.170E+00
   0.710E+02 0.479E+02 0.255E+04   -.703E+02 -.460E+02 -.254E+04   -.714E+00 -.189E+01 -.406E+01   0.219E-01 -.319E-01 -.189E-01
   -.589E+01 -.348E+02 0.127E+04   0.609E+01 0.351E+02 -.127E+04   -.239E+00 -.376E+00 -.408E+00   -.182E-01 -.106E-01 -.202E+00
[...]
   0.121E+03 -.513E+02 0.290E+02   -.121E+03 0.506E+02 -.280E+02   -.395E-01 0.813E+00 -.718E+00   0.982E-02 0.275E-01 -.333E+00
   0.399E+02 0.112E+03 0.157E+04   -.396E+02 -.112E+03 -.157E+04   -.287E+00 -.690E+00 -.130E+01   -.437E-01 -.264E-01 -.257E+00
   -.133E+02 0.400E+02 -.265E+02   0.139E+02 -.404E+02 0.268E+02   -.641E+00 0.454E+00 0.831E-01   -.116E-01 0.361E-01 -.393E+00
   0.444E+02 0.731E+02 -.365E+02   -.440E+02 -.727E+02 0.369E+02   -.363E+00 -.602E+00 -.842E-02   -.104E-01 0.424E-01 -.403E+00
   -.148E+03 -.627E+01 0.134E+04   0.148E+03 0.615E+01 -.134E+04   0.757E+00 0.122E+00 -.934E+00   -.193E-01 0.335E-01 -.234E+00
   -.214E+02 -.118E+02 0.146E+04   0.218E+02 0.116E+02 -.146E+04   -.499E+00 0.248E+00 -.755E+00   0.293E-01 0.336E-01 -.214E+00
   -.204E+03 -.115E+03 0.285E+04   0.204E+03 0.114E+03 -.285E+04   0.555E+00 0.135E+01 -.258E+01   -.587E-01 0.470E-03 -.845E-02
   -.195E+02 -.126E+03 0.282E+04   0.177E+02 0.126E+03 -.282E+04   0.196E+01 0.240E+00 -.165E+01   -.272E-01 -.118E+00 -.256E-01
   0.616E+02 -.388E+02 0.140E+04   -.608E+02 0.385E+02 -.140E+04   -.835E+00 0.314E+00 -.593E+00   -.415E-01 -.978E-03 -.319E+00
   -.481E+02 0.169E+02 -.142E+04   0.476E+02 -.167E+02 0.142E+04   0.494E+00 -.294E+00 -.791E-01   0.336E-01 0.429E-01 -.226E+00
   -.594E+02 0.502E+02 0.281E+04   0.598E+02 -.497E+02 -.281E+04   -.327E+00 -.616E+00 -.129E+01   -.227E-01 0.814E-01 -.206E-01
   -.666E+01 0.565E+02 0.174E+02   0.698E+01 -.562E+02 -.168E+02   -.405E+00 -.378E+00 -.301E+00   0.146E-01 -.311E-01 -.268E+00
   0.393E+02 0.824E+01 0.891E+01   -.390E+02 -.802E+01 -.851E+01   -.341E+00 -.273E+00 -.275E+00   -.467E-02 -.243E-01 -.272E+00
   0.169E+01 0.335E+00 -.314E+03   -.178E+01 -.978E-01 0.315E+03   0.497E-01 -.268E+00 -.133E+01   0.496E-02 -.382E-03 0.152E-01
   -.822E+00 0.144E+01 0.159E+02   0.644E-12 -.774E-13 0.332E-10   0.920E+00 -.156E+01 -.408E+01   -.838E-01 0.148E+00 -.118E+02

 POSITION                                       TOTAL-FORCE (eV/Angst)
     13.58622      8.46747      6.92406         0.005805     -0.017507      0.014423
      5.28074      8.46298      6.92709         0.003015     -0.033272      0.009412
      3.86207      5.98595      6.87798         0.008806      0.022048      0.019934
      2.39492      3.60673      7.01021        -0.012199     -0.015606     -0.003387
      3.85167      1.03702      7.00664         0.003175      0.006225     -0.011956
      5.28985      3.57179      6.97534        -0.017370      0.014980     -0.004948
     13.51950      6.69208      2.75694        -0.013351     -0.022502      0.012181
     15.09474      9.21348      9.16231        -0.010952     -0.005854     -0.013973
      3.85122      4.43249      9.22973         0.015877      0.006727      0.000363
      6.71306      9.21885      9.17642         0.002390     -0.008103     -0.004101
     12.30854      4.39455      9.25904         0.009767     -0.006335     -0.010328
      9.48302      9.21130      9.20436         0.010720      0.004462      0.015586
     10.93457      1.95485      9.19012        -0.008596      0.008478     -0.017656
      2.47948      1.95825      9.25086        -0.006985      0.021797     -0.015122
     12.26788      9.22380      9.19925        -0.011516     -0.020266     -0.000144
     13.67435      6.84681      9.22938         0.014962      0.017150      0.004835
      5.27142      1.92758      9.23893        -0.004752      0.004061      0.004620
      8.13750      6.85168      9.19047        -0.001792     -0.001314      0.006249
      9.54345      4.49477      9.26647         0.008460      0.017821     -0.011714
      5.24970      6.81953      9.20433        -0.002011      0.004534     -0.003485
      8.04685      1.97148      9.21359        -0.003419     -0.007664     -0.012398
      8.19519      3.66188      7.01041         0.014864     -0.007514     -0.025982
      6.65163      1.18710      6.96672        -0.016070     -0.001632     -0.021293
      6.78185      1.16816      1.10976        -0.024265     -0.000804     -0.014732
      3.74327      4.26289      2.71491         0.013311      0.007783      0.000831
      1.08026      1.11513      6.94605         0.006899      0.011299      0.044564
      1.01575      1.28649      0.81183         0.018582     -0.010573      0.003951
      6.67142      9.31568      2.85544         0.005370      0.030899     -0.005519
      6.62990      4.42394      9.22848        -0.010317      0.026792     -0.004473
      8.14285      5.24496      4.86976         0.017327     -0.057505      0.043563
     10.86682      6.84418      9.24794         0.007697     -0.016038     -0.012502
     14.99686      7.68362      4.79411        -0.010365      0.002569      0.001320
     12.24061      6.05250      6.99661        -0.006711      0.013175      0.000962
      6.73294      6.03534      6.98960        -0.006943      0.005677      0.021617
      8.20780      6.89173      2.69128        -0.007112     -0.003533      0.007427
      3.77766      2.69345      4.90572        -0.002343      0.013089     -0.011618
     10.86552      5.33036      4.88657        -0.028309     -0.033454     -0.013970
      6.80891      7.69639      4.91949         0.007277     -0.005116      0.014592
      5.20720      0.16029      4.85410         0.009666     -0.011149     -0.065393
      7.96508      0.45571      4.72390         0.039899      0.030714      0.033609
      9.48432      1.19895      6.91192         0.016736     -0.016074     -0.003198
     12.19222      2.77766      4.87496        -0.012758      0.007937      0.005459
     13.78001      8.57392      1.07376         0.004502     -0.019251     -0.019613
      5.17612      8.26819      1.02395         0.018624      0.008614     -0.008164
      4.07688      6.12594      0.96722         0.012341      0.004139      0.020294
      8.23477      2.19285      2.91186         0.004235     -0.002514      0.002962
      9.46232      9.17873      2.88867        -0.019463      0.002113      0.004784
     13.23829      3.61532      0.98546         0.007280     -0.009645      0.002875
     10.87798      2.06279      2.87872        -0.008251     -0.000883      0.001472
     13.60649      5.17210      4.92826         0.000503     -0.003388     -0.005443
      9.49255      6.03099      7.10379         0.008980      0.005998     -0.013513
      3.91652      1.06390      1.10530         0.015300      0.015517      0.027936
      9.69052      5.79723      1.02825        -0.010325     -0.008077     -0.007328
      5.55996      3.72993      1.09992        -0.011823     -0.041419     -0.008498
     12.22782      8.97667      2.86865        -0.002506      0.041034      0.018847
     12.22062      7.58099      4.89646        -0.003780      0.016008      0.011774
      9.50033      4.35926      2.89266        -0.000489     -0.000510     -0.010655
      8.10136      8.43921      7.03088         0.001440     -0.008306      0.011364
      8.20297      8.78072      0.90411         0.001559      0.009734     -0.008372
     10.87946      6.90186      2.86164        -0.038437     -0.014024      0.013399
[...]
     10.84088      8.41789      0.89812        -0.014724      0.012803     -0.008942
      5.29878      5.08233      4.87221         0.010752      0.013567     -0.022681
     15.21969      9.46320      2.91158         0.009750      0.009353      0.006767
      9.54798      2.83243      4.93973        -0.013160      0.002307      0.060130
      6.74099      2.86414      4.91726         0.060515      0.002345      0.032069
     12.12718      4.37157      2.88927         0.006887     -0.012989     -0.006498
      2.50652      1.86558      2.87455        -0.012069      0.003924     -0.008088
     12.02738      5.81407      0.92547        -0.019142      0.002286      0.002955
      6.52756      5.95530      1.01982        -0.001850     -0.038046      0.002696
      6.84854      4.37406      2.90086        -0.019047     -0.006014      0.005843
     10.85314      3.69131      7.06306         0.000252      0.004332     -0.045031
     10.75754      3.55271      0.95995        -0.002010      0.002295     -0.002799
     10.94499      0.41654      4.90182        -0.028184      0.039703      0.014778
      9.50574      7.61774      4.99769        -0.004261      0.004466      0.010627
      9.51531      2.70193     10.02479        -0.028899     -0.030994      0.008858
    total drift:                                0.014026      0.027471      0.033410

  FREE ENERGIE OF THE ION-ELECTRON SYSTEM (eV)
  free  energy   TOTEN  =      -507.89957343 eV

  energy  without entropy=     -507.90675204  energy(sigma->0) =     -507.90196630

 d Force = 0.3084633E-03[ 0.931E-04, 0.524E-03]  d Energy = 0.4073183E-03-0.989E-04
 d Force =-0.1644537E+02[-0.164E+02,-0.164E+02]  d Ewald  =-0.1644536E+02-0.317E-06

 reached required accuracy - stopping structural energy minimisation