 vasp.5.4.4.18Apr17-6-g9f103f2a35 (build Oct 25 2019 11:13:22) complex

 executed on             LinuxIFC date 2022.02.13  08:11:49

 INCAR:
 POTCAR:    PAW_PBE Pt 04Feb2005
 POTCAR:    PAW_PBE Fe 06Sep2000
 POTCAR:    PAW_PBE Co 02Aug2007
 POTCAR:    PAW_PBE Ni 02Aug2007
 POTCAR:    PAW_PBE H 15Jun2001

 POTCAR:    PAW_PBE Pt 04Feb2005
   VRHFIN =Pt: s1d9

   TITEL  = PAW_PBE Pt 04Feb2005
   POMASS =  195.080; ZVAL   =   10.000    mass and valenz
   ENMAX  =  230.283; ENMIN  =  172.712 eV

 POTCAR:    PAW_PBE Fe 06Sep2000
   VRHFIN =Fe:  d7 s1

   TITEL  = PAW_PBE Fe 06Sep2000
   POMASS =   55.847; ZVAL   =    8.000    mass and valenz
   ENMAX  =  267.882; ENMIN  =  200.911 eV

 POTCAR:    PAW_PBE Co 02Aug2007
   VRHFIN =Co: d8 s1

   TITEL  = PAW_PBE Co 02Aug2007
   POMASS =   58.933; ZVAL   =    9.000    mass and valenz
   ENMAX  =  267.968; ENMIN  =  200.976 eV

 POTCAR:    PAW_PBE Ni 02Aug2007
   VRHFIN =Ni:

   TITEL  = PAW_PBE Ni 02Aug2007
   POMASS =   58.690; ZVAL   =   10.000    mass and valenz
   ENMAX  =  269.532; ENMIN  =  202.149 eV

 POTCAR:    PAW_PBE H 15Jun2001
   VRHFIN =H: ultrasoft test

   TITEL  = PAW_PBE H 15Jun2001
   POMASS =    1.000; ZVAL   =    1.000    mass and valenz
   ENMAX  =  250.000; ENMIN  =  200.000 eV

 Optimization of the real space projectors (new method)

 maximal supplied QI-value         = 14.36
 optimisation between [QCUT,QGAM] = [ 11.92, 23.98] = [ 39.79,161.09] Ry
 Optimized for a Real-space Cutoff    1.49 Angstroem

   l    n(q)    QCUT    max X(q) W(low)/X(q) W(high)/X(q)  e(spline)
   2     10    11.920    66.195    0.79E-04    0.18E-03    0.24E-06
   2     10    11.920    64.643    0.81E-04    0.19E-03    0.24E-06
   0     11    11.920    95.520    0.28E-04    0.54E-04    0.18E-06
   0     11    11.920    63.403    0.27E-04    0.52E-04    0.17E-06
   1     10    11.920    19.961    0.18E-04    0.11E-03    0.23E-06
   1     10    11.920    13.289    0.25E-04    0.87E-04    0.19E-06
 Optimization of the real space projectors (new method)

[...]

   l    n(q)    QCUT    max X(q) W(low)/X(q) W(high)/X(q)  e(spline)
   2      9    11.864    60.317    0.21E-03    0.51E-03    0.25E-06
   2      9    11.864    55.921    0.21E-03    0.51E-03    0.26E-06
   0      9    11.864    51.690    0.22E-03    0.30E-04    0.17E-06
   0      9    11.864    30.015    0.20E-03    0.28E-04    0.15E-06
   1      9    11.864    18.849    0.76E-04    0.33E-03    0.17E-06
   1      9    11.864    14.624    0.60E-04    0.28E-03    0.15E-06
 Optimization of the real space projectors (new method)

 maximal supplied QI-value         = 34.20
 optimisation between [QCUT,QGAM] = [ 11.97, 23.94] = [ 40.13,160.53] Ry
 Optimized for a Real-space Cutoff    1.18 Angstroem

   l    n(q)    QCUT    max X(q) W(low)/X(q) W(high)/X(q)  e(spline)
   0      8    11.971    19.460    0.15E-03    0.31E-03    0.25E-06
   0      8    11.971    12.209    0.13E-03    0.29E-03    0.25E-06
   1      8    11.971     4.655    0.22E-03    0.24E-03    0.21E-06
  PAW_PBE Pt 04Feb2005                  :
  PAW_PBE Fe 06Sep2000                  :
  PAW_PBE Co 02Aug2007                  :
  PAW_PBE Ni 02Aug2007                  :
  PAW_PBE H 15Jun2001                   :

 POSCAR: 11.26
  positions in cartesian coordinates
 exchange correlation table for  LEXCH =        8
   RHO(1)=    0.500       N(1)  =     2000
   RHO(2)=  100.500       N(2)  =     4000

 ion  position               nearest neighbor table
   1  0.783  0.871  0.304-  52 2.52  59 2.56  28 2.71  19 2.74   2 2.77  61 2.77  29 2.79   4 2.80
                            33 2.81  60 2.81  12 2.85  11 2.85
   2  0.030  0.869  0.299-  79 2.49  77 2.52   1 2.77  33 2.78  28 2.78  30 2.79   4 2.80   6 2.81
                            16 2.88  60 2.89  22 2.99
   3  0.279  0.360  0.311-  64 2.54  68 2.63  31 2.64  43 2.73   5 2.74  39 2.75  13 2.77  25 2.78
                            30 2.78  19 2.84  33 2.85  18 2.93
   4  0.871  0.956  0.406-  60 2.62   9 2.73  17 2.78   6 2.80   1 2.80  16 2.80  11 2.80   2 2.80
                            12 2.82
   5  0.109  0.459  0.410-  39 2.61  33 2.70  12 2.72   3 2.74  16 2.77   7 2.77  10 2.79  25 2.87
                            13 2.91
   6  0.124  0.948  0.402-  55 2.66  22 2.72  14 2.77   4 2.80  16 2.81   2 2.81   9 2.81   8 2.86
                            10 2.87
   7  0.870  0.445  0.411-  39 2.59  75 2.66  29 2.74   9 2.75  15 2.75   5 2.77  10 2.78  27 2.81
                            12 2.93
   8  0.372  0.958  0.418-  81 1.98  55 2.52  43 2.60  61 2.72  13 2.73  10 2.77  11 2.80   6 2.86
                            27 2.86  14 2.96
   9  0.873  0.199  0.405-  75 2.60  60 2.64   4 2.73   7 2.75  22 2.78  17 2.79  15 2.81   6 2.81
                            10 2.85
  10  0.124  0.203  0.411-  43 2.64  39 2.64  22 2.74  13 2.76   8 2.77   7 2.78   5 2.79   9 2.85
                             6 2.87
  11  0.625  0.950  0.413-  61 2.66  19 2.71  12 2.76   4 2.80   8 2.80  27 2.80  17 2.82  13 2.84
                             1 2.85
  12  0.871  0.705  0.411-  29 2.69  33 2.71   5 2.72  16 2.73  11 2.76  27 2.80   4 2.82   1 2.85
                             7 2.93
  13  0.370  0.202  0.416-  43 2.64   8 2.73  10 2.76   3 2.77  19 2.78  25 2.78  17 2.84  11 2.84
                             5 2.91
  14  0.366  0.698  0.406-  81 1.81  44 2.57  55 2.61  25 2.77   6 2.77  16 2.79  15 2.83  30 2.83
                            27 2.91   8 2.96
  15  0.622  0.449  0.409-  75 2.61  44 2.62   7 2.75  18 2.76  17 2.77   9 2.81  14 2.83  25 2.83
                            27 2.84
  16  0.115  0.702  0.407-  33 2.65  30 2.69  12 2.73   5 2.77  14 2.79   4 2.80   6 2.81  25 2.85
                             2 2.88
  17  0.622  0.202  0.411-  60 2.62  19 2.76  15 2.77   4 2.78  18 2.78   9 2.79  25 2.80  11 2.82
                            13 2.84
  18  0.538  0.365  0.307-  67 2.52  68 2.60  60 2.67  26 2.68  15 2.76  25 2.78  17 2.78  75 2.79
                            19 2.85  30 2.91   3 2.93  44 2.96
  19  0.537  0.112  0.313-  68 2.49  80 2.52  59 2.56  43 2.69  61 2.70  11 2.71  60 2.73   1 2.74
                            17 2.76  13 2.78   3 2.84  18 2.85
  20  0.538  0.117  0.053-  47 2.51  37 2.56  51 2.64  63 2.67  50 2.71  62 2.73  34 2.74  46 2.79
                            45 2.87
  21  0.106  0.420  0.118-  40 2.50  36 2.51  50 2.54  70 2.60  47 2.66  42 2.66  64 2.70  69 2.71
                            31 2.79  53 3.03
  22  0.050  0.125  0.306-  65 2.51  77 2.52  58 2.54  39 2.68   6 2.72  43 2.74  10 2.74   9 2.78
                            75 2.86  55 2.96   2 2.99  60 3.10  31 3.25
  23  0.025  0.110  0.043-  40 2.54  41 2.55  70 2.56  35 2.67  62 2.71  24 2.74  56 2.77  76 2.83
                            45 2.93
  24  0.117  0.952  0.146-  79 2.49  35 2.51  70 2.62  77 2.62  58 2.62  56 2.64  48 2.66  73 2.70
                            66 2.72  23 2.74  41 2.84  38 2.93
  25  0.370  0.449  0.410-  14 2.77  13 2.78   3 2.78  18 2.78  30 2.79  17 2.80  15 2.83  16 2.85
                             5 2.87
  26  0.451  0.562  0.222-  73 2.52  74 2.53  54 2.55  79 2.59  30 2.60  44 2.62  32 2.67  18 2.68
                            78 2.68  67 2.98  48 2.99
  27  0.624  0.700  0.414-  81 1.83  44 2.58  61 2.69  29 2.78  12 2.80  11 2.80   7 2.81  15 2.84
                             8 2.86  14 2.91
  28  0.949  0.756  0.207-  48 2.55  53 2.56  66 2.63  42 2.65  33 2.65  64 2.70   1 2.71   2 2.78
                            52 2.85  36 2.90  59 3.15
  29  0.797  0.615  0.313-  42 2.58  52 2.59  32 2.62  39 2.67  33 2.69  12 2.69   7 2.74  27 2.78
                             1 2.79  44 2.81  75 2.85  61 2.89
  30  0.269  0.613  0.306-  79 2.52  26 2.60  33 2.60  16 2.69  64 2.69   3 2.78  25 2.79   2 2.79
                            14 2.83  18 2.91  44 3.15  55 3.28
  31  0.191  0.261  0.224-  70 2.48  58 2.52  47 2.57  43 2.60  39 2.61   3 2.64  65 2.68  64 2.74
                            21 2.79  80 2.81  42 2.83  68 3.00  22 3.25
  32  0.700  0.539  0.222-  69 2.53  54 2.60  29 2.62  75 2.63  57 2.63  44 2.64  65 2.66  26 2.67
                            52 2.68  42 2.70  67 2.73  78 2.76
  33  0.033  0.621  0.311-  64 2.55  30 2.60  16 2.65  28 2.65  29 2.69   5 2.70  12 2.71  42 2.74
                             2 2.78   1 2.81  39 2.82   3 2.85
  34  0.791  0.885  0.059-  51 2.33  66 2.39  53 2.60  62 2.68  35 2.73  20 2.74  36 2.75  63 2.89

  35  0.043  0.865  0.057-  36 2.40  24 2.51  66 2.52  23 2.67  34 2.73  48 2.84  72 2.85  56 2.85
                            62 3.00
  36  0.042  0.658  0.084-  48 2.40  35 2.40  53 2.47  21 2.51  72 2.75  34 2.75  28 2.90
  37  0.624  0.211  0.138-  59 2.38  62 2.40  67 2.45  46 2.46  68 2.48  74 2.55  20 2.56  66 2.66
                            41 2.68  54 2.71  47 2.99  51 3.04
  38  0.377  0.954  0.136-  63 2.36  45 2.39  56 2.40  58 2.42  80 2.45  73 2.50  78 2.54  57 2.61
                            47 2.77  70 2.82  51 2.87  24 2.93
  39  0.028  0.373  0.317-   7 2.59  31 2.61   5 2.61  65 2.62  10 2.64  42 2.64  29 2.67  22 2.68
                             3 2.75  75 2.76  33 2.82  43 3.01
  40  0.983  0.354  0.043-  69 2.31  76 2.42  21 2.50  23 2.54  70 2.62  71 2.63  45 3.12
  41  0.866  0.206  0.135-  77 2.42  76 2.43  67 2.44  62 2.46  65 2.52  23 2.55  69 2.55  66 2.57
                            70 2.65  37 2.68  24 2.84  54 2.87
  42  0.948  0.521  0.217-  53 2.52  69 2.54  64 2.55  65 2.57  29 2.58  39 2.64  28 2.65  21 2.66
                            32 2.70  33 2.74  31 2.83  52 2.97
  43  0.300  0.108  0.320-  58 2.47  55 2.52   8 2.60  31 2.60  80 2.61  10 2.64  13 2.64  61 2.66
                            19 2.69   3 2.73  22 2.74  39 3.01
  44  0.541  0.626  0.319-  14 2.57  27 2.58  78 2.60  26 2.62  15 2.62  55 2.63  32 2.64  61 2.72
                            29 2.81  75 2.83  18 2.96  30 3.15
  45  0.285  0.111  0.053-  38 2.39  70 2.47  47 2.48  56 2.53  63 2.71  20 2.87  23 2.93  40 3.12

  46  0.535  0.367  0.050-  54 2.40  50 2.43  37 2.46  74 2.47  76 2.54  62 2.67  72 2.72  20 2.79
                            49 2.82
  47  0.359  0.209  0.135-  50 2.40  68 2.41  45 2.48  20 2.51  31 2.57  80 2.60  21 2.66  74 2.74
                            38 2.77  70 2.92  37 2.99
  48  0.180  0.691  0.158-  79 2.40  36 2.40  72 2.41  64 2.41  73 2.49  28 2.55  24 2.66  74 2.70
                            35 2.84  26 2.99
  49  0.521  0.625  0.052-  54 2.35  73 2.38  71 2.44  57 2.44  72 2.53  56 2.78  46 2.82  76 2.90
                            63 2.95
  50  0.315  0.374  0.056-  74 2.35  47 2.40  46 2.43  21 2.54  72 2.65  20 2.71
  51  0.642  0.932  0.141-  34 2.33  52 2.34  63 2.45  59 2.53  53 2.55  80 2.56  20 2.64  57 2.67
                            66 2.78  38 2.87  37 3.04
  52  0.683  0.786  0.223-  51 2.34  78 2.41  57 2.48  61 2.52   1 2.52  53 2.55  29 2.59  80 2.65
                            32 2.68  28 2.85  42 2.97  59 3.12
  53  0.830  0.681  0.129-  57 2.36  71 2.40  36 2.47  42 2.52  52 2.55  51 2.55  28 2.56  69 2.59
                            34 2.60  21 3.03
  54  0.609  0.460  0.130-  49 2.35  46 2.40  76 2.41  26 2.55  74 2.58  32 2.60  67 2.61  69 2.68
[...]
      5.63380      3.63292      1.23723         0.066012      0.049180      0.014326
     12.43866      9.06023      3.09611         0.009645     -0.010119     -0.054726
     12.07766      7.63668      4.91324        -0.019366     -0.022144      0.022887
     13.13008      6.61689      2.83040        -0.046965      0.005550      0.004527
      9.41148      4.47169      2.86934         0.026096     -0.021193      0.024941
      8.51725      8.48918      7.02854         0.012453      0.030112      0.008045
      8.18243      8.58957      1.16315        -0.011927     -0.007620     -0.019274
     10.79405      6.97057      2.90238        -0.024029      0.012747      0.051144
      2.82111      0.14512      5.04740        -0.184934     -0.161757      0.057238
      8.14725      0.55026      4.88481         0.002004     -0.038888      0.086504
      9.38114      1.21625      6.88557         0.015820      0.002861     -0.008676
[...]
      9.60048      2.82018      4.87865        -0.035840      0.019842      0.046339
      6.60502      2.54502      4.87077        -0.027527     -0.026089      0.083542
     12.08196      4.24602      2.88896         0.001416      0.005180     -0.037513
      2.28916      1.82528      2.94996        -0.001056     -0.056208      0.051710
     11.76886      5.74999      1.05362         0.007905     -0.015286     -0.009824
      6.84033      5.98705      1.38644        -0.007118     -0.010513      0.015997
      8.30437      7.12497      3.00063         0.016716      0.057001      0.016989
      6.85459      4.22009      3.15394        -0.053045     -0.008682     -0.019825
     10.87410      3.57226      6.91001         0.012835     -0.010950     -0.024862
     10.60151      3.45495      1.03917         0.003140     -0.021817     -0.031415
     10.73179      0.68889      4.99664         0.024048     -0.007953      0.014116
      9.67006      7.71157      4.99333         0.023799      0.083533      0.164939
      7.17143      7.81748      5.18228         0.021276     -0.009193      0.049151
      5.29940      0.29561      4.91544         0.155362     -0.070132     -0.027755
      9.41451      7.45436      9.86895        -0.012044      0.047893      0.064285
    total drift:                                0.006868      0.046442      0.003916

  FREE ENERGIE OF THE ION-ELECTRON SYSTEM (eV)
  free  energy   TOTEN  =      -538.48325062 eV

  energy  without entropy=     -538.48325062  energy(sigma->0) =     -538.48325062

 d Force =-0.1391118E-03[-0.193E-02, 0.165E-02]  d Energy = 0.9012540E-04-0.229E-03
 d Force =-0.9547825E+01[-0.954E+01,-0.955E+01]  d Ewald  =-0.9548059E+01 0.235E-03

 Finite differences progress:
  Degree of freedom:   3/  3
  Displacement:        2/  2
  Total:               6/  6

 SECOND DERIVATIVES (NOT SYMMETRIZED)
              81X         81Y         81Z
 81X    -2.465760   -0.054573   -0.032719
 81Y    -0.079396   -1.209596   -0.956853
 81Z    -0.037254   -0.965233   -3.976539

 Eigenvectors and eigenvalues of the dynamical matrix

   1 f  =   32.339247 THz   203.193484 2PiTHz 1078.721145 cm-1   133.744424 meV
             X         Y         Z           dx          dy          dz
     13.667236  8.460856  6.692663            0           0           0
      5.210429  8.449000  6.586778            0           0           0
      5.158868  3.503057  6.842147            0           0           0
     15.137073  9.293396  8.923020            0           0           0
      3.802689  4.458463  9.025101            0           0           0
      6.708502  9.216208  8.838771            0           0           0
     12.253901  4.322755  9.052661            0           0           0
      9.542459  9.306285  9.185624            0           0           0
     10.910128  1.929961  8.919488            0           0           0
      2.530449  1.977166  9.044490            0           0           0
     12.342563  9.230865  9.096143            0           0           0
     13.734352  6.852299  9.043139            0           0           0
      5.286418  1.961815  9.141326            0           0           0
      8.026566  6.779228  8.940782            0           0           0
      9.500829  4.362471  8.988996            0           0           0
      5.236882  6.826709  8.962692            0           0           0
      8.120102  1.966016  9.051696            0           0           0
      8.086659  3.549746  6.762423            0           0           0
      6.654427  1.085725  6.891262            0           0           0
      6.688295  1.136239  1.168686            0           0           0
      3.544815  4.079031  2.606324            0           0           0
      1.255988  1.213120  6.736721            0           0           0
      0.891779  1.066852  0.946259            0           0           0
      6.656621  9.256763  3.212249            0           0           0
      6.669061  4.366142  9.009255            0           0           0
      8.211617  5.460551  4.885224            0           0           0
     10.935854  6.806644  9.103112            0           0           0
     14.890523  7.351400  4.544290            0           0           0
     12.394318  5.980719  6.881715            0           0           0
      6.455269  5.958663  6.732003            0           0           0
      3.610252  2.535671  4.929286            0           0           0
     10.876990  5.237100  4.877710            0           0           0
      3.857545  6.036462  6.840840            0           0           0
     13.839530  8.597276  1.298341            0           0           0
      5.335858  8.402881  1.254446            0           0           0
      4.162766  6.390812  1.850956            0           0           0
      8.191068  2.052729  3.033860            0           0           0
      9.581692  9.276024  2.994683            0           0           0
      2.410118  3.620646  6.979687            0           0           0
     13.017728  3.439534  0.942539            0           0           0
     10.870715  1.998388  2.967381            0           0           0
     13.568897  5.068175  4.770577            0           0           0
      3.972639  1.049060  7.035445            0           0           0
      9.590865  6.086835  7.017952            0           0           0
      3.816457  1.075428  1.161363            0           0           0
      8.061037  3.567708  1.100229            0           0           0
      5.203702  2.034191  2.978088            0           0           0
      5.895058  6.720214  3.475283            0           0           0
      9.353912  6.069883  1.148085            0           0           0
      5.633796  3.632923  1.237229            0           0           0
     12.438659  9.060229  3.096115            0           0           0
     12.077659  7.636682  4.913240            0           0           0
     13.130083  6.616886  2.830400            0           0           0
      9.411481  4.471689  2.869342            0           0           0
      8.517248  8.489175  7.028544            0           0           0
      8.182433  8.589571  1.163151            0           0           0
     10.794049  6.970573  2.902376            0           0           0
      2.821111  0.145122  5.047399            0           0           0
      8.147254  0.550263  4.884806            0           0           0
      9.381141  1.216250  6.885572            0           0           0
[...]
      9.600481  2.820176  4.878652            0           0           0
      6.605022  2.545022  4.870770            0           0           0
     12.081964  4.246017  2.888958            0           0           0
      2.289160  1.825282  2.949964            0           0           0
     11.768861  5.749988  1.053620            0           0           0
      6.840329  5.987054  1.386442            0           0           0
      8.304374  7.124975  3.000625            0           0           0
      6.854587  4.220090  3.153943            0           0           0
     10.874102  3.572261  6.910010            0           0           0
     10.601515  3.454949  1.039167            0           0           0
     10.731789  0.688887  4.996638            0           0           0
      9.670061  7.711567  4.993331            0           0           0
      7.171427  7.817478  5.182281            0           0           0
      5.299396  0.295606  4.915438            0           0           0
      9.414509  7.454357  9.883952     0.029454    0.299242    0.953723

[...]

   3 f  =   14.886285 THz    93.533287 2PiTHz  496.553000 cm-1    61.564748 meV
             X         Y         Z           dx          dy          dz
     13.667236  8.460856  6.692663            0           0           0
      5.210429  8.449000  6.586778            0           0           0
      5.158868  3.503057  6.842147            0           0           0
     15.137073  9.293396  8.923020            0           0           0
      3.802689  4.458463  9.025101            0           0           0
      6.708502  9.216208  8.838771            0           0           0
     12.253901  4.322755  9.052661            0           0           0
      9.542459  9.306285  9.185624            0           0           0
     10.910128  1.929961  8.919488            0           0           0
      2.530449  1.977166  9.044490            0           0           0
     12.342563  9.230865  9.096143            0           0           0
     13.734352  6.852299  9.043139            0           0           0
      5.286418  1.961815  9.141326            0           0           0
      8.026566  6.779228  8.940782            0           0           0
      9.500829  4.362471  8.988996            0           0           0
      5.236882  6.826709  8.962692            0           0           0
      8.120102  1.966016  9.051696            0           0           0
      8.086659  3.549746  6.762423            0           0           0
      6.654427  1.085725  6.891262            0           0           0
      6.688295  1.136239  1.168686            0           0           0
      3.544815  4.079031  2.606324            0           0           0
      1.255988  1.213120  6.736721            0           0           0
      0.891779  1.066852  0.946259            0           0           0
      6.656621  9.256763  3.212249            0           0           0
      6.669061  4.366142  9.009255            0           0           0
      8.211617  5.460551  4.885224            0           0           0
     10.935854  6.806644  9.103112            0           0           0
     14.890523  7.351400  4.544290            0           0           0
     12.394318  5.980719  6.881715            0           0           0
      6.455269  5.958663  6.732003            0           0           0
      3.610252  2.535671  4.929286            0           0           0
     10.876990  5.237100  4.877710            0           0           0
      3.857545  6.036462  6.840840            0           0           0
     13.839530  8.597276  1.298341            0           0           0
      5.335858  8.402881  1.254446            0           0           0
      4.162766  6.390812  1.850956            0           0           0
      8.191068  2.052729  3.033860            0           0           0
      9.581692  9.276024  2.994683            0           0           0
      2.410118  3.620646  6.979687            0           0           0
     13.017728  3.439534  0.942539            0           0           0
     10.870715  1.998388  2.967381            0           0           0
     13.568897  5.068175  4.770577            0           0           0
      3.972639  1.049060  7.035445            0           0           0
      9.590865  6.086835  7.017952            0           0           0
      3.816457  1.075428  1.161363            0           0           0
      8.061037  3.567708  1.100229            0           0           0
      5.203702  2.034191  2.978088            0           0           0
      5.895058  6.720214  3.475283            0           0           0
      9.353912  6.069883  1.148085            0           0           0
      5.633796  3.632923  1.237229            0           0           0
     12.438659  9.060229  3.096115            0           0           0
     12.077659  7.636682  4.913240            0           0           0
     13.130083  6.616886  2.830400            0           0           0
      9.411481  4.471689  2.869342            0           0           0
      8.517248  8.489175  7.028544            0           0           0
      8.182433  8.589571  1.163151            0           0           0
     10.794049  6.970573  2.902376            0           0           0
      2.821111  0.145122  5.047399            0           0           0
      8.147254  0.550263  4.884806            0           0           0
      9.381141  1.216250  6.885572            0           0           0
[...]
      9.600481  2.820176  4.878652            0           0           0
      6.605022  2.545022  4.870770            0           0           0
     12.081964  4.246017  2.888958            0           0           0
      2.289160  1.825282  2.949964            0           0           0
     11.768861  5.749988  1.053620            0           0           0
      6.840329  5.987054  1.386442            0           0           0
      8.304374  7.124975  3.000625            0           0           0
      6.854587  4.220090  3.153943            0           0           0
     10.874102  3.572261  6.910010            0           0           0
     10.601515  3.454949  1.039167            0           0           0
     10.731789  0.688887  4.996638            0           0           0
      9.670061  7.711567  4.993331            0           0           0
      7.171427  7.817478  5.182281            0           0           0
      5.299396  0.295606  4.915438            0           0           0
      9.414509  7.454357  9.883952    -0.034291    0.953877   -0.298231

 Finite differences POTIM=  1.500000000000000E-002
  LATTYP: Found a hexagonal cell.
 ALAT       =    11.2227001190
 C/A-ratio  =     1.9603125600

  Lattice vectors:

 A1 = (   5.6113500595,  -9.7191434021,   0.0000000000)
 A2 = ( -11.2227001190,   0.0000000000,   0.0000000000)
 A3 = (   0.0000000000,   0.0000000000, -22.0000000000)

Analysis of symmetry for initial positions (statically):
 Subroutine PRICEL returns:
 Original cell was already a primitive cell.

[...]

The static configuration has the point symmetry C_1 .

Analysis of symmetry for dynamics (positions and initial velocities):
 Subroutine PRICEL returns:
 Original cell was already a primitive cell.

[...]

The dynamic configuration has the point symmetry C_1 .

Analysis of constrained symmetry for selective dynamics:
 Subroutine PRICEL returns:
 Original cell was already a primitive cell.

[...]

The constrained configuration has the point symmetry C_1 .

Analysis of structural, dynamic, and magnetic symmetry:
 Subroutine PRICEL returns:
 Original cell was already a primitive cell.

 Routine SETGRP: Setting up the symmetry group for a
 hexagonal supercell.

 Subroutine GETGRP returns: Found  1 space group operations
 (whereof  1 operations were pure point group operations)
 out of a pool of 24 trial point group operations.

The magnetic configuration has the point symmetry C_1 .

 Subroutine INISYM returns: Found  1 space group operations
 (whereof  1 operations are pure point group operations),
 and found     1 'primitive' translations

 KPOINTS: mesh auto

Automatic generation of k-mesh.
Space group operators:
 irot       det(A)        alpha          n_x          n_y          n_z        tau_x        tau_y        tau_z
    1     1.000000     0.000000     1.000000     0.000000     0.000000     0.000000     0.000000     0.000000

 Subroutine IBZKPT returns following result:

 Found      4 irreducible k-points:

 Following reciprocal coordinates:
            Coordinates               Weight
  0.000000  0.000000  0.000000      1.000000
  0.500000  0.000000  0.000000      1.000000
  0.000000  0.500000  0.000000      1.000000
  0.500000  0.500000  0.000000      1.000000

 Following cartesian coordinates:
            Coordinates               Weight
  0.000000  0.000000  0.000000      1.000000
  0.044553 -0.025722  0.000000      1.000000
  0.000000  0.051445  0.000000      1.000000
  0.044553  0.025722  0.000000      1.000000

 TETIRR: Found     12 inequivalent tetrahedra from       24
 BZINTS: Fermi energy:  1.359767;754.000000 electrons
         Band energy:***********;  BLOECHL correction: -0.245085