 vasp.5.4.4.18Apr17-6-g9f103f2a35 (build Oct 25 2019 11:13:22) complex

 executed on             LinuxIFC date 2022.02.22  04:45:16

 INCAR:
 POTCAR:    PAW_PBE Pt 04Feb2005
 POTCAR:    PAW_PBE Fe 06Sep2000
 POTCAR:    PAW_PBE Co 02Aug2007
 POTCAR:    PAW_PBE Cu 22Jun2005
 POTCAR:    PAW_PBE Ni 02Aug2007
 POTCAR:    PAW_PBE O 08Apr2002
 POTCAR:    PAW_PBE Pt 04Feb2005
   VRHFIN =Pt: s1d9

   TITEL  = PAW_PBE Pt 04Feb2005
   POMASS =  195.080; ZVAL   =   10.000    mass and valenz
   ENMAX  =  230.283; ENMIN  =  172.712 eV

 POTCAR:    PAW_PBE Fe 06Sep2000
   VRHFIN =Fe:  d7 s1

   TITEL  = PAW_PBE Fe 06Sep2000
   POMASS =   55.847; ZVAL   =    8.000    mass and valenz
   ENMAX  =  267.882; ENMIN  =  200.911 eV

 POTCAR:    PAW_PBE Co 02Aug2007
   VRHFIN =Co: d8 s1

   TITEL  = PAW_PBE Co 02Aug2007
   POMASS =   58.933; ZVAL   =    9.000    mass and valenz
   ENMAX  =  267.968; ENMIN  =  200.976 eV

 POTCAR:    PAW_PBE Cu 22Jun2005
   VRHFIN =Cu: d10 p1

   TITEL  = PAW_PBE Cu 22Jun2005
   POMASS =   63.546; ZVAL   =   11.000    mass and valenz
   ENMAX  =  295.446; ENMIN  =  221.585 eV

 POTCAR:    PAW_PBE Ni 02Aug2007
   VRHFIN =Ni:

   TITEL  = PAW_PBE Ni 02Aug2007
   POMASS =   58.690; ZVAL   =   10.000    mass and valenz
   ENMAX  =  269.532; ENMIN  =  202.149 eV

 POTCAR:    PAW_PBE O 08Apr2002
   VRHFIN =O: s2p4

   TITEL  = PAW_PBE O 08Apr2002
   POMASS =   16.000; ZVAL   =    6.000    mass and valenz
   ENMAX  =  400.000; ENMIN  =  300.000 eV

 Optimization of the real space projectors (new method)

 maximal supplied QI-value         = 14.36
 optimisation between [QCUT,QGAM] = [ 11.92, 23.98] = [ 39.79,161.09] Ry
 Optimized for a Real-space Cutoff    1.49 Angstroem

   l    n(q)    QCUT    max X(q) W(low)/X(q) W(high)/X(q)  e(spline)
   2     10    11.920    66.195    0.79E-04    0.18E-03    0.24E-06
   2     10    11.920    64.643    0.81E-04    0.19E-03    0.24E-06
   0     11    11.920    95.520    0.28E-04    0.54E-04    0.18E-06
   0     11    11.920    63.403    0.27E-04    0.52E-04    0.17E-06
   1     10    11.920    19.961    0.18E-04    0.11E-03    0.23E-06
   1     10    11.920    13.289    0.25E-04    0.87E-04    0.19E-06
 Optimization of the real space projectors (new method)

[...]

   l    n(q)    QCUT    max X(q) W(low)/X(q) W(high)/X(q)  e(spline)
   2      9    11.864    60.317    0.21E-03    0.51E-03    0.25E-06
   2      9    11.864    55.921    0.21E-03    0.51E-03    0.26E-06
   0      9    11.864    51.690    0.22E-03    0.30E-04    0.17E-06
   0      9    11.864    30.015    0.20E-03    0.28E-04    0.15E-06
   1      9    11.864    18.849    0.76E-04    0.33E-03    0.17E-06
   1      9    11.864    14.624    0.60E-04    0.28E-03    0.15E-06
 Optimization of the real space projectors (new method)

 maximal supplied QI-value         = 24.76
 optimisation between [QCUT,QGAM] = [ 11.88, 24.01] = [ 39.54,161.47] Ry
 Optimized for a Real-space Cutoff    1.18 Angstroem

   l    n(q)    QCUT    max X(q) W(low)/X(q) W(high)/X(q)  e(spline)
   0      8    11.883    20.381    0.86E-04    0.11E-03    0.31E-06
   0      8    11.883    15.268    0.94E-04    0.12E-03    0.33E-06
   1      8    11.883     5.964    0.19E-03    0.18E-04    0.33E-06
   1      8    11.883     5.382    0.17E-03    0.20E-04    0.29E-06
  PAW_PBE Pt 04Feb2005                  :
  PAW_PBE Fe 06Sep2000                  :
  PAW_PBE Co 02Aug2007                  :
  PAW_PBE Cu 22Jun2005                  :
  PAW_PBE Ni 02Aug2007                  :
  PAW_PBE O 08Apr2002                   :

 POSCAR: 10.56
  positions in direct lattice
  velocities in cartesian coordinates
 exchange correlation table for  LEXCH =        8
   RHO(1)=    0.500       N(1)  =     2000
   RHO(2)=  100.500       N(2)  =     4000

 ion  position               nearest neighbor table
   1  0.788  0.878  0.317-  28 2.61  49 2.62  19 2.64  33 2.65  59 2.65  61 2.66  29 2.67  60 2.68
                             2 2.72   4 2.77  11 2.78  12 2.84
   2  0.044  0.881  0.317-  79 2.56  30 2.62  77 2.62  60 2.63  52 2.65  28 2.67  33 2.67  22 2.68
                             1 2.72   4 2.82   6 2.89  16 3.13
   3  0.279  0.380  0.320-  39 2.56  64 2.57  33 2.59  31 2.63  30 2.70  19 2.70  43 2.72  68 2.72
                             5 2.78  13 2.80  18 2.82  25 2.83
   4  0.868  0.965  0.422-  17 2.58  11 2.60   9 2.65  12 2.67   6 2.70  16 2.76  60 2.77   1 2.77
                             2 2.82
   5  0.122  0.463  0.428-  16 2.61  12 2.62   7 2.63  10 2.63  25 2.66  13 2.67  33 2.71  39 2.74
                             3 2.78
   6  0.122  0.967  0.429-  81 2.10  10 2.61   9 2.64   8 2.65   4 2.70  14 2.73  16 2.75   2 2.89
                            22 2.93  52 2.94
   7  0.875  0.460  0.427-   9 2.61  15 2.62   5 2.63  10 2.63  12 2.63  27 2.65  39 2.69  75 2.78
                            29 2.79
   8  0.376  0.960  0.419-  43 2.58  11 2.62  13 2.62  14 2.62  27 2.63   6 2.65  10 2.66  52 2.70
                            61 2.70
   9  0.871  0.214  0.420-  15 2.59   7 2.61  17 2.63   6 2.64   4 2.65  75 2.66  10 2.68  60 2.72
                            22 2.80
  10  0.125  0.212  0.422-   6 2.61  13 2.61   5 2.63   7 2.63   8 2.66  39 2.66   9 2.68  43 2.73
                            22 2.77
  11  0.624  0.960  0.424-   4 2.60   8 2.62  27 2.63  13 2.63  12 2.64  17 2.65   1 2.78  19 2.83
                            61 2.84
  12  0.874  0.710  0.426-   5 2.62  27 2.63   7 2.63  11 2.64  16 2.66   4 2.67  33 2.67  29 2.80
                             1 2.84
  13  0.374  0.209  0.425-  10 2.61   8 2.62  11 2.63  25 2.65  17 2.65   5 2.67  43 2.77   3 2.80
                            19 2.83
  14  0.381  0.709  0.422-  81 2.19  27 2.58  15 2.61   8 2.62  44 2.65  25 2.67   6 2.73  16 2.74
                            30 2.74  52 2.75
  15  0.627  0.461  0.423-   9 2.59  14 2.61   7 2.62  27 2.63  17 2.65  25 2.66  44 2.70  75 2.72
                            18 2.76
  16  0.126  0.706  0.439-  81 2.02   5 2.61  25 2.64  12 2.66  14 2.74   6 2.75   4 2.76  33 2.90
                            30 3.04   2 3.13
  17  0.624  0.211  0.423-   4 2.58  25 2.62   9 2.63  13 2.65  15 2.65  11 2.65  18 2.77  60 2.80
                            19 2.87
  18  0.548  0.375  0.317-  67 2.56  60 2.59  75 2.61  44 2.64  68 2.65  26 2.67  30 2.71  19 2.73
                            15 2.76  17 2.77   3 2.82  25 2.86
  19  0.535  0.124  0.315-  80 2.55  43 2.57  68 2.57  59 2.60   1 2.64  61 2.64   3 2.70  18 2.73
                            60 2.76  13 2.83  11 2.83  17 2.87
  20  0.547  0.124  0.040-  37 2.55  57 2.56  48 2.58  62 2.64  63 2.68  47 2.68  45 2.68  56 2.70
                            34 2.71
  21  0.121  0.460  0.128-  40 2.52  36 2.53  47 2.53  42 2.60  69 2.61  64 2.62  70 2.64  50 2.64
                            58 2.67  31 2.70  57 2.71  74 2.72
  22  0.045  0.134  0.315-  55 2.54  65 2.55  43 2.57  77 2.59  39 2.59  75 2.61   2 2.68  60 2.68
                            52 2.71  10 2.77   9 2.80   6 2.93  31 3.42
  23  0.042  0.130  0.033-  70 2.58  40 2.60  41 2.61  45 2.62  62 2.64  76 2.64  24 2.69  35 2.73
                            53 2.78
  24  0.130  0.958  0.132-  79 2.51  77 2.54  35 2.57  53 2.57  55 2.58  70 2.62  38 2.64  58 2.64
                            73 2.65  23 2.69  66 2.70  41 2.72
  25  0.375  0.459  0.426-  17 2.62  16 2.64  13 2.65   5 2.66  15 2.66  14 2.67  30 2.82   3 2.83
                            18 2.86
  26  0.455  0.546  0.219-  73 2.50  74 2.54  51 2.56  79 2.61  64 2.63  18 2.67  68 2.67  78 2.67
                            30 2.67  32 2.68  67 2.72  44 2.75
  27  0.624  0.711  0.424-  14 2.58   8 2.63  15 2.63  11 2.63  12 2.63   7 2.65  44 2.71  61 2.79
                            29 2.79
  28  0.956  0.790  0.221-  58 2.57  66 2.57  50 2.58  42 2.59  49 2.61   1 2.61  64 2.63   2 2.67
                            59 2.70  33 2.73  79 2.76  77 2.77
  29  0.794  0.622  0.319-  39 2.54  42 2.56  75 2.58  32 2.61  44 2.64  33 2.65   1 2.67  61 2.67
                            49 2.69   7 2.79  27 2.79  12 2.80
  30  0.290  0.631  0.319-  79 2.58  52 2.61  64 2.61   2 2.62  33 2.64  44 2.64  26 2.67   3 2.70
                            18 2.71  14 2.74  25 2.82  16 3.04
  31  0.203  0.281  0.225-  70 2.52  55 2.56  65 2.57  43 2.60  57 2.60   3 2.63  39 2.66  80 2.70
                            21 2.70  42 2.71  68 2.75  64 2.79  22 3.42
  32  0.706  0.549  0.221-  54 2.53  69 2.56  51 2.58  49 2.59  42 2.60  29 2.61  78 2.62  65 2.63
                            26 2.68  44 2.69  75 2.69  67 2.70
  33  0.040  0.630  0.326-   3 2.59  30 2.64  39 2.64   1 2.65  29 2.65  12 2.67   2 2.67  64 2.71
                             5 2.71  28 2.73  42 2.74  16 2.90
  34  0.797  0.862  0.042-  50 2.38  66 2.51  48 2.53  36 2.55  71 2.56  63 2.61  20 2.71  35 2.76
                            62 2.76
  35  0.056  0.866  0.038-  58 2.54  72 2.55  36 2.56  24 2.57  66 2.62  53 2.65  23 2.73  62 2.73
                            34 2.76
  36  0.046  0.628  0.037-  21 2.53  34 2.55  35 2.56  58 2.58  50 2.61  47 2.63  72 2.64  40 2.69
                            71 2.72
  37  0.627  0.222  0.129-  51 2.51  74 2.51  67 2.52  56 2.53  41 2.55  20 2.55  68 2.56  59 2.56
                            62 2.59  66 2.66  57 2.73  48 2.89
  38  0.382  0.955  0.130-  53 2.47  80 2.48  45 2.49  78 2.53  48 2.54  73 2.55  63 2.55  54 2.56
                            55 2.59  57 2.62  24 2.64  70 2.67
  39  0.036  0.382  0.324-  29 2.54   3 2.56  75 2.58  22 2.59  33 2.64  10 2.66  31 2.66  42 2.67
                             7 2.69   5 2.74  65 2.75  43 2.79
  40  0.031  0.382  0.038-  69 2.44  21 2.52  71 2.53  76 2.56  70 2.57  23 2.60  36 2.69  45 2.78
                            47 2.78
  41  0.872  0.215  0.128-  76 2.45  65 2.52  77 2.53  67 2.54  37 2.55  69 2.57  62 2.57  51 2.59
                            23 2.61  70 2.65  66 2.66  24 2.72
  42  0.955  0.545  0.224-  29 2.56  50 2.56  28 2.59  21 2.60  32 2.60  69 2.61  49 2.63  65 2.64
                            64 2.65  39 2.67  31 2.71  33 2.74
  43  0.297  0.115  0.321-  55 2.53  52 2.54  61 2.56  19 2.57  22 2.57   8 2.58  31 2.60  80 2.66
                             3 2.72  10 2.73  13 2.77  39 2.79
  44  0.541  0.629  0.322-  61 2.56  52 2.58  78 2.64  29 2.64  18 2.64  30 2.64  14 2.65  75 2.66
                            32 2.69  15 2.70  27 2.71  26 2.75
  45  0.295  0.119  0.039-  70 2.49  38 2.49  57 2.57  53 2.60  23 2.62  63 2.64  20 2.68  47 2.75
                            40 2.78
  46  0.548  0.625  0.044-  51 2.38  73 2.39  54 2.41  71 2.56  53 2.56  63 2.58  76 2.59  56 2.62
                            72 2.64
  47  0.296  0.379  0.039-  74 2.41  21 2.53  57 2.61  72 2.61  56 2.62  36 2.63  20 2.68  45 2.75
                            40 2.78
  48  0.625  0.950  0.132-  49 2.40  80 2.48  54 2.48  34 2.53  38 2.54  59 2.55  50 2.56  63 2.57
                            20 2.58  57 2.65  66 2.68  37 2.89
  49  0.706  0.794  0.220-  48 2.40  50 2.48  54 2.49  80 2.53  32 2.59  28 2.61  78 2.61   1 2.62
                            61 2.62  42 2.63  29 2.69  59 2.69
[...]
   0.387E+02 -.130E+02 -.151E+04   -.404E+02 0.133E+02 0.151E+04   0.169E+01 -.351E+00 0.204E+01   -.191E-01 -.666E-02 -.329E-01
   0.179E+02 0.503E+01 -.288E+04   -.186E+02 -.457E+01 0.288E+04   0.793E+00 -.417E+00 0.825E+00   -.123E-01 0.477E-02 0.189E-01
   0.632E+01 0.266E+02 -.289E+04   -.658E+01 -.261E+02 0.289E+04   0.270E+00 -.448E+00 0.132E+01   -.149E-01 -.834E-02 -.187E-01
   0.325E+01 -.880E+02 -.273E+04   -.330E+01 0.904E+02 0.273E+04   0.608E-01 -.244E+01 0.112E+01   0.235E-01 -.739E-02 -.568E-03
   -.147E+02 -.236E+01 -.294E+04   0.149E+02 0.210E+01 0.294E+04   -.216E+00 0.221E+00 0.129E+01   0.112E-01 0.184E-01 -.139E-01
   -.122E+02 -.365E+02 -.287E+04   0.127E+02 0.369E+02 0.287E+04   -.558E+00 -.372E+00 0.205E+01   0.233E-01 0.710E-02 -.883E-02
   -.126E+02 -.762E+01 -.292E+04   0.122E+02 0.819E+01 0.292E+04   0.361E+00 -.588E+00 0.104E+01   0.355E-02 0.241E-02 0.318E-01
   -.166E+02 -.150E+02 -.289E+04   0.172E+02 0.159E+02 0.289E+04   -.604E+00 -.842E+00 0.156E+01   0.272E-01 0.705E-02 0.467E-02
   -.352E+01 -.869E+01 -.293E+04   0.375E+01 0.858E+01 0.293E+04   -.245E+00 0.696E-01 0.587E+00   -.274E-01 -.445E-02 -.418E-02
   0.193E+02 0.486E+01 -.289E+04   -.189E+02 -.510E+01 0.289E+04   -.375E+00 0.254E+00 0.957E+00   -.181E-01 -.232E-01 -.223E-01
   -.187E+01 -.141E+02 -.291E+04   0.146E+01 0.137E+02 0.291E+04   0.445E+00 0.337E+00 0.719E+00   -.209E-01 0.333E-02 -.168E-01
   -.640E+02 0.691E+02 -.283E+04   0.668E+02 -.706E+02 0.283E+04   -.276E+01 0.148E+01 0.198E+01   0.208E-01 -.193E-01 -.744E-01
   0.965E+01 0.308E+01 -.289E+04   -.934E+01 -.298E+01 0.289E+04   -.322E+00 -.522E-01 0.114E+01   -.866E-02 0.305E-01 -.171E-01
   0.899E+02 0.635E+02 -.290E+04   -.925E+02 -.652E+02 0.290E+04   0.258E+01 0.177E+01 0.126E+01   -.696E-03 -.267E-01 -.131E-01
   0.288E+02 -.826E+01 -.293E+04   -.286E+02 0.839E+01 0.293E+04   -.158E+00 -.173E+00 0.974E+00   -.781E-02 0.205E-01 -.332E-02
   0.700E+02 -.699E+02 -.150E+04   -.688E+02 0.702E+02 0.150E+04   -.117E+01 -.296E+00 0.173E+01   -.332E-02 0.727E-02 -.177E-01
   0.302E+02 -.441E+02 -.150E+04   -.314E+02 0.438E+02 0.150E+04   0.110E+01 0.402E+00 0.260E+01   -.269E-01 -.172E-01 -.489E-01
   0.333E+02 0.315E+02 0.304E+04   -.335E+02 -.317E+02 -.304E+04   0.140E+00 0.153E+00 -.237E+01   0.114E-01 -.461E-01 0.197E-01
   0.351E+02 -.901E+01 0.161E+04   -.360E+02 0.972E+01 -.161E+04   0.921E+00 -.643E+00 0.897E+00   -.263E-01 0.134E-01 0.236E-01
   -.703E+02 -.251E+01 -.146E+04   0.712E+02 0.239E+01 0.146E+04   -.841E+00 0.148E+00 0.175E+01   0.235E-01 -.123E-01 -.627E-01
   -.542E+02 0.513E+02 0.309E+04   0.548E+02 -.502E+02 -.309E+04   -.676E+00 -.943E+00 -.204E+01   -.124E-01 -.376E-01 0.185E-01
   0.456E+00 -.527E+02 0.161E+04   -.190E+00 0.522E+02 -.161E+04   -.301E+00 0.346E+00 -.751E+00   -.182E-01 0.519E-02 -.780E-02
   0.391E+01 0.303E+02 -.287E+04   -.415E+01 -.308E+02 0.287E+04   0.235E+00 0.498E+00 0.706E+00   0.648E-02 0.147E-01 -.293E-01
   -.175E+02 -.999E+01 0.264E+02   0.176E+02 0.102E+02 -.279E+02   -.204E+00 -.202E+00 0.161E+01   -.115E-01 0.542E-02 0.253E-02
   -.294E+02 0.119E+02 -.291E+04   0.294E+02 -.120E+02 0.291E+04   0.503E-01 0.170E+00 0.118E+01   -.914E-02 -.758E-02 -.301E-01
   0.169E+02 0.710E+02 0.232E+02   -.178E+02 -.722E+02 -.236E+02   0.109E+01 0.104E+01 0.311E+00   -.210E-01 -.270E-02 -.438E-01
   -.700E+02 0.101E+02 -.146E+04   0.704E+02 -.113E+02 0.146E+04   -.379E+00 0.125E+01 0.286E+01   0.103E-01 0.189E-02 -.377E-01
   0.400E+02 0.272E+02 -.154E+04   -.398E+02 -.263E+02 0.154E+04   -.270E+00 -.848E+00 0.235E+01   -.794E-03 -.219E-01 -.319E-01
   0.212E+02 -.664E+02 -.563E+02   -.223E+02 0.658E+02 0.566E+02   0.105E+01 0.559E+00 -.305E+00   -.588E-02 -.216E-01 -.158E-01
   -.229E+02 -.220E+02 0.270E+02   0.236E+02 0.227E+02 -.276E+02   -.829E+00 -.778E+00 0.651E+00   0.361E-01 0.223E-01 -.174E-01
   0.133E+02 0.139E+02 -.125E+04   -.131E+02 -.142E+02 0.125E+04   -.166E+00 0.329E+00 0.232E+00   -.933E-02 -.183E-01 -.306E-01
   -.600E+02 -.255E+01 0.244E+04   0.603E+02 0.127E+01 -.244E+04   -.450E+00 0.130E+01 -.268E+01   0.216E-01 0.331E-02 0.221E-01
   0.306E+02 -.139E+02 0.247E+04   -.305E+02 0.125E+02 -.247E+04   -.980E-01 0.144E+01 -.230E+01   -.174E-01 0.348E-02 0.711E-02
   0.227E+02 -.403E+01 0.248E+04   -.229E+02 0.449E+01 -.247E+04   0.212E+00 -.542E+00 -.288E+01   0.167E-02 0.494E-01 0.119E-01
   0.701E+01 0.517E+02 0.130E+04   -.614E+01 -.510E+02 -.130E+04   -.917E+00 -.697E+00 -.126E+00   -.301E-02 -.370E-01 0.510E-02
   0.340E+02 -.547E+02 0.129E+04   -.338E+02 0.544E+02 -.129E+04   -.139E+00 0.238E+00 -.413E+00   0.151E-01 0.192E-01 0.219E-01
   -.553E+02 -.270E+02 -.121E+04   0.554E+02 0.271E+02 0.121E+04   -.144E+00 -.222E+00 0.746E+00   0.174E-01 0.670E-02 -.287E-01
   -.935E+02 0.204E+02 0.248E+04   0.932E+02 -.202E+02 -.248E+04   0.288E+00 -.213E+00 -.262E+01   -.671E-03 -.956E-03 0.172E-01
   -.339E+02 0.464E+02 0.131E+04   0.331E+02 -.459E+02 -.131E+04   0.819E+00 -.550E+00 -.406E+00   0.179E-01 -.277E-01 0.595E-02
   -.487E+02 0.169E+01 -.310E+02   0.485E+02 -.131E+01 0.309E+02   0.273E+00 -.426E+00 0.292E-02   -.311E-02 0.109E-01 -.199E-01
   0.123E+02 -.851E+02 -.122E+04   -.124E+02 0.849E+02 0.122E+04   0.948E-01 0.250E+00 0.106E+01   0.110E-01 0.806E-02 -.430E-01
   0.115E+02 0.341E+02 -.121E+04   -.120E+02 -.339E+02 0.121E+04   0.480E+00 -.307E+00 0.770E-01   0.912E-02 -.928E-03 -.518E-02
   0.147E+02 -.467E+02 0.246E+04   -.153E+02 0.460E+02 -.245E+04   0.708E+00 0.706E+00 -.276E+01   -.783E-02 -.117E-01 0.193E-01
   0.459E+01 -.196E+02 0.276E+04   -.457E+01 0.197E+02 -.276E+04   -.112E-01 -.167E+00 -.232E+01   0.544E-02 0.217E-01 0.574E-02
   0.119E+03 0.290E+02 0.280E+04   -.120E+03 -.282E+02 -.279E+04   0.493E+00 -.721E+00 -.236E+01   -.113E-01 0.404E-02 0.724E-02
   -.368E+02 -.276E+02 0.144E+04   0.363E+02 0.266E+02 -.144E+04   0.437E+00 0.109E+01 -.441E+00   0.453E-02 -.191E-01 0.166E-01
   -.623E+02 0.692E+02 0.446E+02   0.623E+02 -.691E+02 -.454E+02   -.315E-01 -.246E+00 0.799E+00   0.570E-02 0.155E-01 -.378E-01
   -.896E+02 0.196E+02 0.142E+04   0.891E+02 -.192E+02 -.142E+04   0.525E+00 -.486E+00 -.104E+00   -.458E-02 0.272E-01 0.823E-02
   -.205E+02 0.949E+01 0.140E+04   0.207E+02 -.970E+01 -.140E+04   -.182E+00 0.303E+00 -.610E-01   0.157E-01 -.955E-02 0.258E-01
   0.437E+02 0.103E+02 -.136E+04   -.435E+02 -.106E+02 0.136E+04   -.371E+00 0.350E+00 0.161E+01   0.112E-01 0.934E-02 -.366E-01
   0.531E+02 -.806E+02 0.277E+04   -.528E+02 0.805E+02 -.277E+04   -.303E+00 0.167E+00 -.240E+01   -.393E-01 0.258E-01 0.773E-02
   -.141E+02 0.234E+01 0.139E+04   0.141E+02 -.216E+01 -.139E+04   -.112E+00 -.265E+00 -.436E+00   0.516E-01 0.385E-01 0.291E-01
   0.200E+02 -.720E+02 0.471E+01   -.192E+02 0.715E+02 -.443E+01   -.831E+00 0.603E+00 -.313E+00   0.120E-01 0.201E-01 -.379E-01
   0.310E+02 0.340E+02 0.345E+04   -.311E+02 -.331E+02 -.344E+04   0.376E-01 -.899E+00 -.356E+01   -.888E-02 -.252E-01 -.816E-02
   0.634E+02 0.753E+01 0.176E+04   -.635E+02 -.817E+01 -.176E+04   0.115E+00 0.706E+00 -.146E+00   -.149E-01 -.473E-01 0.355E-01
   0.102E+03 -.308E+02 0.173E+04   -.102E+03 0.307E+02 -.173E+04   -.157E+00 0.258E-01 0.578E-01   -.258E-01 0.431E-01 -.244E-01
   0.139E+02 0.705E+02 0.109E+03   -.144E+02 -.704E+02 -.110E+03   0.524E+00 -.197E+00 0.698E+00   -.297E-01 -.349E-01 -.401E-01
   0.176E+02 0.517E+02 -.168E+04   -.172E+02 -.513E+02 0.167E+04   -.385E+00 -.466E+00 0.148E+01   -.113E-01 -.594E-02 -.537E-01
[...]
   0.576E+02 -.395E+02 0.280E+02   -.570E+02 0.391E+02 -.283E+02   -.648E+00 0.414E+00 0.304E+00   -.265E-01 -.266E-01 -.870E-02
   -.743E+02 0.128E+01 0.156E+04   0.738E+02 -.116E+01 -.156E+04   0.413E+00 -.559E-01 -.266E-01   0.309E-01 0.802E-02 0.244E-01
   -.124E+02 0.190E+02 0.163E+04   0.128E+02 -.192E+02 -.163E+04   -.376E+00 0.228E+00 -.477E+00   -.269E-02 -.148E-01 0.222E-01
   -.101E+03 -.413E+01 0.309E+04   0.101E+03 0.421E+01 -.309E+04   -.527E+00 -.669E-01 -.139E+01   0.434E-01 0.316E-01 0.269E-01
   0.704E+02 -.524E+02 0.309E+04   -.708E+02 0.530E+02 -.309E+04   0.395E+00 -.594E+00 -.835E+00   -.471E-01 0.538E-01 -.375E-02
   0.160E+02 -.398E+02 0.156E+04   -.156E+02 0.396E+02 -.156E+04   -.425E+00 0.251E+00 0.102E-01   -.238E-01 0.373E-01 0.154E-01
   0.519E+02 0.136E+01 0.160E+04   -.514E+02 -.135E+01 -.161E+04   -.490E+00 0.412E-01 -.133E+00   -.200E-01 0.755E-02 0.188E-01
   -.411E+02 -.756E+02 -.151E+04   0.410E+02 0.757E+02 0.151E+04   0.134E+00 -.567E-01 0.851E+00   0.806E-02 0.234E-01 -.326E-01
   -.541E+02 0.295E+02 0.307E+04   0.545E+02 -.290E+02 -.307E+04   -.434E+00 -.544E+00 -.195E+01   0.250E-01 -.295E-01 0.117E-01
   -.479E+02 0.742E+02 0.948E+02   0.483E+02 -.738E+02 -.951E+02   -.334E+00 -.463E+00 0.281E+00   0.143E-01 -.119E-01 -.403E-01
   0.394E+00 0.639E+02 0.259E+02   -.433E+00 -.632E+02 -.260E+02   0.468E-01 -.880E+00 -.516E-01   0.303E-01 0.361E-01 -.268E-01
   0.517E+02 0.112E+02 -.105E+02   -.513E+02 -.108E+02 0.105E+02   -.365E+00 -.541E+00 0.860E-01   -.162E-01 0.191E-01 -.373E-01
   0.243E+02 -.521E+02 0.576E+02   -.247E+02 0.517E+02 -.578E+02   0.350E+00 0.481E+00 0.172E+00   0.340E-02 -.802E-02 -.300E-01
   -.222E+02 -.308E+02 -.200E+04   0.256E+02 0.340E+02 0.203E+04   -.334E+01 -.320E+01 -.308E+02   -.290E-02 0.149E-01 0.154E-01
   0.199E+01 0.250E+01 0.230E+02   -.409E-12 -.192E-12 0.164E-10   -.201E+01 -.253E+01 -.222E+02   0.202E-01 0.134E-01 -.864E+00

 POSITION                                       TOTAL-FORCE (eV/Angst)
     12.94886      8.02968      6.97526         0.000994      0.014513     -0.003605
      5.10065      8.04473      6.95743        -0.007338      0.002500     -0.010429
      4.96305      3.48822      7.02783        -0.001343      0.006422     -0.008672
     14.26784      8.80052      9.30109         0.005382      0.028537      0.008849
      3.72616      4.21516      9.40065         0.003833      0.000272     -0.012138
      6.38834      8.83903      9.22498         0.006629      0.017346     -0.011679
     11.65755      4.20888      9.37072        -0.003511      0.008125     -0.002895
      9.05827      8.77717      9.20040         0.007177      0.033568     -0.003793
     10.33414      1.94339      9.24463        -0.013251     -0.002643     -0.000174
      2.44284      1.94826      9.29123         0.012346      0.000063      0.011857
     11.66217      8.78571      9.31868        -0.007235     -0.008988     -0.000988
     12.97188      6.49633      9.37776        -0.010550     -0.010692     -0.017432
      5.05088      1.90941      9.35973         0.007033     -0.015080     -0.003108
      7.76657      6.47660      9.42458         0.025156     -0.019628      0.029720
      9.04630      4.20963      9.24294        -0.026015      0.031140      0.003524
      4.97678      6.45903      9.71271        -0.024553      0.008211      0.002479
      7.70676      1.92563      9.31274         0.026301      0.002878     -0.007484
      7.76490      3.43171      6.97070         0.006143     -0.001433      0.002970
      6.30223      1.14139      6.92676        -0.005772     -0.006310      0.004771
      6.42858      1.12974      0.87872        -0.016011     -0.014510      0.008258
      3.70548      4.20844      2.81687         0.019683      0.026569     -0.026614
      1.17314      1.22206      6.94051        -0.006160     -0.001814      0.011610
      1.13569      1.19080      0.72557        -0.005052      0.043385      0.019777
      6.43607      8.76100      2.90031        -0.004645     -0.035871      0.001253
      6.37784      4.18711      9.36704         0.000797     -0.003422      0.006175
      7.68135      4.99073      4.81474        -0.033718      0.041017      0.067542
     10.34531      6.49334      9.30019        -0.021474     -0.014516      0.015333
     14.26424      7.22593      4.86299         0.043813     -0.121691     -0.088992
     11.68127      5.68120      7.00997        -0.006586     -0.001701      0.011741
      6.41927      5.77778      7.04799         0.009829     -0.004003     -0.009546
      3.62119      2.56589      4.96023        -0.037535      0.012491     -0.000120
     10.36091      5.02430      4.85652        -0.007113     -0.004481     -0.049753
      3.78581      5.78063      7.21627         0.001565      0.000043      0.017797
     12.96907      7.87977      0.92567        -0.011247     -0.002313      0.000597
      5.16340      7.91719      0.83030        -0.002089      0.018845     -0.000287
      3.80701      5.74502      0.81381         0.011976     -0.002613     -0.021723
      7.79852      2.03245      2.83251        -0.028413     -0.013792      0.008957
      9.07755      8.73373      2.85743        -0.000540      0.005174     -0.002273
      2.40489      3.49966      7.13799        -0.004351     -0.002663     -0.012510
      2.34409      3.49051      0.82510         0.009517      0.003788     -0.016993
     10.34814      1.96983      2.82249        -0.013071     -0.007244      0.009312
     12.96035      4.98587      4.92559         0.067949     -0.005441     -0.013098
      3.74593      1.06682      7.06144         0.000822     -0.004197      0.003145
      9.02992      5.76342      7.08368         0.008242      0.008377      0.013305
      3.74824      1.09182      0.86700         0.005666     -0.007984     -0.022049
      9.09121      5.71867      0.96043        -0.004564      0.016536     -0.021484
      5.12448      3.47045      0.85563        -0.008674      0.034759      0.002152
     11.62092      8.68758      2.90590        -0.000347     -0.004813      0.022950
     11.65313      7.26450      4.84229         0.005377     -0.033591     -0.046884
     12.86756      6.45280      2.83379         0.030935     -0.000095     -0.002904
      9.04201      4.20780      2.79628        -0.046018      0.044274      0.032609
      7.76892      7.98709      6.97206        -0.018448      0.000322      0.026939
      7.81315      7.93922      0.88653         0.005058      0.007079      0.004279
     10.39144      6.53566      2.82198         0.005210     -0.027313     -0.003114
      2.51347      0.25826      5.00083        -0.010963      0.031018      0.021178
      7.74264      3.48454      0.76157         0.003584     -0.004203      0.004947
      5.07835      1.87760      2.91701        -0.004236     -0.011623     -0.006442
      5.16037      6.44715      2.89923        -0.004121      0.001126     -0.002155
      7.70892      0.45986      4.84799         0.006340      0.015282     -0.002266
      9.05183      1.18244      6.97351         0.003249     -0.003451     -0.011327
[...]
      9.07350      2.65252      4.91360         0.029537     -0.041722     -0.032187
      6.37169      2.66558      4.85827        -0.026225      0.011186     -0.030339
     11.65891      4.17486      2.81483        -0.008457      0.013880     -0.048682
      2.44098      1.89237      2.83279        -0.014604      0.017848      0.015245
     11.64953      5.68621      0.88546         0.000948      0.040144     -0.015705
      6.44743      5.71949      0.92597        -0.001008      0.000773     -0.006090
      7.82927      6.50651      2.83621        -0.026909      0.014968     -0.018203
      6.41922      4.13007      2.78290        -0.017536      0.006498     -0.025538
     10.38280      3.44812      7.02812         0.000937      0.000589     -0.002446
     10.34410      3.45013      0.86804        -0.012344     -0.032033     -0.015466
     10.37063      0.48410      4.87151         0.022250     -0.004043      0.082118
      9.04079      7.29017      4.93700         0.016518     -0.052512     -0.081205
      6.46265      7.29503      4.94074         0.032654     -0.040544      0.055773
      5.04247      0.27633      4.88406        -0.005067      0.017440      0.004314
      6.44577      7.45968     10.70785         0.003160     -0.021207      0.032131
    total drift:                                0.000576     -0.024458     -0.034004

  FREE ENERGIE OF THE ION-ELECTRON SYSTEM (eV)
  free  energy   TOTEN  =      -512.85559647 eV

  energy  without entropy=     -512.88066838  energy(sigma->0) =     -512.86395377

 d Force = 0.8228805E-03[-0.110E-03, 0.176E-02]  d Energy = 0.7203468E-03 0.103E-03
 d Force = 0.4513584E+02[ 0.452E+02, 0.451E+02]  d Ewald  = 0.4513585E+02-0.574E-05

 Conjugate gradient step on ions:
 trial-energy change:   -0.000720  1 .order   -0.000823   -0.001756    0.000110
  (g-gl).g = 0.131E-02      g.g   = 0.126E-02  gl.gl    = 0.153E-02
 g(Force)  = 0.126E-02   g(Stress)= 0.000E+00 ortho     =-0.148E-03
 gamma     =   0.85459
 trial     =   1.55450
 opt step  =   1.42276  (harmonic =   1.46249) maximal distance =0.01081041
 next E    =  -512.855601   (d E  =  -0.00073)

 reached required accuracy - stopping structural energy minimisation