 vasp.5.4.4.18Apr17-6-g9f103f2a35 (build Oct 25 2019 11:13:22) complex

 executed on             LinuxIFC date 2022.02.13  02:44:00

 INCAR:
 POTCAR:    PAW_PBE Pt 04Feb2005
 POTCAR:    PAW_PBE Co 02Aug2007
 POTCAR:    PAW_PBE Ni 02Aug2007
 POTCAR:    PAW_PBE H 15Jun2001

 POTCAR:    PAW_PBE Pt 04Feb2005
   VRHFIN =Pt: s1d9

   TITEL  = PAW_PBE Pt 04Feb2005
   POMASS =  195.080; ZVAL   =   10.000    mass and valenz
   ENMAX  =  230.283; ENMIN  =  172.712 eV

 POTCAR:    PAW_PBE Co 02Aug2007
   VRHFIN =Co: d8 s1

   TITEL  = PAW_PBE Co 02Aug2007
   POMASS =   58.933; ZVAL   =    9.000    mass and valenz
   ENMAX  =  267.968; ENMIN  =  200.976 eV

 POTCAR:    PAW_PBE Ni 02Aug2007
   VRHFIN =Ni:

   TITEL  = PAW_PBE Ni 02Aug2007
   POMASS =   58.690; ZVAL   =   10.000    mass and valenz
   ENMAX  =  269.532; ENMIN  =  202.149 eV

 POTCAR:    PAW_PBE H 15Jun2001
   VRHFIN =H: ultrasoft test

   TITEL  = PAW_PBE H 15Jun2001
   POMASS =    1.000; ZVAL   =    1.000    mass and valenz
   ENMAX  =  250.000; ENMIN  =  200.000 eV

 Optimization of the real space projectors (new method)

 maximal supplied QI-value         = 14.36
 optimisation between [QCUT,QGAM] = [ 11.92, 23.98] = [ 39.79,161.09] Ry
 Optimized for a Real-space Cutoff    1.49 Angstroem

   l    n(q)    QCUT    max X(q) W(low)/X(q) W(high)/X(q)  e(spline)
   2     10    11.920    66.195    0.79E-04    0.18E-03    0.24E-06
   2     10    11.920    64.643    0.81E-04    0.19E-03    0.24E-06
   0     11    11.920    95.520    0.28E-04    0.54E-04    0.18E-06
   0     11    11.920    63.403    0.27E-04    0.52E-04    0.17E-06
   1     10    11.920    19.961    0.18E-04    0.11E-03    0.23E-06
   1     10    11.920    13.289    0.25E-04    0.87E-04    0.19E-06
 Optimization of the real space projectors (new method)

[...]

   l    n(q)    QCUT    max X(q) W(low)/X(q) W(high)/X(q)  e(spline)
   2      9    11.864    60.317    0.21E-03    0.51E-03    0.25E-06
   2      9    11.864    55.921    0.21E-03    0.51E-03    0.26E-06
   0      9    11.864    51.690    0.22E-03    0.30E-04    0.17E-06
   0      9    11.864    30.015    0.20E-03    0.28E-04    0.15E-06
   1      9    11.864    18.849    0.76E-04    0.33E-03    0.17E-06
   1      9    11.864    14.624    0.60E-04    0.28E-03    0.15E-06
 Optimization of the real space projectors (new method)

 maximal supplied QI-value         = 34.20
 optimisation between [QCUT,QGAM] = [ 11.97, 23.94] = [ 40.13,160.53] Ry
 Optimized for a Real-space Cutoff    1.18 Angstroem

   l    n(q)    QCUT    max X(q) W(low)/X(q) W(high)/X(q)  e(spline)
   0      8    11.971    19.460    0.15E-03    0.31E-03    0.25E-06
   0      8    11.971    12.209    0.13E-03    0.29E-03    0.25E-06
   1      8    11.971     4.655    0.22E-03    0.24E-03    0.21E-06
  PAW_PBE Pt 04Feb2005                  :
  PAW_PBE Co 02Aug2007                  :
  PAW_PBE Ni 02Aug2007                  :
  PAW_PBE H 15Jun2001                   :

 POSCAR: 11.26
  positions in cartesian coordinates
 exchange correlation table for  LEXCH =        8
   RHO(1)=    0.500       N(1)  =     2000
   RHO(2)=  100.500       N(2)  =     4000

 ion  position               nearest neighbor table
   1  0.789  0.879  0.301-  49 2.47  59 2.56  60 2.65  28 2.70   4 2.74   2 2.74  29 2.74  19 2.80
                            12 2.84  11 2.85  61 2.87  33 2.93
   2  0.032  0.881  0.292-  79 2.48  77 2.54  60 2.72   1 2.74  28 2.75   4 2.80   6 2.85  16 2.88
                            30 2.93  33 3.00  22 3.18  52 3.26
   3  0.275  0.362  0.312-  64 2.55  31 2.63  68 2.64  39 2.65  33 2.72   5 2.73  30 2.74  13 2.77
                            25 2.78  19 2.81  43 2.81  18 2.90
   4  0.877  0.965  0.399-  60 2.70   9 2.71  17 2.72   1 2.74  16 2.76   6 2.77   2 2.80  12 2.81
                            11 2.88
   5  0.116  0.470  0.413-  81 1.77  39 2.66  12 2.73   3 2.73  16 2.75  33 2.75   7 2.83  25 2.84
                            10 2.90  13 3.02
   6  0.130  0.953  0.397-  52 2.59  22 2.72   4 2.77  16 2.77   8 2.79  14 2.80   2 2.85  10 2.86
                             9 2.96
   7  0.870  0.457  0.412-  75 2.54  39 2.58  27 2.76   9 2.79  29 2.81  15 2.82   5 2.83  10 2.87
                            12 2.94
   8  0.377  0.950  0.415-  52 2.53  43 2.55  61 2.69  27 2.78   6 2.79  13 2.80  10 2.82  11 2.83
                            14 2.86
   9  0.863  0.213  0.397-  75 2.60  22 2.67   4 2.71  17 2.72  15 2.75  60 2.78   7 2.79   6 2.96
                            10 2.98
  10  0.130  0.205  0.416-  81 1.73  22 2.66  43 2.73  13 2.78   8 2.82   6 2.86   7 2.87  39 2.88
                             5 2.90   9 2.98
  11  0.628  0.951  0.410-  61 2.64  12 2.71  19 2.74  27 2.74  13 2.77  17 2.79   8 2.83   1 2.85
                             4 2.88
  12  0.876  0.716  0.408-  29 2.67  16 2.69  11 2.71   5 2.73  33 2.80   4 2.81  27 2.83   1 2.84
                             7 2.94
  13  0.381  0.197  0.414-  43 2.69  19 2.71  11 2.77   3 2.77  10 2.78  17 2.79   8 2.80  25 2.81
                             5 3.02
  14  0.373  0.699  0.400-  52 2.52  44 2.55  15 2.72  25 2.78   6 2.80  16 2.80  30 2.85   8 2.86
                            27 2.93
  15  0.619  0.459  0.399-  75 2.54  44 2.59  14 2.72   9 2.75  25 2.76   7 2.82  17 2.86  27 2.86
                            18 2.87
  16  0.117  0.713  0.400-  30 2.66  12 2.69  33 2.73   5 2.75   4 2.76   6 2.77  14 2.80   2 2.88
                            25 2.96
  17  0.628  0.200  0.404-  18 2.69   9 2.72   4 2.72  19 2.79  11 2.79  13 2.79  25 2.80  60 2.81
                            15 2.86
  18  0.539  0.347  0.301-  67 2.45  26 2.60  68 2.66  60 2.67  17 2.69  19 2.69  25 2.80  15 2.87
                             3 2.90  30 2.93  75 3.19
  19  0.527  0.113  0.308-  59 2.47  80 2.50  68 2.57  43 2.61  61 2.64  18 2.69  13 2.71  11 2.74
                            17 2.79   1 2.80   3 2.81  60 2.92
  20  0.546  0.126  0.067-  48 2.50  57 2.52  47 2.52  62 2.53  37 2.60  56 2.66  34 2.70  63 2.89

  21  0.118  0.408  0.119-  47 2.44  40 2.48  36 2.49  69 2.60  57 2.64  42 2.67  64 2.70  70 2.72
                            31 2.74  50 3.30
  22  0.053  0.150  0.310-  77 2.43  65 2.50  55 2.53  43 2.57  39 2.62  10 2.66   9 2.67   6 2.72
                            75 2.89  31 3.04  52 3.07   2 3.18  60 3.23
  23  0.009  0.102  0.049-  40 2.49  62 2.55  70 2.57  41 2.59  45 2.66  76 2.69  24 2.70  35 2.74
                            53 3.07
  24  0.138  0.927  0.142-  79 2.46  35 2.50  77 2.54  58 2.54  53 2.56  55 2.59  38 2.59  73 2.64
                            70 2.65  23 2.70  66 2.83
  25  0.378  0.449  0.406-  30 2.76  15 2.76   3 2.78  14 2.78  17 2.80  18 2.80  13 2.81   5 2.84
                            16 2.96
  26  0.480  0.554  0.230-  74 2.50  73 2.52  44 2.52  51 2.59  18 2.60  79 2.60  30 2.62  78 2.62
                            32 2.66  67 2.70
  27  0.628  0.707  0.414-  44 2.50  61 2.69  11 2.74   7 2.76   8 2.78  29 2.80  12 2.83  15 2.86
                            14 2.93
  28  0.953  0.759  0.204-  58 2.53  50 2.61  66 2.61  42 2.62  36 2.63  33 2.64   1 2.70   2 2.75
                            64 2.80  49 2.88  34 3.22  59 3.23  35 3.30
  29  0.797  0.631  0.311-  39 2.59  49 2.61  32 2.61  75 2.62  42 2.63  33 2.63  44 2.66  12 2.67
                             1 2.74  27 2.80   7 2.81  61 2.82
  30  0.275  0.605  0.302-  79 2.44  33 2.60  64 2.60  26 2.62  16 2.66   3 2.74  25 2.76  14 2.85
                            18 2.93   2 2.93
  31  0.187  0.262  0.225-  70 2.52  57 2.57  65 2.58  55 2.59   3 2.63  39 2.63  43 2.64  42 2.72
                            80 2.73  21 2.74  68 2.76  64 2.79  22 3.04
  32  0.711  0.561  0.214-  69 2.53  51 2.56  54 2.61  29 2.61  49 2.62  26 2.66  65 2.66  50 2.66
                            42 2.68  75 2.68  78 2.71  67 2.73  44 2.74
  33  0.041  0.611  0.304-  42 2.46  64 2.51  39 2.52  30 2.60  29 2.63  28 2.64   3 2.72  16 2.73
                             5 2.75  12 2.80   1 2.93   2 3.00
  34  0.782  0.884  0.080-  48 2.38  35 2.38  50 2.53  66 2.54  36 2.55  62 2.67  20 2.70  28 3.22

  35  0.002  0.866  0.072-  36 2.37  34 2.38  66 2.43  24 2.50  58 2.60  23 2.74  62 2.75  28 3.30

  36  0.006  0.657  0.094-  50 2.33  35 2.37  58 2.38  21 2.49  34 2.55  28 2.63
  37  0.628  0.234  0.150-  41 2.41  56 2.42  59 2.43  67 2.44  62 2.45  68 2.50  51 2.50  74 2.51
                            20 2.60  66 2.60
  38  0.361  0.942  0.135-  53 2.40  45 2.41  63 2.42  57 2.43  48 2.45  55 2.45  54 2.46  78 2.48
                            80 2.54  73 2.59  24 2.59  70 2.83
  39  0.023  0.397  0.317-  42 2.47  33 2.52   7 2.58  75 2.59  29 2.59  65 2.59  22 2.62  31 2.63
                             3 2.65   5 2.66  10 2.88
  40  0.013  0.321  0.044-  69 2.32  76 2.45  21 2.48  23 2.49  70 2.51  45 2.63  71 2.93
  41  0.844  0.228  0.139-  67 2.35  76 2.37  77 2.38  37 2.41  62 2.44  51 2.48  69 2.48  66 2.49
                            65 2.58  23 2.59  70 2.61
  42  0.967  0.520  0.219-  33 2.46  39 2.47  50 2.48  64 2.48  65 2.50  28 2.62  29 2.63  69 2.65
                            21 2.67  32 2.68  31 2.72
  43  0.303  0.098  0.319-  52 2.44  80 2.47  55 2.51   8 2.55  22 2.57  61 2.58  19 2.61  31 2.64
                            13 2.69  10 2.73   3 2.81
  44  0.552  0.648  0.317-  61 2.46  78 2.48  27 2.50  26 2.52  52 2.55  14 2.55  15 2.59  29 2.66
                            75 2.72  32 2.74
  45  0.251  0.091  0.049-  38 2.41  57 2.45  53 2.48  70 2.50  63 2.54  40 2.63  23 2.66
  46  0.529  0.612  0.047-  54 2.37  73 2.44  51 2.45  71 2.47  72 2.53  53 2.63  56 2.72  76 2.87
                            63 3.07
  47  0.334  0.361  0.072-  74 2.29  56 2.44  21 2.44  57 2.50  72 2.50  20 2.52
  48  0.581  0.937  0.137-  49 2.29  63 2.35  34 2.38  54 2.38  80 2.38  38 2.45  59 2.46  20 2.50
                            57 2.63  50 2.74
  49  0.677  0.809  0.223-  48 2.29  50 2.34  61 2.45  78 2.47   1 2.47  59 2.54  80 2.57  29 2.61
                            32 2.62  54 2.79  28 2.88
  50  0.810  0.679  0.140-  36 2.33  49 2.34  54 2.38  71 2.39  42 2.48  69 2.52  34 2.53  28 2.61
                            32 2.66  48 2.74  21 3.30
  51  0.629  0.454  0.133-  56 2.40  76 2.44  46 2.45  41 2.48  37 2.50  67 2.53  32 2.56  26 2.59
                            74 2.59  69 2.66  73 2.78  54 2.83
  52  0.322  0.872  0.316-  55 2.36  79 2.41  61 2.42  78 2.44  43 2.44  14 2.52   8 2.53  44 2.55
                             6 2.59  22 3.07   2 3.26
  53  0.299  0.850  0.050-  73 2.39  38 2.40  45 2.48  24 2.56  63 2.58  46 2.63  72 2.82  23 3.07

  54  0.581  0.726  0.124-  46 2.37  50 2.38  48 2.38  73 2.40  71 2.42  63 2.42  38 2.46  78 2.50
                            32 2.61  49 2.79  51 2.83
  55  0.229  0.013  0.230-  52 2.36  80 2.44  79 2.44  38 2.45  43 2.51  22 2.53  78 2.56  24 2.59
                            31 2.59  77 2.61  70 2.62
  56  0.549  0.361  0.055-  51 2.40  37 2.42  47 2.44  74 2.52  76 2.56  62 2.60  72 2.61  20 2.66
                            46 2.72
  57  0.344  0.167  0.132-  38 2.43  45 2.45  80 2.47  47 2.50  20 2.52  68 2.55  31 2.57  48 2.63
                            21 2.64  70 2.71
[...]
     13.734382  8.588522  1.762771            0           0           0
      4.876633  8.413947  1.577885            0           0           0
      3.758771  6.384136  2.060921            0           0           0
      8.358503  2.272242  3.294054            0           0           0
      9.333665  9.158858  2.963491            0           0           0
      2.488363  3.854737  6.966863            0           0           0
      1.948917  3.123684  0.977335            0           0           0
     10.751866  2.212205  3.056235            0           0           0
     13.777989  5.058683  4.814702            0           0           0
      3.957703  0.957214  7.027625            0           0           0
      9.833709  6.296047  6.979936            0           0           0
      3.327475  0.887173  1.073320            0           0           0
      9.370381  5.944442  1.033549            0           0           0
      5.774364  3.511196  1.588832            0           0           0
     11.780804  9.102106  3.012746            0           0           0
     12.142208  7.864851  4.907167            0           0           0
     12.898551  6.599928  3.085357            0           0           0
      9.609021  4.409279  2.931659            0           0           0
      8.511233  8.476604  6.959048            0           0           0
      8.126536  8.259675  1.100142            0           0           0
     10.595320  7.057317  2.726279            0           0           0
      2.643452  0.125819  5.052866            0           0           0
      8.182065  3.505601  1.219953            0           0           0
      4.798505  1.622219  2.896171            0           0           0
      5.809398  6.649898  3.247617            0           0           0
      7.654684  0.412970  4.686986            0           0           0
      9.459457  1.137496  6.526800            0           0           0
[...]
      9.859490  3.061300  5.053340            0           0           0
      6.317386  2.583125  4.702954            0           0           0
     12.253127  4.174930  2.833240            0           0           0
      2.095248  1.756232  3.073240            0           0           0
     11.831281  5.721446  1.134235            0           0           0
      6.857430  5.749036  1.303551            0           0           0
      8.219787  6.815704  3.002248            0           0           0
      7.040131  4.410259  3.274640            0           0           0
     11.125651  3.901946  6.899988            0           0           0
     10.736077  3.416087  1.011578            0           0           0
     11.353957  0.819354  4.883300            0           0           0
      9.676082  7.723209  4.957292            0           0           0
      7.203849  7.639146  5.118877            0           0           0
      5.078032  0.269348  4.939043            0           0           0
      3.237749  3.306042 10.098437     0.163444    0.378670    0.910986

   2 f  =   32.055718 THz   201.412016 2PiTHz 1069.263622 cm-1   132.571841 meV
             X         Y         Z           dx          dy          dz
     13.784777  8.544516  6.629097            0           0           0
      5.296915  8.561158  6.418264            0           0           0
      5.110545  3.515246  6.854867            0           0           0
     15.261204  9.379127  8.776800            0           0           0
      3.936104  4.570137  9.078307            0           0           0
      6.802977  9.261971  8.739829            0           0           0
     12.327672  4.437699  9.066999            0           0           0
      9.560832  9.235375  9.136323            0           0           0
     10.882296  2.073229  8.728706            0           0           0
      2.605814  1.994819  9.157144            0           0           0
     12.390903  9.247548  9.013162            0           0           0
     13.846338  6.956708  8.979299            0           0           0
      5.384473  1.915407  9.097227            0           0           0
      8.111444  6.791786  8.796220            0           0           0
      9.521269  4.460030  8.785627            0           0           0
      5.310139  6.930648  8.793616            0           0           0
      8.168697  1.943795  8.890941            0           0           0
      7.992034  3.370103  6.613766            0           0           0
      6.549408  1.102118  6.786261            0           0           0
      6.833851  1.229252  1.470327            0           0           0
      3.612352  3.964682  2.619950            0           0           0
      1.440006  1.457708  6.830531            0           0           0
      0.671266  0.989103  1.081883            0           0           0
      6.748073  9.008785  3.123421            0           0           0
      6.761823  4.359300  8.928555            0           0           0
      8.493301  5.384394  5.053784            0           0           0
     11.021957  6.874120  9.100126            0           0           0
     14.948842  7.376730  4.492489            0           0           0
     12.486249  6.134866  6.834731            0           0           0
      6.478740  5.884282  6.645428            0           0           0
      3.574220  2.546241  4.958776            0           0           0
     11.126137  5.452511  4.710247            0           0           0
      3.881796  5.934317  6.694786            0           0           0
     13.734382  8.588522  1.762771            0           0           0
      4.876633  8.413947  1.577885            0           0           0
      3.758771  6.384136  2.060921            0           0           0
      8.358503  2.272242  3.294054            0           0           0
      9.333665  9.158858  2.963491            0           0           0
      2.488363  3.854737  6.966863            0           0           0
      1.948917  3.123684  0.977335            0           0           0
     10.751866  2.212205  3.056235            0           0           0
     13.777989  5.058683  4.814702            0           0           0
      3.957703  0.957214  7.027625            0           0           0
      9.833709  6.296047  6.979936            0           0           0
      3.327475  0.887173  1.073320            0           0           0
      9.370381  5.944442  1.033549            0           0           0
      5.774364  3.511196  1.588832            0           0           0
     11.780804  9.102106  3.012746            0           0           0
     12.142208  7.864851  4.907167            0           0           0
     12.898551  6.599928  3.085357            0           0           0
      9.609021  4.409279  2.931659            0           0           0
      8.511233  8.476604  6.959048            0           0           0
      8.126536  8.259675  1.100142            0           0           0
     10.595320  7.057317  2.726279            0           0           0
      2.643452  0.125819  5.052866            0           0           0
      8.182065  3.505601  1.219953            0           0           0
      4.798505  1.622219  2.896171            0           0           0
      5.809398  6.649898  3.247617            0           0           0
      7.654684  0.412970  4.686986            0           0           0
      9.459457  1.137496  6.526800            0           0           0
[...]
      9.859490  3.061300  5.053340            0           0           0
      6.317386  2.583125  4.702954            0           0           0
     12.253127  4.174930  2.833240            0           0           0
      2.095248  1.756232  3.073240            0           0           0
     11.831281  5.721446  1.134235            0           0           0
      6.857430  5.749036  1.303551            0           0           0
      8.219787  6.815704  3.002248            0           0           0
      7.040131  4.410259  3.274640            0           0           0
     11.125651  3.901946  6.899988            0           0           0
     10.736077  3.416087  1.011578            0           0           0
     11.353957  0.819354  4.883300            0           0           0
      9.676082  7.723209  4.957292            0           0           0
      7.203849  7.639146  5.118877            0           0           0
      5.078032  0.269348  4.939043            0           0           0
      3.237749  3.306042 10.098437     0.452353    0.791849   -0.410307

   3 f/i=    5.642632 THz    35.453705 2PiTHz  188.217951 cm-1    23.336060 meV
             X         Y         Z           dx          dy          dz
     13.784777  8.544516  6.629097            0           0           0
      5.296915  8.561158  6.418264            0           0           0
      5.110545  3.515246  6.854867            0           0           0
     15.261204  9.379127  8.776800            0           0           0
      3.936104  4.570137  9.078307            0           0           0
      6.802977  9.261971  8.739829            0           0           0
     12.327672  4.437699  9.066999            0           0           0
      9.560832  9.235375  9.136323            0           0           0
     10.882296  2.073229  8.728706            0           0           0
      2.605814  1.994819  9.157144            0           0           0
     12.390903  9.247548  9.013162            0           0           0
     13.846338  6.956708  8.979299            0           0           0
      5.384473  1.915407  9.097227            0           0           0
      8.111444  6.791786  8.796220            0           0           0
      9.521269  4.460030  8.785627            0           0           0
      5.310139  6.930648  8.793616            0           0           0
      8.168697  1.943795  8.890941            0           0           0
      7.992034  3.370103  6.613766            0           0           0
      6.549408  1.102118  6.786261            0           0           0
      6.833851  1.229252  1.470327            0           0           0
      3.612352  3.964682  2.619950            0           0           0
      1.440006  1.457708  6.830531            0           0           0
      0.671266  0.989103  1.081883            0           0           0
      6.748073  9.008785  3.123421            0           0           0
      6.761823  4.359300  8.928555            0           0           0
      8.493301  5.384394  5.053784            0           0           0
     11.021957  6.874120  9.100126            0           0           0
     14.948842  7.376730  4.492489            0           0           0
     12.486249  6.134866  6.834731            0           0           0
      6.478740  5.884282  6.645428            0           0           0
      3.574220  2.546241  4.958776            0           0           0
     11.126137  5.452511  4.710247            0           0           0
      3.881796  5.934317  6.694786            0           0           0
     13.734382  8.588522  1.762771            0           0           0
      4.876633  8.413947  1.577885            0           0           0
      3.758771  6.384136  2.060921            0           0           0
      8.358503  2.272242  3.294054            0           0           0
      9.333665  9.158858  2.963491            0           0           0
      2.488363  3.854737  6.966863            0           0           0
      1.948917  3.123684  0.977335            0           0           0
     10.751866  2.212205  3.056235            0           0           0
     13.777989  5.058683  4.814702            0           0           0
      3.957703  0.957214  7.027625            0           0           0
      9.833709  6.296047  6.979936            0           0           0
      3.327475  0.887173  1.073320            0           0           0
      9.370381  5.944442  1.033549            0           0           0
      5.774364  3.511196  1.588832            0           0           0
     11.780804  9.102106  3.012746            0           0           0
     12.142208  7.864851  4.907167            0           0           0
     12.898551  6.599928  3.085357            0           0           0
      9.609021  4.409279  2.931659            0           0           0
      8.511233  8.476604  6.959048            0           0           0
      8.126536  8.259675  1.100142            0           0           0
     10.595320  7.057317  2.726279            0           0           0
      2.643452  0.125819  5.052866            0           0           0
      8.182065  3.505601  1.219953            0           0           0
      4.798505  1.622219  2.896171            0           0           0
      5.809398  6.649898  3.247617            0           0           0
      7.654684  0.412970  4.686986            0           0           0
      9.459457  1.137496  6.526800            0           0           0
[...]
      9.859490  3.061300  5.053340            0           0           0
      6.317386  2.583125  4.702954            0           0           0
     12.253127  4.174930  2.833240            0           0           0
      2.095248  1.756232  3.073240            0           0           0
     11.831281  5.721446  1.134235            0           0           0
      6.857430  5.749036  1.303551            0           0           0
      8.219787  6.815704  3.002248            0           0           0
      7.040131  4.410259  3.274640            0           0           0
     11.125651  3.901946  6.899988            0           0           0
     10.736077  3.416087  1.011578            0           0           0
     11.353957  0.819354  4.883300            0           0           0
      9.676082  7.723209  4.957292            0           0           0
      7.203849  7.639146  5.118877            0           0           0
      5.078032  0.269348  4.939043            0           0           0
      3.237749  3.306042 10.098437     0.876734   -0.479149    0.041870

 Finite differences POTIM=  1.500000000000000E-002
  LATTYP: Found a hexagonal cell.
 ALAT       =    11.2227001190
 C/A-ratio  =     1.9603125600

  Lattice vectors:

 A1 = (   5.6113500595,  -9.7191434021,   0.0000000000)
 A2 = ( -11.2227001190,   0.0000000000,   0.0000000000)
 A3 = (   0.0000000000,   0.0000000000, -22.0000000000)

Analysis of symmetry for initial positions (statically):
 Subroutine PRICEL returns:
 Original cell was already a primitive cell.

[...]

The static configuration has the point symmetry C_1 .

Analysis of symmetry for dynamics (positions and initial velocities):
 Subroutine PRICEL returns:
 Original cell was already a primitive cell.

[...]

The dynamic configuration has the point symmetry C_1 .

Analysis of constrained symmetry for selective dynamics:
 Subroutine PRICEL returns:
 Original cell was already a primitive cell.

[...]

The constrained configuration has the point symmetry C_1 .

Analysis of structural, dynamic, and magnetic symmetry:
 Subroutine PRICEL returns:
 Original cell was already a primitive cell.

 Routine SETGRP: Setting up the symmetry group for a
 hexagonal supercell.

 Subroutine GETGRP returns: Found  1 space group operations
 (whereof  1 operations were pure point group operations)
 out of a pool of 24 trial point group operations.

The magnetic configuration has the point symmetry C_1 .

 Subroutine INISYM returns: Found  1 space group operations
 (whereof  1 operations are pure point group operations),
 and found     1 'primitive' translations

 KPOINTS: mesh auto

Automatic generation of k-mesh.
Space group operators:
 irot       det(A)        alpha          n_x          n_y          n_z        tau_x        tau_y        tau_z
    1     1.000000     0.000000     1.000000     0.000000     0.000000     0.000000     0.000000     0.000000

 Subroutine IBZKPT returns following result:

 Found      4 irreducible k-points:

 Following reciprocal coordinates:
            Coordinates               Weight
  0.000000  0.000000  0.000000      1.000000
  0.500000  0.000000  0.000000      1.000000
  0.000000  0.500000  0.000000      1.000000
  0.500000  0.500000  0.000000      1.000000

 Following cartesian coordinates:
            Coordinates               Weight
  0.000000  0.000000  0.000000      1.000000
  0.044553 -0.025722  0.000000      1.000000
  0.000000  0.051445  0.000000      1.000000
  0.044553  0.025722  0.000000      1.000000

 TETIRR: Found     12 inequivalent tetrahedra from       24
 BZINTS: Fermi energy:  1.510886;778.000000 electrons
         Band energy:-901.417913;  BLOECHL correction: -0.222115