 vasp.5.4.4.18Apr17-6-g9f103f2a35 (build Oct 25 2019 11:13:22) complex

 executed on             LinuxIFC date 2022.02.11  22:25:33

 INCAR:
 POTCAR:    PAW_PBE Pt 04Feb2005
 POTCAR:    PAW_PBE Fe 06Sep2000
 POTCAR:    PAW_PBE Co 02Aug2007
 POTCAR:    PAW_PBE Ni 02Aug2007
 POTCAR:    PAW_PBE H 15Jun2001
 POTCAR:    PAW_PBE Pt 04Feb2005
   VRHFIN =Pt: s1d9

   TITEL  = PAW_PBE Pt 04Feb2005
   POMASS =  195.080; ZVAL   =   10.000    mass and valenz
   ENMAX  =  230.283; ENMIN  =  172.712 eV

 POTCAR:    PAW_PBE Fe 06Sep2000
   VRHFIN =Fe:  d7 s1

   TITEL  = PAW_PBE Fe 06Sep2000
   POMASS =   55.847; ZVAL   =    8.000    mass and valenz
   ENMAX  =  267.882; ENMIN  =  200.911 eV

 POTCAR:    PAW_PBE Co 02Aug2007
   VRHFIN =Co: d8 s1

   TITEL  = PAW_PBE Co 02Aug2007
   POMASS =   58.933; ZVAL   =    9.000    mass and valenz
   ENMAX  =  267.968; ENMIN  =  200.976 eV

 POTCAR:    PAW_PBE Ni 02Aug2007
   VRHFIN =Ni:

   TITEL  = PAW_PBE Ni 02Aug2007
   POMASS =   58.690; ZVAL   =   10.000    mass and valenz
   ENMAX  =  269.532; ENMIN  =  202.149 eV

 POTCAR:    PAW_PBE H 15Jun2001
   VRHFIN =H: ultrasoft test

   TITEL  = PAW_PBE H 15Jun2001
   POMASS =    1.000; ZVAL   =    1.000    mass and valenz
   ENMAX  =  250.000; ENMIN  =  200.000 eV

 Optimization of the real space projectors (new method)

 maximal supplied QI-value         = 14.36
 optimisation between [QCUT,QGAM] = [ 11.92, 23.98] = [ 39.79,161.09] Ry
 Optimized for a Real-space Cutoff    1.49 Angstroem

   l    n(q)    QCUT    max X(q) W(low)/X(q) W(high)/X(q)  e(spline)
   2     10    11.920    66.195    0.79E-04    0.18E-03    0.24E-06
   2     10    11.920    64.643    0.81E-04    0.19E-03    0.24E-06
   0     11    11.920    95.520    0.28E-04    0.54E-04    0.18E-06
   0     11    11.920    63.403    0.27E-04    0.52E-04    0.17E-06
   1     10    11.920    19.961    0.18E-04    0.11E-03    0.23E-06
   1     10    11.920    13.289    0.25E-04    0.87E-04    0.19E-06
 Optimization of the real space projectors (new method)

[...]

   l    n(q)    QCUT    max X(q) W(low)/X(q) W(high)/X(q)  e(spline)
   2      9    11.864    60.317    0.21E-03    0.51E-03    0.25E-06
   2      9    11.864    55.921    0.21E-03    0.51E-03    0.26E-06
   0      9    11.864    51.690    0.22E-03    0.30E-04    0.17E-06
   0      9    11.864    30.015    0.20E-03    0.28E-04    0.15E-06
   1      9    11.864    18.849    0.76E-04    0.33E-03    0.17E-06
   1      9    11.864    14.624    0.60E-04    0.28E-03    0.15E-06
 Optimization of the real space projectors (new method)

 maximal supplied QI-value         = 34.20
 optimisation between [QCUT,QGAM] = [ 11.97, 23.94] = [ 40.13,160.53] Ry
 Optimized for a Real-space Cutoff    1.18 Angstroem

   l    n(q)    QCUT    max X(q) W(low)/X(q) W(high)/X(q)  e(spline)
   0      8    11.971    19.460    0.15E-03    0.31E-03    0.25E-06
   0      8    11.971    12.209    0.13E-03    0.29E-03    0.25E-06
   1      8    11.971     4.655    0.22E-03    0.24E-03    0.21E-06
  PAW_PBE Pt 04Feb2005                  :
  PAW_PBE Fe 06Sep2000                  :
  PAW_PBE Co 02Aug2007                  :
  PAW_PBE Ni 02Aug2007                  :
  PAW_PBE H 15Jun2001                   :

 POSCAR: 11.26
  positions in direct lattice
  velocities in cartesian coordinates
 exchange correlation table for  LEXCH =        8
   RHO(1)=    0.500       N(1)  =     2000
   RHO(2)=  100.500       N(2)  =     4000

 ion  position               nearest neighbor table
   1  0.783  0.870  0.304-  52 2.53  59 2.56  28 2.70  19 2.74   2 2.76  61 2.77   4 2.79  29 2.79
                            60 2.81  33 2.81  11 2.86  12 2.86
   2  0.029  0.871  0.301-  79 2.51  77 2.53   1 2.76  30 2.77  33 2.80   4 2.80  28 2.81  60 2.85
                             6 2.86  16 2.95  22 2.95
   3  0.281  0.360  0.311-  64 2.53  68 2.61  31 2.64   5 2.73  43 2.74  13 2.77  39 2.78  25 2.79
                            30 2.79  19 2.84  33 2.85  18 2.92
   4  0.866  0.958  0.406-  60 2.60  17 2.75   9 2.76  11 2.78   1 2.79   2 2.80  12 2.83  16 2.87
                             6 2.87
   5  0.111  0.457  0.410-  81 1.89  39 2.62  33 2.69  12 2.73   3 2.73  16 2.73   7 2.78  10 2.79
                            25 2.88  13 2.89
   6  0.125  0.952  0.405-  55 2.68  22 2.73  14 2.80  10 2.81   9 2.83   8 2.83   2 2.86   4 2.87
                            16 2.90
   7  0.869  0.447  0.411-  81 1.79  39 2.59  75 2.66  29 2.73   9 2.74  15 2.75   5 2.78  10 2.80
                            27 2.85  12 2.89
   8  0.375  0.954  0.417-  55 2.51  43 2.60  61 2.69  13 2.76  11 2.77  27 2.77  10 2.82   6 2.83
                            14 2.88
   9  0.871  0.202  0.406-  75 2.58  60 2.65   7 2.74  17 2.76   4 2.76  22 2.79  15 2.82   6 2.83
                            10 2.84
  10  0.123  0.203  0.411-  81 1.88  43 2.63  39 2.64  22 2.74  13 2.78   5 2.79   7 2.80   6 2.81
                             8 2.82   9 2.84
  11  0.625  0.947  0.413-  61 2.64  19 2.72  12 2.75  27 2.76   8 2.77   4 2.78  13 2.85   1 2.86
                            17 2.88
  12  0.871  0.703  0.411-  29 2.68  33 2.71  16 2.73   5 2.73  11 2.75  27 2.82   4 2.83   1 2.86
                             7 2.89
  13  0.371  0.202  0.415-  43 2.64   8 2.76  19 2.77   3 2.77  10 2.78  25 2.79  17 2.85  11 2.85
                             5 2.89
  14  0.372  0.700  0.404-  44 2.52  55 2.59  15 2.77  25 2.80   6 2.80  27 2.81  30 2.84  16 2.88
                             8 2.88
  15  0.620  0.455  0.408-  75 2.62  44 2.62   7 2.75  14 2.77  18 2.77  17 2.79  27 2.80  25 2.81
                             9 2.82
  16  0.117  0.698  0.411-  33 2.71  30 2.72  12 2.73   5 2.73  25 2.82   4 2.87  14 2.88   6 2.90
                             2 2.95
  17  0.624  0.205  0.411-  60 2.61   4 2.75  19 2.76   9 2.76  18 2.76  15 2.79  25 2.79  13 2.85
                            11 2.88
  18  0.539  0.365  0.307-  67 2.51  68 2.60  26 2.68  60 2.69  25 2.76  17 2.76  15 2.77  75 2.79
                            19 2.85   3 2.92  30 2.94  44 3.01
  19  0.538  0.112  0.313-  68 2.49  80 2.53  59 2.55  43 2.69  61 2.70  11 2.72  60 2.74   1 2.74
                            17 2.76  13 2.77   3 2.84  18 2.85
  20  0.538  0.117  0.053-  47 2.51  37 2.56  51 2.64  63 2.67  50 2.71  62 2.73  34 2.74  46 2.79
                            45 2.87
  21  0.106  0.420  0.118-  40 2.50  36 2.51  50 2.54  70 2.60  47 2.66  42 2.66  64 2.70  69 2.71
                            31 2.79  53 3.03
  22  0.049  0.123  0.306-  77 2.51  65 2.52  58 2.54  39 2.69   6 2.73  10 2.74  43 2.76   9 2.79
                            75 2.86  55 2.92   2 2.95  60 3.07  31 3.27
  23  0.025  0.110  0.043-  40 2.54  41 2.55  70 2.56  35 2.67  62 2.71  24 2.74  56 2.77  76 2.83
                            45 2.93
  24  0.117  0.952  0.146-  79 2.49  35 2.51  70 2.62  77 2.62  58 2.62  56 2.64  48 2.66  73 2.70
                            66 2.72  23 2.74  41 2.84  38 2.93
  25  0.372  0.450  0.409-  18 2.76  30 2.78   3 2.79  17 2.79  13 2.79  14 2.80  15 2.81  16 2.82
                             5 2.88
  26  0.451  0.562  0.222-  73 2.52  74 2.53  54 2.55  79 2.59  30 2.62  44 2.62  32 2.67  18 2.68
                            78 2.68  67 2.98  48 2.99
  27  0.620  0.704  0.413-  44 2.55  61 2.65  11 2.76   8 2.77  29 2.79  15 2.80  14 2.81  12 2.82
                             7 2.85
  28  0.949  0.756  0.207-  48 2.55  53 2.56  66 2.63  42 2.65  33 2.65   1 2.70  64 2.70   2 2.81
                            52 2.85  36 2.90  59 3.15
  29  0.797  0.616  0.313-  42 2.58  52 2.59  32 2.62  39 2.67  12 2.68  33 2.68   7 2.73  44 2.79
                             1 2.79  27 2.79  75 2.85  61 2.89
  30  0.266  0.616  0.306-  79 2.51  33 2.58  26 2.62  64 2.70  16 2.72   2 2.77  25 2.78   3 2.79
                            14 2.84  18 2.94  44 3.19  55 3.29
  31  0.191  0.261  0.224-  70 2.48  58 2.52  47 2.57  39 2.61  43 2.61   3 2.64  65 2.68  64 2.74
                            21 2.79  80 2.81  42 2.83  68 3.00  22 3.27
  32  0.700  0.539  0.222-  69 2.53  54 2.60  44 2.62  29 2.62  75 2.63  57 2.63  65 2.66  26 2.67
                            52 2.68  42 2.70  67 2.73  78 2.76
  33  0.034  0.620  0.311-  64 2.55  30 2.58  28 2.65  29 2.68   5 2.69  16 2.71  12 2.71  42 2.73
                             2 2.80   1 2.81  39 2.82   3 2.85
  34  0.791  0.885  0.059-  51 2.33  66 2.39  53 2.60  62 2.68  35 2.73  20 2.74  36 2.75  63 2.89

  35  0.043  0.865  0.057-  36 2.40  24 2.51  66 2.52  23 2.67  34 2.73  48 2.84  72 2.85  56 2.85
                            62 3.00
  36  0.042  0.658  0.084-  48 2.40  35 2.40  53 2.47  21 2.51  72 2.75  34 2.75  28 2.90
  37  0.624  0.211  0.138-  59 2.38  62 2.40  67 2.45  46 2.46  68 2.48  74 2.55  20 2.56  66 2.66
                            41 2.68  54 2.71  47 2.99  51 3.04
  38  0.377  0.954  0.136-  63 2.36  45 2.39  56 2.40  58 2.42  80 2.45  73 2.50  78 2.54  57 2.61
                            47 2.77  70 2.82  51 2.87  24 2.93
  39  0.028  0.372  0.317-   7 2.59  65 2.61  31 2.61   5 2.62  42 2.64  10 2.64  29 2.67  22 2.69
                            75 2.74   3 2.78  33 2.82  43 3.01
  40  0.983  0.354  0.043-  69 2.31  76 2.42  21 2.50  23 2.54  70 2.62  71 2.63  45 3.12
  41  0.866  0.206  0.135-  77 2.42  76 2.43  67 2.44  62 2.46  65 2.52  23 2.55  69 2.55  66 2.57
                            70 2.65  37 2.68  24 2.84  54 2.87
  42  0.948  0.521  0.217-  53 2.52  69 2.54  64 2.55  65 2.57  29 2.58  39 2.64  28 2.65  21 2.66
                            32 2.70  33 2.73  31 2.83  52 2.97
  43  0.300  0.108  0.320-  58 2.48  55 2.49   8 2.60  31 2.61  80 2.61  10 2.63  13 2.64  61 2.65
                            19 2.69   3 2.74  22 2.76  39 3.01
  44  0.541  0.631  0.318-  14 2.52  78 2.55  27 2.55  32 2.62  15 2.62  26 2.62  55 2.64  61 2.67
                            29 2.79  75 2.86  18 3.01  30 3.19
  45  0.285  0.111  0.053-  38 2.39  70 2.47  47 2.48  56 2.53  63 2.71  20 2.87  23 2.93  40 3.12

  46  0.535  0.367  0.050-  54 2.40  50 2.43  37 2.46  74 2.47  76 2.54  62 2.67  72 2.72  20 2.79
                            49 2.82
  47  0.359  0.209  0.135-  50 2.40  68 2.41  45 2.48  20 2.51  31 2.57  80 2.60  21 2.66  74 2.74
                            38 2.77  70 2.92  37 2.99
  48  0.180  0.691  0.158-  79 2.40  36 2.40  72 2.41  64 2.41  73 2.49  28 2.55  24 2.66  74 2.70
                            35 2.84  26 2.99
  49  0.521  0.625  0.052-  54 2.35  73 2.38  71 2.44  57 2.44  72 2.53  56 2.78  46 2.82  76 2.90
                            63 2.95
  50  0.315  0.374  0.056-  74 2.35  47 2.40  46 2.43  21 2.54  72 2.65  20 2.71
  51  0.642  0.932  0.141-  34 2.33  52 2.34  63 2.45  59 2.53  53 2.55  80 2.56  20 2.64  57 2.67
                            66 2.78  38 2.87  37 3.04
  52  0.683  0.786  0.223-  51 2.34  78 2.41  57 2.48  61 2.52   1 2.53  53 2.55  29 2.59  80 2.65
                            32 2.68  28 2.85  42 2.97  59 3.12
  53  0.830  0.681  0.129-  57 2.36  71 2.40  36 2.47  42 2.52  52 2.55  51 2.55  28 2.56  69 2.59
                            34 2.60  21 3.03
[...]

 FORCES acting on ions
    electron-ion (+dipol)            ewald-force                    non-local-force                 convergence-correction
   -.800E+02 0.624E+02 -.119E+04   0.795E+02 -.624E+02 0.119E+04   0.408E+00 -.131E+00 0.248E+01   0.954E-01 0.107E+00 -.584E-01
   0.327E+02 0.640E+02 -.112E+04   -.327E+02 -.639E+02 0.112E+04   0.108E+00 -.972E-01 0.205E+01   -.562E-01 0.616E-01 -.344E-01
   0.137E+02 -.555E+02 -.130E+04   -.152E+02 0.556E+02 0.129E+04   0.158E+01 -.728E-02 0.200E+01   0.133E-01 0.168E-01 -.494E-01
   -.325E+02 0.435E+02 -.263E+04   0.325E+02 -.427E+02 0.262E+04   0.163E-01 -.834E+00 0.170E+01   0.607E-02 0.391E-01 -.440E-01
   -.351E+02 -.255E+02 -.263E+04   0.350E+02 0.264E+02 0.263E+04   0.117E+00 -.799E+00 0.192E+01   -.273E-01 -.342E-01 -.683E-01
   0.618E+02 0.219E+02 -.259E+04   -.610E+02 -.223E+02 0.259E+04   -.749E+00 0.343E+00 0.184E+01   -.536E-01 0.225E-01 0.180E-01
   -.134E+02 -.227E+02 -.269E+04   0.127E+02 0.221E+02 0.269E+04   0.620E+00 0.555E+00 0.184E+01   0.478E-01 -.229E-01 -.412E-01
   0.318E+02 -.447E+00 -.279E+04   -.315E+02 0.744E+00 0.279E+04   -.205E+00 -.371E+00 0.339E+01   0.478E-03 0.608E-01 0.432E-01
   -.219E+02 0.393E+02 -.266E+04   0.211E+02 -.393E+02 0.266E+04   0.832E+00 0.774E-01 0.236E+01   -.242E-01 -.231E-01 -.801E-01
   0.178E+02 -.183E+01 -.267E+04   -.172E+02 0.114E+01 0.267E+04   -.593E+00 0.696E+00 0.219E+01   -.184E-01 0.484E-01 -.509E-01
   -.581E+02 -.237E+01 -.271E+04   0.574E+02 0.165E+01 0.271E+04   0.688E+00 0.665E+00 0.193E+01   0.448E-01 0.432E-01 0.722E-03
   -.316E+02 0.610E+01 -.264E+04   0.321E+02 -.603E+01 0.264E+04   -.542E+00 -.750E-01 0.224E+01   0.296E-01 -.116E-01 -.179E-01
   -.120E+02 -.563E+02 -.270E+04   0.118E+02 0.558E+02 0.270E+04   0.158E+00 0.463E+00 0.237E+01   0.148E-01 0.327E-01 -.269E-01
   0.690E+02 0.368E+02 -.263E+04   -.685E+02 -.365E+02 0.263E+04   -.449E+00 -.272E+00 0.259E+01   -.440E-01 -.224E-01 0.334E-01
   0.461E+02 -.630E+01 -.266E+04   -.456E+02 0.712E+01 0.266E+04   -.540E+00 -.780E+00 0.248E+01   0.101E-01 -.451E-01 -.170E-01
   -.146E+02 -.140E+02 -.261E+04   0.142E+02 0.135E+02 0.261E+04   0.493E+00 0.500E+00 0.213E+01   -.379E-01 -.235E-01 -.271E-01
   0.131E+02 -.162E+02 -.270E+04   -.126E+02 0.161E+02 0.270E+04   -.551E+00 0.105E+00 0.238E+01   0.164E-01 -.891E-02 -.783E-01
   0.746E+02 -.840E+02 -.127E+04   -.735E+02 0.835E+02 0.127E+04   -.104E+01 0.622E+00 0.196E+01   0.780E-02 -.909E-01 -.793E-01
   -.914E+01 -.320E+02 -.138E+04   0.859E+01 0.313E+02 0.138E+04   0.443E+00 0.748E+00 0.285E+01   0.107E+00 0.240E-01 -.917E-01
   0.512E+02 0.208E+02 0.274E+04   -.511E+02 -.210E+02 -.274E+04   -.100E+00 0.608E-01 -.272E+01   -.906E-02 0.255E-01 -.362E-02
   -.956E+02 -.110E+03 0.185E+04   0.955E+02 0.110E+03 -.185E+04   0.216E+00 -.217E+00 0.134E+01   0.222E-01 -.178E-01 -.454E-01
   -.810E+01 0.378E+02 -.128E+04   0.887E+01 -.369E+02 0.127E+04   -.731E+00 -.944E+00 0.217E+01   -.527E-01 0.770E-02 -.637E-01
   -.435E+02 0.102E+03 0.286E+04   0.437E+02 -.101E+03 -.286E+04   -.205E+00 -.882E+00 -.234E+01   0.569E-02 0.283E-02 0.179E-03
   0.871E+02 0.239E+02 0.133E+04   -.873E+02 -.248E+02 -.133E+04   0.166E+00 0.879E+00 -.405E+00   0.794E-02 0.187E-01 -.524E-01
   0.675E+01 -.277E+02 -.263E+04   -.666E+01 0.273E+02 0.263E+04   -.806E-01 0.391E+00 0.170E+01   -.130E-01 -.172E-01 -.276E-01
   0.100E+03 0.874E+02 -.335E+01   -.100E+03 -.870E+02 0.300E+01   -.353E+00 -.416E+00 0.149E+00   -.258E-01 -.524E-01 -.120E+00
   -.160E+02 0.354E+02 -.271E+04   0.156E+02 -.351E+02 0.271E+04   0.407E+00 -.343E+00 0.275E+01   0.156E-01 -.273E-01 0.430E-01
   -.495E+02 0.116E+02 0.370E+03   0.495E+02 -.136E+02 -.370E+03   -.350E-01 0.194E+01 0.363E+00   0.302E-01 0.964E-02 -.514E-01
   -.764E+02 0.388E+01 -.132E+04   0.773E+02 -.469E+01 0.132E+04   -.981E+00 0.879E+00 0.244E+01   0.736E-01 -.718E-01 -.247E-01
   0.344E+02 0.262E+02 -.122E+04   -.353E+02 -.257E+02 0.122E+04   0.918E+00 -.417E+00 0.191E+01   -.433E-01 -.276E-01 -.414E-01
   -.417E+02 -.100E+03 0.568E+02   0.413E+02 0.998E+02 -.569E+02   0.334E+00 0.796E+00 0.118E+00   -.164E-01 0.170E-02 -.585E-01
   -.306E+02 -.223E+02 0.307E+02   0.311E+02 0.223E+02 -.309E+02   -.232E+00 0.621E-01 0.170E+00   0.108E-01 -.726E-01 -.119E+00
   0.399E+01 0.177E+00 -.100E+04   -.382E+01 -.143E+00 0.100E+04   -.172E+00 0.500E-01 0.405E+00   -.130E-02 -.253E-01 -.451E-01
   -.367E+02 0.128E+03 0.221E+04   0.381E+02 -.127E+03 -.221E+04   -.133E+01 -.127E+01 -.380E+01   0.335E-02 0.139E-01 -.174E-01
   0.576E+02 0.102E+03 0.219E+04   -.586E+02 -.102E+03 -.218E+04   0.101E+01 -.376E-01 -.350E+01   0.676E-02 -.105E-02 -.885E-02
   0.461E+02 0.446E+02 0.193E+04   -.456E+02 -.431E+02 -.193E+04   -.501E+00 -.133E+01 -.193E+01   0.173E-01 -.162E-01 -.306E-01
   0.777E+02 0.403E+02 0.118E+04   -.771E+02 -.401E+02 -.118E+04   -.656E+00 -.301E+00 -.315E+00   0.930E-03 -.114E-01 -.129E-01
   -.206E+02 -.117E+03 0.123E+04   0.209E+02 0.117E+03 -.123E+04   -.317E+00 0.626E-01 -.134E+00   -.201E-01 0.149E-01 -.654E-01
   -.665E+02 -.350E+02 -.111E+04   0.662E+02 0.351E+02 0.111E+04   0.303E+00 -.158E+00 0.481E+00   -.729E-03 0.107E-01 -.853E-01
   -.245E+03 -.490E+02 0.234E+04   0.243E+03 0.483E+02 -.234E+04   0.238E+01 0.753E+00 -.456E+01   0.371E-02 -.195E-02 -.414E-02
   -.223E+02 0.632E+02 0.120E+04   0.216E+02 -.631E+02 -.120E+04   0.728E+00 -.121E+00 -.490E+00   -.115E-01 -.556E-02 -.285E-01
   -.107E+03 -.418E+02 0.119E+03   0.107E+03 0.419E+02 -.119E+03   0.315E+00 -.139E+00 -.159E+00   0.300E-01 -.434E-01 -.362E-01
   0.104E+02 -.103E+03 -.116E+04   -.104E+02 0.102E+03 0.116E+04   0.111E-01 0.399E+00 0.464E+00   -.910E-02 0.600E-01 -.727E-01
   0.347E+02 0.710E+02 -.114E+04   -.346E+02 -.703E+02 0.114E+04   -.199E+00 -.753E+00 -.459E+00   0.913E-03 -.628E-01 -.159E-01
   -.436E+02 -.108E+03 0.224E+04   0.440E+02 0.105E+03 -.224E+04   -.380E+00 0.263E+01 -.422E+01   0.479E-02 0.588E-02 -.564E-02
   0.835E+02 0.142E+02 0.229E+04   -.833E+02 -.143E+02 -.228E+04   -.231E+00 0.837E-01 -.334E+01   -.138E-01 0.168E-01 -.146E-02
   0.330E+02 -.159E+02 0.123E+04   -.333E+02 0.159E+02 -.123E+04   0.319E+00 -.533E-01 0.317E+00   0.344E-02 0.192E-01 -.510E-01
   0.154E+03 0.114E+01 0.902E+03   -.155E+03 -.110E+01 -.904E+03   0.658E+00 -.582E-01 0.109E+01   0.992E-03 -.703E-02 -.669E-01
   0.506E+02 -.410E+02 0.260E+04   -.508E+02 0.410E+02 -.259E+04   0.209E+00 -.118E+00 -.291E+01   -.373E-02 0.561E-02 -.674E-02
   0.190E+03 -.513E+02 0.250E+04   -.188E+03 0.509E+02 -.250E+04   -.179E+01 0.455E+00 -.374E+01   0.160E-03 -.754E-03 -.115E-01
   -.713E+02 -.546E+02 0.129E+04   0.709E+02 0.539E+02 -.129E+04   0.466E+00 0.653E+00 -.110E+00   0.206E-01 0.613E-01 -.758E-01
   -.165E+03 0.309E+02 0.359E+02   0.165E+03 -.308E+02 -.356E+02   0.308E+00 -.252E+00 -.173E+00   0.487E-01 0.129E-01 -.922E-01
   -.220E+03 -.539E+01 0.150E+04   0.220E+03 0.637E+01 -.150E+04   -.152E+00 -.101E+01 0.994E-01   0.957E-02 -.258E-01 -.741E-01
   0.453E+02 0.808E+01 0.134E+04   -.453E+02 -.854E+01 -.134E+04   0.481E-01 0.466E+00 -.245E+00   -.861E-02 0.890E-02 -.798E-01
   0.122E+03 0.231E+02 -.136E+04   -.121E+03 -.230E+02 0.136E+04   -.909E+00 -.137E+00 0.347E+00   -.653E-01 0.820E-01 -.644E-01
   0.668E+02 -.236E+02 0.256E+04   -.660E+02 0.242E+02 -.256E+04   -.901E+00 -.545E+00 -.282E+01   0.140E-01 -.230E-01 -.844E-02
   -.633E+02 -.681E+01 0.139E+04   0.634E+02 0.730E+01 -.139E+04   -.881E-01 -.493E+00 -.339E-02   -.510E-01 -.254E-01 -.137E+00
   0.856E+02 -.119E+03 0.715E+01   -.853E+02 0.119E+03 -.649E+01   -.465E+00 0.120E+00 -.688E+00   -.240E-01 0.753E-01 -.105E+00
   0.253E+02 0.104E+03 0.965E+02   -.254E+02 -.104E+03 -.964E+02   -.271E-01 -.321E+00 -.900E-01   0.560E-01 0.524E-01 -.734E-02
   -.380E+01 0.535E+02 -.126E+04   0.382E+01 -.533E+02 0.126E+04   0.343E-01 -.206E+00 0.891E-01   -.111E-01 -.120E-01 -.868E-01
[...]
   0.606E+02 -.846E+02 0.992E+02   -.601E+02 0.844E+02 -.988E+02   -.664E+00 0.190E+00 -.172E+00   0.303E-01 -.305E-01 -.658E-01
   -.147E+03 -.478E+02 0.150E+04   0.147E+03 0.481E+02 -.150E+04   0.303E+00 -.261E+00 -.822E+00   -.688E-03 -.172E-01 -.555E-01
   -.908E+02 -.153E+00 0.153E+04   0.912E+02 -.189E+00 -.152E+04   -.473E+00 0.313E+00 -.686E+00   0.923E-02 -.356E-02 -.349E-01
   -.229E+03 -.130E+03 0.291E+04   0.228E+03 0.129E+03 -.291E+04   0.142E+01 0.984E+00 -.354E+01   -.503E-01 -.195E-02 -.198E-01
   0.213E+03 -.340E+02 0.271E+04   -.213E+03 0.338E+02 -.271E+04   -.600E-01 0.300E+00 -.160E+01   0.277E-01 -.186E-01 -.243E-01
   0.106E+03 0.748E+01 0.149E+04   -.106E+03 -.757E+01 -.149E+04   -.250E+00 0.157E+00 0.650E-01   0.827E-02 -.167E-01 -.131E+00
   0.143E+03 -.326E+02 0.130E+04   -.142E+03 0.324E+02 -.130E+04   -.489E+00 0.259E+00 -.434E+00   -.795E-02 -.203E-01 -.881E-01
   -.105E+02 -.433E+02 -.140E+04   0.103E+02 0.431E+02 0.140E+04   0.159E+00 0.265E+00 0.263E+00   -.177E-03 -.911E-01 -.725E-01
   0.240E+02 0.220E+02 0.287E+04   -.245E+02 -.217E+02 -.287E+04   0.531E+00 -.327E+00 -.865E+00   -.114E-01 0.182E-01 -.241E-02
   -.628E+02 0.169E+03 -.967E+01   0.629E+02 -.169E+03 0.998E+01   0.698E-01 -.524E-01 -.472E+00   -.739E-01 0.229E-01 -.889E-02
   -.241E+02 0.569E+02 -.148E+02   0.241E+02 -.560E+02 0.151E+02   0.114E+00 -.823E+00 -.129E+00   -.512E-01 0.222E-01 -.166E+00
   0.208E+03 0.307E+02 -.175E+03   -.208E+03 -.302E+02 0.175E+03   0.823E-01 -.498E+00 -.528E+00   -.520E-01 0.296E-01 -.126E+00
   -.605E+02 -.903E+02 0.125E+03   0.606E+02 0.898E+02 -.125E+03   0.256E-01 0.327E+00 0.147E+00   0.304E-02 0.981E-01 -.953E-01
   -.205E+01 0.591E+00 -.315E+03   0.222E+01 -.738E+00 0.317E+03   -.121E+00 0.158E+00 -.135E+01   0.150E-02 0.130E-04 -.171E-02
   -.893E+00 -.149E+01 0.201E+00   -.136E-12 -.253E-12 0.330E-11   0.983E+00 0.141E+01 0.343E+01   -.725E-01 0.847E-01 -.364E+01

 POSITION                                       TOTAL-FORCE (eV/Angst)
     13.67589      8.45926      6.69255        -0.010973      0.006567     -0.002786
      5.21919      8.46692      6.58970        -0.001671     -0.009767      0.038133
      5.15099      3.50704      6.83898         0.019098      0.015518      0.031672
     15.13467      9.28929      8.93752         0.017156     -0.008734     -0.022059
      3.86629      4.44976      9.07363         0.005352      0.014560      0.000187
      6.74017      9.21309      8.85535        -0.000256      0.007589     -0.023144
     12.21853      4.36362      9.09614         0.012837      0.000369     -0.007356
      9.55426      9.26051      9.15575         0.013218     -0.011445      0.008193
     10.88944      1.92868      8.92273         0.016535      0.000241     -0.001556
      2.51317      1.91661      9.07934        -0.006756      0.009389      0.009360
     12.31772      9.21361      9.09280         0.000049     -0.011052     -0.006527
     13.75192      6.87287      9.04184        -0.008071     -0.010798     -0.005889
      5.31804      1.94610      9.13039        -0.000889      0.008541      0.012226
      8.06965      6.81578      8.90711        -0.003137     -0.003293     -0.009294
      9.49533      4.42653      8.97263        -0.000230      0.005232     -0.005433
      5.25553      6.84279      8.96058         0.001003      0.005907      0.002368
      8.14313      1.97592      9.04264        -0.014937      0.011298      0.005816
      8.09062      3.54492      6.76057        -0.006586      0.008817     -0.002766
      6.66999      1.09132      6.88854        -0.004701     -0.017430      0.011360
      6.68830      1.13624      1.16869         0.007754     -0.012983     -0.025023
      3.54481      4.07903      2.60632        -0.000020      0.001576     -0.047209
      1.24927      1.21963      6.74036        -0.000641     -0.000409      0.011797
      0.89178      1.06685      0.94626        -0.014325     -0.003915     -0.010629
      6.65662      9.25676      3.21225         0.002278      0.005704     -0.055116
      6.68539      4.39005      8.99882        -0.000140     -0.015292     -0.014253
      8.21162      5.46055      4.88522        -0.193410     -0.025601     -0.262215
     10.90620      6.84218      9.07389        -0.001864     -0.020905     -0.012182
     14.89052      7.35140      4.54429        -0.002944      0.009739      0.005255
     12.41100      5.97978      6.88130         0.001395     -0.015412      0.018870
      6.45129      5.96595      6.72348        -0.017220     -0.000117      0.024033
      3.61025      2.53567      4.92929        -0.149773      0.199320     -0.022038
     10.87699      5.23710      4.87771         0.230398     -0.032051     -0.053483
      3.86680      6.04995      6.84482        -0.007431     -0.001320      0.006406
     13.83953      8.59728      1.29834         0.011909      0.010622      0.009031
      5.33586      8.40288      1.25445         0.010399     -0.009854      0.051689
      4.16277      6.39081      1.85096         0.022259     -0.015850      0.007735
      8.19107      2.05273      3.03386         0.003643     -0.006025     -0.010816
      9.58169      9.27602      2.99468         0.040626     -0.002691      0.022870
      2.40570      3.61795      7.00535         0.011654     -0.003563     -0.010982
     13.01773      3.43953      0.94254        -0.027995      0.012418      0.005045
     10.87071      1.99839      2.96738         0.025767      0.005872     -0.007513
     13.56890      5.06817      4.77058         0.020101     -0.009176      0.055470
      3.99055      1.04799      7.03710        -0.008911     -0.010509     -0.002325
      9.60267      6.13400      6.99453         0.008722     -0.000171      0.020241
      3.81646      1.07543      1.16136        -0.013867     -0.019566      0.014260
      8.06104      3.56771      1.10023        -0.008714     -0.001725      0.000042
      5.20370      2.03419      2.97809        -0.002290     -0.056070      0.085831
      5.89506      6.72021      3.47528        -0.008236     -0.007079     -0.038178
      9.35391      6.06988      1.14808         0.008777     -0.032918      0.022876
      5.63380      3.63292      1.23723         0.046787      0.060994     -0.001716
     12.43866      9.06023      3.09611         0.006745     -0.008282     -0.035817
     12.07766      7.63668      4.91324         0.012127     -0.027542      0.003798
     13.13008      6.61689      2.83040        -0.037999      0.012489     -0.011721
      9.41148      4.47169      2.86934         0.028342     -0.032104      0.008557
      8.50687      8.52004      7.01161         0.009924     -0.018316     -0.008709
      8.18243      8.58957      1.16315        -0.014153      0.022242     -0.020061
     10.79405      6.97057      2.90238        -0.001416      0.014765      0.046270
      2.82111      0.14512      5.04740        -0.208608     -0.039883     -0.011720
      8.14725      0.55026      4.88481        -0.006732     -0.039376      0.060442
      9.39737      1.20345      6.89012         0.003539      0.003809     -0.023563
[...]
      9.60048      2.82018      4.87865        -0.048967      0.047924      0.039575
      6.60502      2.54502      4.87077        -0.029414     -0.016421      0.036013
     12.08196      4.24602      2.88896         0.016053      0.007195     -0.043194
      2.28916      1.82528      2.94996         0.000275     -0.031223      0.033955
     11.76886      5.74999      1.05362         0.002568     -0.006134     -0.010670
      6.84033      5.98705      1.38644        -0.016042      0.006749      0.008126
      8.30437      7.12497      3.00063        -0.001029      0.039164      0.027611
      6.85459      4.22009      3.15394        -0.051296     -0.031372     -0.001153
     10.88035      3.56728      6.91224        -0.005682      0.011650     -0.004168
     10.60151      3.45495      1.03917        -0.003406     -0.006672     -0.026590
     10.73179      0.68889      4.99664         0.017281      0.016609     -0.059767
      9.67006      7.71157      4.99333         0.036069      0.117201      0.098881
      7.17143      7.81748      5.18228         0.029937     -0.009270     -0.007865
      5.29940      0.29561      4.91544         0.155274     -0.075388     -0.030094
      2.43037      3.62073      9.92252         0.043911      0.011701     -0.009821
    total drift:                                0.017995      0.012258     -0.004076

  FREE ENERGIE OF THE ION-ELECTRON SYSTEM (eV)
  free  energy   TOTEN  =      -538.44521316 eV

  energy  without entropy=     -538.45647680  energy(sigma->0) =     -538.44896771

 d Force = 0.1461058E-03[ 0.200E-04, 0.272E-03]  d Energy = 0.1745928E-03-0.285E-04
 d Force =-0.2943704E+01[-0.294E+01,-0.294E+01]  d Ewald  =-0.2943704E+01-0.258E-06

 reached required accuracy - stopping structural energy minimisation