 vasp.5.4.4.18Apr17-6-g9f103f2a35 (build Nov 30 2020 22:55:02) complex

 executed on             LinuxIFC date 2021.11.28  19:40:13

 INCAR:
 POTCAR:    PAW_PBE Pt 04Feb2005
 POTCAR:    PAW_PBE Fe 06Sep2000
 POTCAR:    PAW_PBE Co 02Aug2007
 POTCAR:    PAW_PBE Cu 22Jun2005
 POTCAR:    PAW_PBE Ni 02Aug2007
 POTCAR:    PAW_PBE H 15Jun2001

 POTCAR:    PAW_PBE Pt 04Feb2005
   VRHFIN =Pt: s1d9

   TITEL  = PAW_PBE Pt 04Feb2005
   POMASS =  195.080; ZVAL   =   10.000    mass and valenz
   ENMAX  =  230.283; ENMIN  =  172.712 eV

 POTCAR:    PAW_PBE Fe 06Sep2000
   VRHFIN =Fe:  d7 s1

   TITEL  = PAW_PBE Fe 06Sep2000
   POMASS =   55.847; ZVAL   =    8.000    mass and valenz
   ENMAX  =  267.882; ENMIN  =  200.911 eV

 POTCAR:    PAW_PBE Co 02Aug2007
   VRHFIN =Co: d8 s1

   TITEL  = PAW_PBE Co 02Aug2007
   POMASS =   58.933; ZVAL   =    9.000    mass and valenz
   ENMAX  =  267.968; ENMIN  =  200.976 eV

 POTCAR:    PAW_PBE Cu 22Jun2005
   VRHFIN =Cu: d10 p1

   TITEL  = PAW_PBE Cu 22Jun2005
   POMASS =   63.546; ZVAL   =   11.000    mass and valenz
   ENMAX  =  295.446; ENMIN  =  221.585 eV

 POTCAR:    PAW_PBE Ni 02Aug2007
   VRHFIN =Ni:

   TITEL  = PAW_PBE Ni 02Aug2007
   POMASS =   58.690; ZVAL   =   10.000    mass and valenz
   ENMAX  =  269.532; ENMIN  =  202.149 eV

 POTCAR:    PAW_PBE H 15Jun2001
   VRHFIN =H: ultrasoft test

   TITEL  = PAW_PBE H 15Jun2001
   POMASS =    1.000; ZVAL   =    1.000    mass and valenz
   ENMAX  =  250.000; ENMIN  =  200.000 eV

 Optimization of the real space projectors (new method)

 maximal supplied QI-value         = 14.36
 optimisation between [QCUT,QGAM] = [ 11.92, 23.98] = [ 39.79,161.09] Ry
 Optimized for a Real-space Cutoff    1.49 Angstroem

   l    n(q)    QCUT    max X(q) W(low)/X(q) W(high)/X(q)  e(spline)
   2     10    11.920    66.195    0.79E-04    0.18E-03    0.24E-06
   2     10    11.920    64.643    0.81E-04    0.19E-03    0.24E-06
   0     11    11.920    95.520    0.28E-04    0.54E-04    0.18E-06
   0     11    11.920    63.403    0.27E-04    0.52E-04    0.17E-06
   1     10    11.920    19.961    0.18E-04    0.11E-03    0.23E-06
   1     10    11.920    13.289    0.25E-04    0.87E-04    0.19E-06
 Optimization of the real space projectors (new method)

[...]

   l    n(q)    QCUT    max X(q) W(low)/X(q) W(high)/X(q)  e(spline)
   2      9    11.864    60.317    0.21E-03    0.51E-03    0.25E-06
   2      9    11.864    55.921    0.21E-03    0.51E-03    0.26E-06
   0      9    11.864    51.690    0.22E-03    0.30E-04    0.17E-06
   0      9    11.864    30.015    0.20E-03    0.28E-04    0.15E-06
   1      9    11.864    18.849    0.76E-04    0.33E-03    0.17E-06
   1      9    11.864    14.624    0.60E-04    0.28E-03    0.15E-06
 Optimization of the real space projectors (new method)

 maximal supplied QI-value         = 34.20
 optimisation between [QCUT,QGAM] = [ 11.97, 23.94] = [ 40.13,160.53] Ry
 Optimized for a Real-space Cutoff    1.18 Angstroem

   l    n(q)    QCUT    max X(q) W(low)/X(q) W(high)/X(q)  e(spline)
   0      8    11.971    19.460    0.15E-03    0.31E-03    0.25E-06
   0      8    11.971    12.209    0.13E-03    0.29E-03    0.25E-06
   1      8    11.971     4.655    0.22E-03    0.24E-03    0.21E-06
  PAW_PBE Pt 04Feb2005                  :
  PAW_PBE Fe 06Sep2000                  :
  PAW_PBE Co 02Aug2007                  :
  PAW_PBE Cu 22Jun2005                  :
  PAW_PBE Ni 02Aug2007                  :
  PAW_PBE H 15Jun2001                   :

 POSCAR: Pt   Fe   Co   Cu   Ni   H
  positions in cartesian coordinates
 exchange correlation table for  LEXCH =        8
   RHO(1)=    0.500       N(1)  =     2000
   RHO(2)=  100.500       N(2)  =     4000

 ion  position               nearest neighbor table
   1  0.787  0.880  0.317-  28 2.62  49 2.62  19 2.64  59 2.64  61 2.66  33 2.66  29 2.68  60 2.69
                             2 2.73  11 2.76   4 2.79  12 2.87
   2  0.044  0.884  0.316-  79 2.55  77 2.60  60 2.62  30 2.64  52 2.65  22 2.67  28 2.68  33 2.69
                             1 2.73   4 2.81   6 2.84  16 2.90
   3  0.279  0.380  0.320-  39 2.55  64 2.58  33 2.59  31 2.63  19 2.69  43 2.71  30 2.72  68 2.72
                             5 2.81  18 2.82  25 2.85  13 2.88
   4  0.874  0.962  0.423-  11 2.61  17 2.63  12 2.64  16 2.66   6 2.66   9 2.67  60 2.79   1 2.79
                             2 2.81
   5  0.122  0.466  0.430-  82 2.15  12 2.60  16 2.60   7 2.64  10 2.65  25 2.69  13 2.72  33 2.74
                            39 2.77   3 2.81
   6  0.127  0.960  0.427-  81 1.75  14 2.62  16 2.64   8 2.65   4 2.66  10 2.67   9 2.67   2 2.84
                            52 2.89  22 2.95
   7  0.873  0.463  0.426-  15 2.61   9 2.63  12 2.63  27 2.63   5 2.64  10 2.66  39 2.68  75 2.75
                            29 2.77
   8  0.378  0.958  0.419-  43 2.59  14 2.60  27 2.60  11 2.64   6 2.65  13 2.66  10 2.67  52 2.68
                            61 2.69
   9  0.874  0.214  0.426-  81 1.76  15 2.62   7 2.63  17 2.64  10 2.66   4 2.67   6 2.67  75 2.77
                            60 2.82  22 2.89
  10  0.127  0.213  0.423-  82 1.92  13 2.65   5 2.65   9 2.66   7 2.66   6 2.67   8 2.67  39 2.68
                            43 2.73  22 2.79
  11  0.627  0.960  0.424-   4 2.61  13 2.62  12 2.63  27 2.64   8 2.64  17 2.65   1 2.76  19 2.81
                            61 2.85
  12  0.875  0.711  0.427-   5 2.60  11 2.63   7 2.63   4 2.64  16 2.64  27 2.65  33 2.69  29 2.84
                             1 2.87
  13  0.380  0.209  0.429-  82 1.70  11 2.62  17 2.62  10 2.65   8 2.66  25 2.68   5 2.72  19 2.86
                            43 2.87   3 2.88
  14  0.375  0.714  0.423-   8 2.60  27 2.61   6 2.62  25 2.64  16 2.65  15 2.66  44 2.70  52 2.75
                            30 2.77
  15  0.627  0.462  0.422-   7 2.61   9 2.62  27 2.63  25 2.63  17 2.65  14 2.66  44 2.69  75 2.70
                            18 2.77
  16  0.126  0.710  0.427-   5 2.60  25 2.63  12 2.64   6 2.64  14 2.65   4 2.66  33 2.68  30 2.83
                             2 2.90
  17  0.626  0.212  0.422-  13 2.62   4 2.63   9 2.64  25 2.64  15 2.65  11 2.65  18 2.75  60 2.76
                            19 2.84
  18  0.549  0.375  0.317-  67 2.55  60 2.58  75 2.61  44 2.65  68 2.65  26 2.66  30 2.71  19 2.73
                            17 2.75  15 2.77   3 2.82  25 2.86
  19  0.533  0.125  0.316-  43 2.56  80 2.57  68 2.59  59 2.63  61 2.63   1 2.64   3 2.69  18 2.73
                            60 2.78  11 2.81  17 2.84  13 2.86
  20  0.547  0.124  0.040-  37 2.55  57 2.56  48 2.58  62 2.64  63 2.68  47 2.68  45 2.68  56 2.70
                            34 2.71
  21  0.121  0.460  0.128-  40 2.52  36 2.53  47 2.53  42 2.60  69 2.61  64 2.62  70 2.64  50 2.64
                            58 2.67  31 2.70  57 2.71  74 2.72
  22  0.043  0.137  0.315-  65 2.54  55 2.56  43 2.57  39 2.58  77 2.60  75 2.60  60 2.66   2 2.67
                            52 2.74  10 2.79   9 2.89   6 2.95  31 3.41
  23  0.042  0.130  0.033-  70 2.58  40 2.60  41 2.61  45 2.62  62 2.64  76 2.64  24 2.69  35 2.73
                            53 2.78
  24  0.130  0.958  0.132-  79 2.51  77 2.54  35 2.57  53 2.57  55 2.58  70 2.62  38 2.64  58 2.64
                            73 2.65  23 2.69  66 2.70  41 2.72
  25  0.377  0.464  0.425-  16 2.63  15 2.63  14 2.64  17 2.64  13 2.68   5 2.69  30 2.81   3 2.85
                            18 2.86
  26  0.455  0.546  0.219-  73 2.50  74 2.54  51 2.56  79 2.61  64 2.63  30 2.64  18 2.66  68 2.67
                            78 2.67  32 2.68  67 2.72  44 2.75
  27  0.624  0.712  0.423-   8 2.60  14 2.61  15 2.63   7 2.63  11 2.64  12 2.65  44 2.70  61 2.78
                            29 2.78
  28  0.956  0.790  0.221-  58 2.57  66 2.57  50 2.58  42 2.59  49 2.61   1 2.62  64 2.63   2 2.68
                            59 2.70  33 2.72  79 2.76  77 2.77
  29  0.795  0.623  0.319-  39 2.54  42 2.55  75 2.58  32 2.62  33 2.65  44 2.65  61 2.67  49 2.67
                             1 2.68   7 2.77  27 2.78  12 2.84
  30  0.291  0.631  0.318-  79 2.56  64 2.60  52 2.61  44 2.63   2 2.64  26 2.64  33 2.65  18 2.71
                             3 2.72  14 2.77  25 2.81  16 2.83
  31  0.203  0.281  0.225-  70 2.52  55 2.56  65 2.57  43 2.59  57 2.60   3 2.63  39 2.67  80 2.70
                            21 2.70  42 2.71  68 2.75  64 2.79  22 3.41
  32  0.706  0.549  0.221-  54 2.53  69 2.56  51 2.58  49 2.59  42 2.60  29 2.62  78 2.62  65 2.63
                            26 2.68  44 2.69  75 2.70  67 2.70
  33  0.041  0.631  0.326-   3 2.59  39 2.63  29 2.65  30 2.65   1 2.66  16 2.68   2 2.69  12 2.69
                            64 2.70  28 2.72  42 2.74   5 2.74
  34  0.797  0.862  0.042-  50 2.38  66 2.51  48 2.53  36 2.55  71 2.56  63 2.61  20 2.71  35 2.76
                            62 2.76
  35  0.056  0.866  0.038-  58 2.54  72 2.55  36 2.56  24 2.57  66 2.62  53 2.65  23 2.73  62 2.73
                            34 2.76
  36  0.046  0.628  0.037-  21 2.53  34 2.55  35 2.56  58 2.58  50 2.61  47 2.63  72 2.64  40 2.69
                            71 2.72
  37  0.627  0.222  0.129-  51 2.51  74 2.51  67 2.52  56 2.53  41 2.55  20 2.55  68 2.56  59 2.56
                            62 2.59  66 2.66  57 2.73  48 2.89
  38  0.382  0.955  0.130-  53 2.47  80 2.48  45 2.49  78 2.53  48 2.54  73 2.55  63 2.55  54 2.56
                            55 2.59  57 2.62  24 2.64  70 2.67
  39  0.036  0.384  0.325-  29 2.54   3 2.55  22 2.58  75 2.59  33 2.63  42 2.66  31 2.67   7 2.68
                            10 2.68  65 2.77   5 2.77  43 2.78
  40  0.031  0.382  0.038-  69 2.44  21 2.52  71 2.53  76 2.56  70 2.57  23 2.60  36 2.69  45 2.78
                            47 2.78
  41  0.872  0.215  0.128-  76 2.45  65 2.52  77 2.53  67 2.54  37 2.55  69 2.57  62 2.57  51 2.59
                            23 2.61  70 2.65  66 2.66  24 2.72
  42  0.955  0.545  0.224-  29 2.55  50 2.56  28 2.59  21 2.60  32 2.60  69 2.61  49 2.63  65 2.64
                            64 2.65  39 2.66  31 2.71  33 2.74
  43  0.296  0.116  0.321-  55 2.53  52 2.53  19 2.56  61 2.57  22 2.57   8 2.59  31 2.59  80 2.66
                             3 2.71  10 2.73  39 2.78  13 2.87
  44  0.541  0.630  0.322-  61 2.57  52 2.58  30 2.63  78 2.63  18 2.65  29 2.65  75 2.66  32 2.69
                            15 2.69  14 2.70  27 2.70  26 2.75
  45  0.295  0.119  0.039-  70 2.49  38 2.49  57 2.57  53 2.60  23 2.62  63 2.64  20 2.68  47 2.75
                            40 2.78
  46  0.548  0.625  0.044-  51 2.38  73 2.39  54 2.41  71 2.56  53 2.56  63 2.58  76 2.59  56 2.62
                            72 2.64
  47  0.296  0.379  0.039-  74 2.41  21 2.53  57 2.61  72 2.61  56 2.62  36 2.63  20 2.68  45 2.75
                            40 2.78
  48  0.625  0.950  0.132-  49 2.40  80 2.48  54 2.48  34 2.53  38 2.54  59 2.55  50 2.56  63 2.57
                            20 2.58  57 2.65  66 2.68  37 2.89
  49  0.706  0.794  0.220-  48 2.40  50 2.48  54 2.49  80 2.53  32 2.59  28 2.61  61 2.61  78 2.61
                             1 2.62  42 2.63  29 2.67  59 2.69
  50  0.866  0.706  0.129-  34 2.38  71 2.42  54 2.48  49 2.48  42 2.56  48 2.56  69 2.58  28 2.58
[...]
      2.51347      0.25826      5.00083        -0.024028      0.076990      0.088265
      7.74264      3.48454      0.76157        -0.005711     -0.017885      0.010299
      5.07835      1.87760      2.91701        -0.001390     -0.012972     -0.004566
      5.16037      6.44715      2.89923        -0.007590     -0.007298     -0.010145
      7.70892      0.45986      4.84799         0.001504      0.041884      0.009944
      9.07729      1.19813      6.98828         0.011190      0.008726     -0.000843
[...]
      6.37169      2.66558      4.85827        -0.024242     -0.040399      0.066501
     11.65891      4.17486      2.81483        -0.017334      0.001726     -0.021244
      2.44098      1.89237      2.83279         0.016066      0.021100      0.019007
     11.64953      5.68621      0.88546         0.002084      0.034092      0.002579
      6.44743      5.71949      0.92597        -0.011936      0.025088      0.007222
      7.82927      6.50651      2.83621        -0.024114     -0.005797     -0.023265
      6.41922      4.13007      2.78290        -0.011314      0.002993     -0.015783
     10.38656      3.47052      7.05871         0.019458     -0.000132     -0.025043
     10.34410      3.45013      0.86804         0.007645     -0.029085     -0.025771
     10.37063      0.48410      4.87151        -0.045278     -0.023780      0.040976
      9.04079      7.29017      4.93700         0.022323     -0.037563     -0.026323
      6.46265      7.29503      4.94074        -0.013399      0.064150     -0.007917
      5.04247      0.27633      4.88406         0.017265      0.052179      0.049339
     10.95668      0.76284     10.52394        -0.025809     -0.009090      0.022361
      3.88883      2.40551     10.50239        -0.113349      0.008536      0.088447
    total drift:                               -0.006446     -0.015571     -0.029190

  FREE ENERGIE OF THE ION-ELECTRON SYSTEM (eV)
  free  energy   TOTEN  =      -514.64227882 eV

  energy  without entropy=     -514.64227882  energy(sigma->0) =     -514.64227882

 d Force = 0.4105104E-03[-0.265E-02, 0.347E-02]  d Energy = 0.6020091E-03-0.191E-03
 d Force =-0.1050597E+02[-0.105E+02,-0.105E+02]  d Ewald  =-0.1050618E+02 0.206E-03

 Finite differences progress:
  Degree of freedom:   6/  6
  Displacement:        2/  2
  Total:              12/ 12

 SECOND DERIVATIVES (NOT SYMMETRIZED)
              81X         81Y         81Z         82X         82Y         82Z
 81X    -0.716454    1.002381    0.392113    0.014783   -0.001198    0.011875
 81Y     0.972297   -1.940343    0.019366   -0.016537   -0.000375    0.005809
 81Z     0.397452   -0.007729   -7.509497    0.039018    0.006327    0.005350
 82X     0.013434   -0.017790    0.032363   -2.072436    0.850524    2.968748
 82Y    -0.001420    0.001632   -0.005474    0.834425   -0.490174   -1.713573
 82Z     0.007674    0.005749   -0.017968    2.974379   -1.722541   -6.808700

 Eigenvectors and eigenvalues of the dynamical matrix

   1 f  =   46.078210 THz   289.517931 2PiTHz 1537.003593 cm-1   190.564227 meV
             X         Y         Z           dx          dy          dz
     12.959294  8.049417  6.979428            0           0           0
      5.126296  8.083304  6.961284            0           0           0
      4.958871  3.479672  7.037763            0           0           0
     14.306937  8.795143  9.304789            0           0           0
      3.745179  4.263381  9.451769            0           0           0
      6.409254  8.783354  9.402126            0           0           0
     11.669187  4.237124  9.366684            0           0           0
      9.051479  8.763359  9.213189            0           0           0
     10.363733  1.958633  9.381665            0           0           0
      2.464691  1.944902  9.314086            0           0           0
     11.692319  8.781546  9.321736            0           0           0
     13.000485  6.506318  9.395364            0           0           0
      5.109559  1.908410  9.443137            0           0           0
      7.733412  6.529599  9.309849            0           0           0
      9.060175  4.225529  9.291330            0           0           0
      5.081915  6.496711  9.387011            0           0           0
      7.727531  1.938032  9.278749            0           0           0
      7.780588  3.431809  6.971097            0           0           0
      6.293055  1.146737  6.955441            0           0           0
      6.428579  1.129740  0.878720            0           0           0
      3.705484  4.208436  2.816869            0           0           0
      1.177362  1.254727  6.939408            0           0           0
      1.135691  1.190800  0.725566            0           0           0
      6.436066  8.760995  2.900314            0           0           0
      6.428593  4.239415  9.356538            0           0           0
      7.681351  4.990728  4.814740            0           0           0
     10.347616  6.513610  9.313232            0           0           0
     14.264242  7.225928  4.862987            0           0           0
     11.682152  5.699067  7.010914            0           0           0
      6.412045  5.774588  6.997989            0           0           0
      3.621194  2.565893  4.960228            0           0           0
     10.360912  5.024302  4.856517            0           0           0
      3.762628  5.771271  7.166106            0           0           0
     12.969068  7.879772  0.925674            0           0           0
      5.163396  7.917194  0.830298            0           0           0
      3.807011  5.745024  0.813805            0           0           0
      7.798522  2.032451  2.832513            0           0           0
      9.077547  8.733730  2.857427            0           0           0
      2.410376  3.510520  7.144906            0           0           0
      2.344093  3.490514  0.825101            0           0           0
     10.348141  1.969830  2.822490            0           0           0
     12.960353  4.985870  4.925592            0           0           0
      3.738446  1.064617  7.068015            0           0           0
      9.035835  5.758961  7.078157            0           0           0
      3.748243  1.091821  0.867003            0           0           0
      9.091210  5.718673  0.960427            0           0           0
      5.124479  3.470454  0.855627            0           0           0
     11.620923  8.687580  2.905895            0           0           0
     11.653130  7.264496  4.842290            0           0           0
     12.867560  6.452796  2.833790            0           0           0
      9.042010  4.207796  2.796278            0           0           0
      7.775381  8.002481  6.982048            0           0           0
      7.813155  7.939223  0.886525            0           0           0
     10.391439  6.535663  2.821980            0           0           0
      2.513474  0.258257  5.000827            0           0           0
      7.742638  3.484538  0.761574            0           0           0
      5.078354  1.877603  2.917008            0           0           0
      5.160365  6.447147  2.899226            0           0           0
      7.708921  0.459858  4.847993            0           0           0
      9.077292  1.198132  6.988281            0           0           0
[...]
      6.371693  2.665576  4.858272            0           0           0
     11.658911  4.174860  2.814827            0           0           0
      2.440982  1.892366  2.832794            0           0           0
     11.649530  5.686214  0.885461            0           0           0
      6.447433  5.719494  0.925972            0           0           0
      7.829267  6.506514  2.836212            0           0           0
      6.419224  4.130068  2.782896            0           0           0
     10.386561  3.470520  7.058711            0           0           0
     10.344097  3.450125  0.868038            0           0           0
     10.370626  0.484098  4.871515            0           0           0
      9.040790  7.290173  4.936995            0           0           0
      6.462653  7.295032  4.940739            0           0           0
      5.042471  0.276335  4.884059            0           0           0
     10.956677  0.762842 10.523941    -0.000955   -0.001724    0.017761
      3.888830  2.405509 10.517389    -0.423000    0.227280    0.876981

[...]

   6 f  =    3.248052 THz    20.408116 2PiTHz  108.343365 cm-1    13.432870 meV
             X         Y         Z           dx          dy          dz
     12.959294  8.049417  6.979428            0           0           0
      5.126296  8.083304  6.961284            0           0           0
      4.958871  3.479672  7.037763            0           0           0
     14.306937  8.795143  9.304789            0           0           0
      3.745179  4.263381  9.451769            0           0           0
      6.409254  8.783354  9.402126            0           0           0
     11.669187  4.237124  9.366684            0           0           0
      9.051479  8.763359  9.213189            0           0           0
     10.363733  1.958633  9.381665            0           0           0
      2.464691  1.944902  9.314086            0           0           0
     11.692319  8.781546  9.321736            0           0           0
     13.000485  6.506318  9.395364            0           0           0
      5.109559  1.908410  9.443137            0           0           0
      7.733412  6.529599  9.309849            0           0           0
      9.060175  4.225529  9.291330            0           0           0
      5.081915  6.496711  9.387011            0           0           0
      7.727531  1.938032  9.278749            0           0           0
      7.780588  3.431809  6.971097            0           0           0
      6.293055  1.146737  6.955441            0           0           0
      6.428579  1.129740  0.878720            0           0           0
      3.705484  4.208436  2.816869            0           0           0
      1.177362  1.254727  6.939408            0           0           0
      1.135691  1.190800  0.725566            0           0           0
      6.436066  8.760995  2.900314            0           0           0
      6.428593  4.239415  9.356538            0           0           0
      7.681351  4.990728  4.814740            0           0           0
     10.347616  6.513610  9.313232            0           0           0
     14.264242  7.225928  4.862987            0           0           0
     11.682152  5.699067  7.010914            0           0           0
      6.412045  5.774588  6.997989            0           0           0
      3.621194  2.565893  4.960228            0           0           0
     10.360912  5.024302  4.856517            0           0           0
      3.762628  5.771271  7.166106            0           0           0
     12.969068  7.879772  0.925674            0           0           0
      5.163396  7.917194  0.830298            0           0           0
      3.807011  5.745024  0.813805            0           0           0
      7.798522  2.032451  2.832513            0           0           0
      9.077547  8.733730  2.857427            0           0           0
      2.410376  3.510520  7.144906            0           0           0
      2.344093  3.490514  0.825101            0           0           0
     10.348141  1.969830  2.822490            0           0           0
     12.960353  4.985870  4.925592            0           0           0
      3.738446  1.064617  7.068015            0           0           0
      9.035835  5.758961  7.078157            0           0           0
      3.748243  1.091821  0.867003            0           0           0
      9.091210  5.718673  0.960427            0           0           0
      5.124479  3.470454  0.855627            0           0           0
     11.620923  8.687580  2.905895            0           0           0
     11.653130  7.264496  4.842290            0           0           0
     12.867560  6.452796  2.833790            0           0           0
      9.042010  4.207796  2.796278            0           0           0
      7.775381  8.002481  6.982048            0           0           0
      7.813155  7.939223  0.886525            0           0           0
     10.391439  6.535663  2.821980            0           0           0
      2.513474  0.258257  5.000827            0           0           0
      7.742638  3.484538  0.761574            0           0           0
      5.078354  1.877603  2.917008            0           0           0
      5.160365  6.447147  2.899226            0           0           0
      7.708921  0.459858  4.847993            0           0           0
      9.077292  1.198132  6.988281            0           0           0
[...]
      6.371693  2.665576  4.858272            0           0           0
     11.658911  4.174860  2.814827            0           0           0
      2.440982  1.892366  2.832794            0           0           0
     11.649530  5.686214  0.885461            0           0           0
      6.447433  5.719494  0.925972            0           0           0
      7.829267  6.506514  2.836212            0           0           0
      6.419224  4.130068  2.782896            0           0           0
     10.386561  3.470520  7.058711            0           0           0
     10.344097  3.450125  0.868038            0           0           0
     10.370626  0.484098  4.871515            0           0           0
      9.040790  7.290173  4.936995            0           0           0
      6.462653  7.295032  4.940739            0           0           0
      5.042471  0.276335  4.884059            0           0           0
     10.956677  0.762842 10.523941    -0.018316   -0.010872   -0.000193
      3.888830  2.405509 10.517389     0.117862    0.973373   -0.195449

 Finite differences POTIM=  1.500000000000000E-002
  LATTYP: Found a hexagonal cell.
 ALAT       =    10.5600004196
 C/A-ratio  =     2.0833332505

  Lattice vectors:

 A1 = (   5.2800002098,  -9.1452286274,   0.0000000000)
 A2 = ( -10.5600004196,   0.0000000000,   0.0000000000)
 A3 = (   0.0000000000,   0.0000000000, -22.0000000000)

Analysis of symmetry for initial positions (statically):
 Subroutine PRICEL returns:
 Original cell was already a primitive cell.

[...]

The static configuration has the point symmetry C_1 .

Analysis of symmetry for dynamics (positions and initial velocities):
 Subroutine PRICEL returns:
 Original cell was already a primitive cell.

[...]

The dynamic configuration has the point symmetry C_1 .

Analysis of constrained symmetry for selective dynamics:
 Subroutine PRICEL returns:
 Original cell was already a primitive cell.

[...]

The constrained configuration has the point symmetry C_1 .

Analysis of structural, dynamic, and magnetic symmetry:
 Subroutine PRICEL returns:
 Original cell was already a primitive cell.

 Routine SETGRP: Setting up the symmetry group for a
 hexagonal supercell.

 Subroutine GETGRP returns: Found  1 space group operations
 (whereof  1 operations were pure point group operations)
 out of a pool of 24 trial point group operations.

The magnetic configuration has the point symmetry C_1 .

 Subroutine INISYM returns: Found  1 space group operations
 (whereof  1 operations are pure point group operations),
 and found     1 'primitive' translations

 KPOINTS: mesh auto

Automatic generation of k-mesh.
Space group operators:
 irot       det(A)        alpha          n_x          n_y          n_z        tau_x        tau_y        tau_z
    1     1.000000     0.000001     1.000000     0.000000     0.000000     0.000000     0.000000     0.000000

 Subroutine IBZKPT returns following result:

 Found      4 irreducible k-points:

 Following reciprocal coordinates:
            Coordinates               Weight
  0.000000  0.000000  0.000000      1.000000
  0.500000  0.000000  0.000000      1.000000
  0.000000  0.500000  0.000000      1.000000
  0.500000  0.500000  0.000000      1.000000

 Following cartesian coordinates:
            Coordinates               Weight
  0.000000  0.000000  0.000000      1.000000
  0.047348 -0.027337  0.000000      1.000000
  0.000000  0.054673  0.000000      1.000000
  0.047348  0.027337  0.000000      1.000000

 TETIRR: Found     12 inequivalent tetrahedra from       24
 BZINTS: Fermi energy:  2.075087;779.000000 electrons
         Band energy:-669.386234;  BLOECHL correction: -0.232525