 vasp.5.4.4.18Apr17-6-g9f103f2a35 (build Nov 06 2019 15:09:28) complex

 executed on             LinuxIFC date 2023.08.09  11:47:43

 INCAR:
 POTCAR:    PAW_PBE Pt 04Feb2005
 POTCAR:    PAW_PBE Fe 06Sep2000
 POTCAR:    PAW_PBE Co 02Aug2007
 POTCAR:    PAW_PBE Cu 22Jun2005
 POTCAR:    PAW_PBE Ni 02Aug2007
 POTCAR:    PAW_PBE H 15Jun2001

 POTCAR:    PAW_PBE Pt 04Feb2005
   VRHFIN =Pt: s1d9

   TITEL  = PAW_PBE Pt 04Feb2005
   POMASS =  195.080; ZVAL   =   10.000    mass and valenz
   ENMAX  =  230.283; ENMIN  =  172.712 eV

 POTCAR:    PAW_PBE Fe 06Sep2000
   VRHFIN =Fe:  d7 s1

   TITEL  = PAW_PBE Fe 06Sep2000
   POMASS =   55.847; ZVAL   =    8.000    mass and valenz
   ENMAX  =  267.882; ENMIN  =  200.911 eV

 POTCAR:    PAW_PBE Co 02Aug2007
   VRHFIN =Co: d8 s1

   TITEL  = PAW_PBE Co 02Aug2007
   POMASS =   58.933; ZVAL   =    9.000    mass and valenz
   ENMAX  =  267.968; ENMIN  =  200.976 eV

 POTCAR:    PAW_PBE Cu 22Jun2005
   VRHFIN =Cu: d10 p1

   TITEL  = PAW_PBE Cu 22Jun2005
   POMASS =   63.546; ZVAL   =   11.000    mass and valenz
   ENMAX  =  295.446; ENMIN  =  221.585 eV

 POTCAR:    PAW_PBE Ni 02Aug2007
   VRHFIN =Ni:

   TITEL  = PAW_PBE Ni 02Aug2007
   POMASS =   58.690; ZVAL   =   10.000    mass and valenz
   ENMAX  =  269.532; ENMIN  =  202.149 eV

 POTCAR:    PAW_PBE H 15Jun2001
   VRHFIN =H: ultrasoft test

   TITEL  = PAW_PBE H 15Jun2001
   POMASS =    1.000; ZVAL   =    1.000    mass and valenz
   ENMAX  =  250.000; ENMIN  =  200.000 eV

 Optimization of the real space projectors (new method)

 maximal supplied QI-value         = 14.36
 optimisation between [QCUT,QGAM] = [ 11.92, 23.98] = [ 39.79,161.09] Ry
 Optimized for a Real-space Cutoff    1.49 Angstroem

   l    n(q)    QCUT    max X(q) W(low)/X(q) W(high)/X(q)  e(spline)
   2     10    11.920    66.195    0.79E-04    0.18E-03    0.24E-06
   2     10    11.920    64.643    0.81E-04    0.19E-03    0.24E-06
   0     11    11.920    95.520    0.28E-04    0.54E-04    0.18E-06
   0     11    11.920    63.403    0.27E-04    0.52E-04    0.17E-06
   1     10    11.920    19.961    0.18E-04    0.11E-03    0.23E-06
   1     10    11.920    13.289    0.25E-04    0.87E-04    0.19E-06
 Optimization of the real space projectors (new method)

[...]

   l    n(q)    QCUT    max X(q) W(low)/X(q) W(high)/X(q)  e(spline)
   2      9    11.864    60.317    0.21E-03    0.51E-03    0.25E-06
   2      9    11.864    55.921    0.21E-03    0.51E-03    0.26E-06
   0      9    11.864    51.690    0.22E-03    0.30E-04    0.17E-06
   0      9    11.864    30.015    0.20E-03    0.28E-04    0.15E-06
   1      9    11.864    18.849    0.76E-04    0.33E-03    0.17E-06
   1      9    11.864    14.624    0.60E-04    0.28E-03    0.15E-06
 Optimization of the real space projectors (new method)

 maximal supplied QI-value         = 34.20
 optimisation between [QCUT,QGAM] = [ 11.97, 23.94] = [ 40.13,160.53] Ry
 Optimized for a Real-space Cutoff    1.18 Angstroem

   l    n(q)    QCUT    max X(q) W(low)/X(q) W(high)/X(q)  e(spline)
   0      8    11.971    19.460    0.15E-03    0.31E-03    0.25E-06
   0      8    11.971    12.209    0.13E-03    0.29E-03    0.25E-06
   1      8    11.971     4.655    0.22E-03    0.24E-03    0.21E-06
  PAW_PBE Pt 04Feb2005                  :
  PAW_PBE Fe 06Sep2000                  :
  PAW_PBE Co 02Aug2007                  :
  PAW_PBE Cu 22Jun2005                  :
  PAW_PBE Ni 02Aug2007                  :
  PAW_PBE H 15Jun2001                   :

 POSCAR: Pt   Fe   Co   Cu   Ni   H
  positions in direct lattice
  velocities in cartesian coordinates
 exchange correlation table for  LEXCH =        8
   RHO(1)=    0.500       N(1)  =     2000
   RHO(2)=  100.500       N(2)  =     4000

 VTST: version 3.2, (02/03/18)

 CHAIN: initializing optimizer

 OPT: Using VASP QUASI-newton optimizer
 CHAIN: Read ICHAIN            0
 CHAIN: Running the NEB
 NEB:          SPRING     -5.000000
 NEB:          LCLIMB      T
 NEB:     LTANGENTOLD      F
 NEB:           LDNEB      F
 NEB:        LDNEBORG      F
 NEB:        LNEBCELL      F
 NEB:          EFIRST      0.000000
 NEB:           ELAST      0.000000

 POSCAR: 11.26
  positions in direct lattice
  velocities in cartesian coordinates

 POSCAR: Pt   Fe   Co   Cu   Ni   H
  positions in direct lattice

 ion  position               nearest neighbor table
   1  0.782  0.871  0.305-  49 2.52  59 2.61  28 2.68  61 2.75  33 2.79  19 2.79   4 2.79  11 2.81
                             2 2.81  29 2.83  12 2.85  60 2.87
   2  0.032  0.871  0.300-  79 2.51  77 2.55  28 2.77  33 2.77  30 2.78   1 2.81   4 2.81  60 2.83
                             6 2.84  16 2.91  22 2.97  52 3.09
   3  0.277  0.363  0.314-  64 2.54  31 2.66  68 2.67  39 2.71   5 2.73  43 2.75  13 2.76  25 2.77
                            19 2.81  30 2.82  33 2.86  18 2.96
   4  0.870  0.958  0.406-  60 2.65   9 2.76  17 2.77   6 2.78   1 2.79  11 2.80  16 2.80   2 2.81
                            12 2.81
   5  0.108  0.464  0.413-  39 2.62  33 2.69  12 2.72   3 2.73  16 2.75   7 2.75  10 2.79  25 2.84
                            13 3.01
   6  0.122  0.948  0.406-  52 2.61  22 2.71  14 2.75  16 2.77   4 2.78   2 2.84   8 2.84   9 2.85
                            10 2.93
   7  0.872  0.447  0.416-  39 2.62  75 2.63  29 2.74   5 2.75   9 2.75  10 2.78  15 2.78  27 2.86
                            12 2.91
   8  0.372  0.952  0.414-  52 2.54  43 2.58  61 2.71  13 2.76  27 2.78  14 2.80  10 2.82  11 2.82
                             6 2.84
   9  0.869  0.204  0.407-  75 2.61  60 2.65   7 2.75  22 2.76   4 2.76  17 2.77  15 2.80   6 2.85
                            10 2.90
  10  0.126  0.207  0.413-  39 2.63  43 2.65  22 2.72  13 2.75   7 2.78   5 2.79   8 2.82   9 2.90
                             6 2.93
  11  0.625  0.950  0.412-  61 2.66  12 2.72  19 2.74  13 2.78   4 2.80   1 2.81  27 2.82   8 2.82
                            17 2.84
  12  0.868  0.708  0.412-  29 2.68  33 2.69   5 2.72  11 2.72  16 2.76   4 2.81  27 2.85   1 2.85
                             7 2.91
  13  0.376  0.196  0.415-  43 2.64  19 2.74  10 2.75   3 2.76   8 2.76  11 2.78  17 2.81  25 2.84
                             5 3.01
  14  0.369  0.705  0.407-  44 2.56  52 2.62   6 2.75  27 2.77   8 2.80  15 2.82  30 2.83  25 2.84
                            16 2.84
  15  0.621  0.454  0.412-  44 2.59  75 2.60  18 2.76  27 2.77   7 2.78  17 2.80   9 2.80  14 2.82
                            25 2.86
  16  0.116  0.705  0.410-  33 2.64  30 2.69   5 2.75  12 2.76   6 2.77   4 2.80  25 2.82  14 2.84
                             2 2.91
  17  0.622  0.204  0.410-  60 2.69  18 2.74  19 2.77   9 2.77   4 2.77  15 2.80  13 2.81  25 2.84
                            11 2.84
  18  0.536  0.373  0.310-  67 2.53  68 2.63  26 2.68  17 2.74  15 2.76  44 2.77  60 2.78  25 2.78
                            75 2.84  30 2.87  19 2.89   3 2.96
  19  0.531  0.117  0.311-  80 2.52  68 2.54  59 2.57  43 2.67  13 2.74  11 2.74  61 2.75  17 2.77
                             1 2.79   3 2.81  60 2.88  18 2.89
  20  0.557  0.109  0.059-  37 2.52  48 2.53  57 2.55  62 2.63  34 2.71  63 2.75  56 2.89  45 3.25

  21  0.093  0.426  0.123-  47 2.48  40 2.50  36 2.53  70 2.60  42 2.61  69 2.66  31 2.74  57 2.74
                            64 2.76  50 2.79
  22  0.051  0.125  0.310-  77 2.51  65 2.53  55 2.56  43 2.70  39 2.71   6 2.71  10 2.72   9 2.76
                            52 2.78  75 2.95   2 2.97  60 2.99  31 3.30
  23  0.024  0.112  0.042-  40 2.53  41 2.56  70 2.59  62 2.65  24 2.72  45 2.74  35 2.80  76 2.81
                            53 2.86
  24  0.129  0.948  0.141-  79 2.49  35 2.53  77 2.57  55 2.58  70 2.60  53 2.61  58 2.68  73 2.68
                            23 2.72  66 2.78  38 2.80  41 2.95
  25  0.366  0.454  0.412-   3 2.77  30 2.78  18 2.78  16 2.82  17 2.84  14 2.84  13 2.84   5 2.84
                            15 2.86
  26  0.446  0.559  0.220-  73 2.48  74 2.49  51 2.53  79 2.55  30 2.61  44 2.62  18 2.68  32 2.72
                            78 2.74  67 2.97  58 3.06  68 3.13  64 3.14
  27  0.617  0.702  0.413-  44 2.61  61 2.67  29 2.75  15 2.77  14 2.77   8 2.78  11 2.82  12 2.85
                             7 2.86
  28  0.950  0.757  0.209-  58 2.57  50 2.57  66 2.61  42 2.62  33 2.64   1 2.68  49 2.69   2 2.77
                            64 2.78
  29  0.794  0.614  0.316-  42 2.55  49 2.61  32 2.64  39 2.65  75 2.67  12 2.68  33 2.73   7 2.74
                            27 2.75   1 2.83  61 2.85  44 2.85
  30  0.271  0.617  0.309-  79 2.52  26 2.61  33 2.64  64 2.69  16 2.69   2 2.78  25 2.78   3 2.82
                            14 2.83  18 2.87  44 3.02  52 3.15
  31  0.189  0.266  0.225-  70 2.50  55 2.57  57 2.59  43 2.61  39 2.62  65 2.65   3 2.66  21 2.74
                            64 2.76  42 2.84  80 2.85  68 3.01  22 3.30
  32  0.693  0.549  0.221-  69 2.52  54 2.57  49 2.58  51 2.59  44 2.62  29 2.64  75 2.67  78 2.67
                            42 2.71  26 2.72  67 2.75  65 2.79  50 3.30
  33  0.031  0.626  0.314-  28 2.64  30 2.64  16 2.64  64 2.67  12 2.69   5 2.69  42 2.72  29 2.73
                             2 2.77   1 2.79  39 2.82   3 2.86
  34  0.791  0.861  0.064-  48 2.37  50 2.40  66 2.51  36 2.70  20 2.71  62 2.82  63 2.83  35 2.86

  35  0.050  0.852  0.056-  36 2.39  24 2.53  66 2.57  58 2.66  72 2.69  23 2.80  34 2.86  53 2.90
                            62 2.93
  36  0.048  0.640  0.066-  35 2.39  47 2.52  21 2.53  58 2.57  50 2.59  34 2.70  72 2.75
  37  0.628  0.231  0.134-  67 2.48  51 2.49  74 2.50  56 2.50  20 2.52  41 2.53  59 2.53  62 2.56
                            68 2.61  66 2.82
  38  0.378  0.948  0.136-  45 2.38  80 2.45  55 2.46  53 2.47  73 2.51  63 2.51  78 2.52  54 2.58
                            48 2.62  57 2.79  24 2.80  70 2.85
  39  0.029  0.376  0.319-  42 2.61   7 2.62   5 2.62  31 2.62  10 2.63  65 2.64  29 2.65  22 2.71
                             3 2.71  75 2.72  33 2.82  43 3.02
  40  0.980  0.356  0.044-  69 2.33  76 2.41  21 2.50  23 2.53  71 2.54  70 2.64  45 3.11
  41  0.864  0.208  0.134-  77 2.39  76 2.41  69 2.49  67 2.50  37 2.53  23 2.56  65 2.57  62 2.59
                            66 2.61  70 2.67  51 2.84  24 2.95
  42  0.945  0.527  0.221-  50 2.47  29 2.55  65 2.61  39 2.61  21 2.61  28 2.62  69 2.65  32 2.71
                            64 2.71  33 2.72  49 2.75  31 2.84
  43  0.298  0.108  0.320-  55 2.51  52 2.54   8 2.58  31 2.61  80 2.61  13 2.64  10 2.65  19 2.67
                            22 2.70  61 2.71   3 2.75  39 3.02
  44  0.539  0.617  0.319-  14 2.56  15 2.59  27 2.61  32 2.62  26 2.62  78 2.64  75 2.69  18 2.77
                            61 2.82  52 2.83  29 2.85  30 3.02
  45  0.273  0.099  0.052-  38 2.38  53 2.39  70 2.41  57 2.59  63 2.73  23 2.74  40 3.11  20 3.25

  46  0.533  0.620  0.050-  51 2.36  73 2.40  54 2.41  71 2.45  72 2.60  56 2.76  53 2.78  76 2.82
                            63 2.89
  47  0.277  0.422  0.059-  74 2.25  72 2.41  21 2.48  36 2.52  56 2.59  57 2.67
  48  0.621  0.927  0.141-  49 2.29  34 2.37  80 2.44  54 2.48  63 2.51  20 2.53  38 2.62  59 2.63
                            50 2.71
[...]
   -.353E+02 -.192E+02 -.936E+01   0.358E+02 0.198E+02 0.909E+01   -.473E+00 -.718E+00 0.385E+00   -.234E-01 0.490E-01 -.106E+00
   0.939E+00 -.118E+01 -.108E+04   -.848E+00 0.126E+01 0.108E+04   -.118E+00 -.466E-01 0.192E+00   0.192E-01 0.262E-01 -.308E-01
   -.687E+02 0.806E+02 0.217E+04   0.697E+02 -.807E+02 -.216E+04   -.902E+00 0.607E-01 -.310E+01   -.158E-02 -.771E-02 -.390E-02
   0.796E+02 0.323E+02 0.223E+04   -.798E+02 -.336E+02 -.223E+04   0.372E+00 0.133E+01 -.281E+01   0.279E-01 -.300E-02 -.466E-02
   0.114E+03 0.447E+01 0.212E+04   -.113E+03 -.350E+01 -.212E+04   -.111E+01 -.896E+00 -.201E+01   0.652E-02 0.632E-02 -.945E-02
   0.813E+02 0.911E+02 0.119E+04   -.805E+02 -.904E+02 -.119E+04   -.850E+00 -.846E+00 0.584E-01   0.775E-02 0.126E-01 -.325E-01
   -.870E+01 -.112E+03 0.121E+04   0.883E+01 0.111E+03 -.121E+04   -.193E+00 0.557E+00 -.701E+00   -.129E-01 -.375E-01 -.369E-01
   -.723E+02 -.302E+02 -.117E+04   0.724E+02 0.303E+02 0.117E+04   -.880E-01 -.188E+00 0.106E+00   0.172E-01 0.710E-02 -.284E-01
   -.254E+03 -.243E+02 0.237E+04   0.251E+03 0.239E+02 -.237E+04   0.274E+01 0.429E+00 -.419E+01   -.137E-01 0.267E-02 -.688E-02
   -.320E+02 0.736E+02 0.121E+04   0.312E+02 -.732E+02 -.121E+04   0.838E+00 -.536E+00 -.603E+00   -.519E-02 0.791E-02 -.463E-01
   -.107E+03 -.272E+02 0.272E+02   0.106E+03 0.277E+02 -.269E+02   0.344E+00 -.544E+00 -.338E+00   0.255E-02 0.313E-01 -.594E-01
   0.658E+01 -.955E+02 -.121E+04   -.682E+01 0.955E+02 0.120E+04   0.291E+00 0.115E+00 0.357E+00   -.233E-01 -.754E-01 -.247E-01
   0.420E+02 0.165E+02 -.119E+04   -.421E+02 -.169E+02 0.119E+04   0.649E-01 0.183E+00 -.489E+00   -.345E-01 0.927E-01 -.438E-01
   -.834E+02 -.156E+03 0.229E+04   0.813E+02 0.153E+03 -.229E+04   0.206E+01 0.309E+01 -.375E+01   -.173E-01 -.375E-01 -.739E-02
   0.134E+02 -.513E+02 0.264E+04   -.135E+02 0.516E+02 -.263E+04   0.434E-01 -.215E+00 -.304E+01   -.688E-02 0.186E-01 0.239E-01
   0.233E+03 0.980E+02 0.253E+04   -.232E+03 -.956E+02 -.253E+04   -.654E+00 -.241E+01 -.311E+01   0.593E-02 0.123E-01 -.920E-02
   -.111E+03 -.728E+02 0.129E+04   0.110E+03 0.719E+02 -.129E+04   0.963E+00 0.957E+00 0.672E-01   -.208E-01 -.196E-01 -.185E-01
   -.136E+03 0.139E+02 0.312E+02   0.136E+03 -.140E+02 -.313E+02   -.290E-01 -.635E-02 0.734E-01   -.228E-01 0.136E-01 -.539E-01
   -.210E+03 -.158E+02 0.146E+04   0.211E+03 0.165E+02 -.146E+04   -.344E+00 -.829E+00 0.652E-01   -.193E-01 0.861E-02 -.342E-01
   0.651E+01 -.600E+01 0.131E+04   -.634E+01 0.562E+01 -.131E+04   -.137E+00 0.492E+00 -.396E+00   0.133E-02 0.836E-02 -.287E-01
   0.926E+02 0.368E+02 -.139E+04   -.921E+02 -.365E+02 0.139E+04   -.595E+00 -.287E+00 0.322E+00   -.225E-01 -.360E-01 -.355E-01
   0.771E+02 -.441E+02 0.263E+04   -.765E+02 0.445E+02 -.263E+04   -.658E+00 -.462E+00 -.318E+01   -.820E-02 -.526E-02 0.546E-02
   -.718E+02 -.882E+01 0.138E+04   0.718E+02 0.916E+01 -.138E+04   -.998E-01 -.407E+00 -.484E+00   -.142E-01 0.105E-01 -.125E-01
   0.551E+02 -.102E+03 -.247E+02   -.544E+02 0.101E+03 0.251E+02   -.738E+00 0.412E+00 -.459E+00   -.284E-02 -.771E-01 -.335E-01
   0.131E+03 0.938E+02 0.327E+04   -.131E+03 -.923E+02 -.327E+04   0.498E-03 -.149E+01 -.483E+01   0.114E-01 0.583E-02 0.112E-01
   0.371E+02 -.219E+02 0.179E+04   -.373E+02 0.216E+02 -.180E+04   0.264E+00 0.317E+00 0.425E+00   0.573E-02 -.154E-01 -.412E-01
   0.239E+03 -.342E+02 0.132E+04   -.240E+03 0.347E+02 -.132E+04   0.491E+00 -.482E+00 0.646E+00   0.329E-01 0.203E-01 -.393E-01
   0.301E+02 0.118E+03 0.156E+03   -.308E+02 -.118E+03 -.156E+03   0.683E+00 -.484E+00 -.511E+00   -.845E-02 -.169E-01 -.561E-01
   0.106E+02 0.839E+02 -.158E+04   -.101E+02 -.839E+02 0.158E+04   -.462E+00 -.444E-01 0.508E+00   -.954E-02 -.442E-01 -.404E-01
[...]
   -.148E+03 -.417E+02 0.148E+04   0.148E+03 0.421E+02 -.148E+04   0.323E+00 -.373E+00 -.690E+00   -.255E-01 0.131E-01 -.652E-01
   -.809E+02 -.133E+02 0.153E+04   0.814E+02 0.130E+02 -.153E+04   -.574E+00 0.350E+00 -.695E+00   -.774E-02 -.191E-01 -.593E-01
   -.234E+03 -.102E+03 0.295E+04   0.233E+03 0.102E+03 -.294E+04   0.115E+01 0.949E+00 -.331E+01   0.283E-02 -.454E-02 0.945E-02
   0.145E+03 -.764E+02 0.285E+04   -.145E+03 0.766E+02 -.285E+04   0.384E+00 -.145E+00 -.808E+00   0.764E-02 0.338E-01 0.324E-02
   0.421E+02 -.256E+02 0.149E+04   -.418E+02 0.256E+02 -.149E+04   -.329E+00 0.427E-01 0.169E+00   0.784E-03 0.316E-01 -.299E-01
   0.124E+03 0.260E+02 0.137E+04   -.123E+03 -.262E+02 -.137E+04   -.950E+00 0.270E+00 -.851E+00   0.213E-01 0.201E-01 -.389E-01
   -.210E+02 -.348E+02 -.151E+04   0.210E+02 0.351E+02 0.151E+04   0.913E-01 -.279E+00 -.296E-01   -.165E-01 -.384E-02 -.489E-01
   -.271E+02 0.263E+02 0.291E+04   0.275E+02 -.256E+02 -.291E+04   -.338E+00 -.633E+00 -.175E+01   0.493E-02 0.311E-02 0.629E-02
   -.376E+02 0.167E+03 0.164E+02   0.378E+02 -.167E+03 -.157E+02   -.216E+00 0.749E-01 -.688E+00   0.414E-02 -.349E-01 -.546E-01
   -.177E+02 0.541E+02 -.803E+02   0.176E+02 -.532E+02 0.803E+02   0.134E+00 -.891E+00 -.995E-01   -.259E-01 0.136E-01 -.478E-01
   0.163E+03 0.280E+01 -.192E+03   -.163E+03 -.210E+01 0.192E+03   0.151E-01 -.704E+00 -.445E+00   0.316E-01 0.406E-02 -.205E-01
   -.449E+02 -.939E+02 0.562E+02   0.445E+02 0.936E+02 -.560E+02   0.390E+00 0.347E+00 -.118E+00   0.182E-02 -.469E-01 -.613E-01
   0.166E+02 -.125E+02 -.251E+03   -.204E+02 0.157E+02 0.251E+03   0.379E+01 -.323E+01 -.235E+00   0.216E-02 -.392E-03 -.833E-03
   -.139E+02 0.135E+02 -.252E+03   0.176E+02 -.167E+02 0.252E+03   -.380E+01 0.321E+01 0.217E+00   0.519E-03 0.109E-02 -.988E-03
   -.378E+01 0.301E+00 0.372E+01   -.274E-12 0.501E-12 -.489E-11   0.384E+01 -.305E+00 -.145E+01   -.664E-01 -.145E-01 -.229E+01

 POSITION                                       TOTAL-FORCE (eV/Angst)
     13.66468      8.46942      6.70223         0.000539      0.001692      0.004425
      5.24726      8.46716      6.59498         0.000488     -0.001648     -0.000066
      5.14249      3.52567      6.91383         0.000986      0.000350      0.007689
     15.13401      9.30697      8.92286         0.004813     -0.004225      0.000915
      3.81489      4.50746      9.08551         0.003199     -0.001104     -0.004871
      6.68434      9.21764      8.92339         0.006954     -0.000075     -0.000318
     12.29190      4.34768      9.15023        -0.002963      0.000474     -0.005152
      9.51872      9.25485      9.11674        -0.003630      0.000161      0.003896
     10.89931      1.98274      8.94781         0.006133     -0.006928     -0.000460
      2.57181      2.01452      9.07975         0.004466     -0.001645     -0.000496
     12.34143      9.23090      9.05662        -0.006408      0.000174      0.000877
     13.71675      6.88142      9.07344        -0.002300      0.000840      0.001457
      5.31981      1.90455      9.13633        -0.005956     -0.005477     -0.005811
      8.09436      6.85207      8.96075        -0.003277      0.003579      0.005911
      9.51560      4.41230      9.05394        -0.004580      0.006927     -0.004350
      5.25335      6.85019      9.01837         0.005404     -0.004334     -0.011136
      8.12839      1.98364      9.01505        -0.005798      0.003756      0.002482
      8.10516      3.62190      6.82101        -0.004442      0.000212      0.006181
      6.61959      1.13670      6.85005        -0.003082      0.000881      0.001499
      6.85997      1.05619      1.30452        -0.006621     -0.003456     -0.005034
      3.43490      4.14022      2.70460         0.008465      0.003511     -0.006337
      1.26923      1.21644      6.83013         0.005251     -0.001448      0.009549
      0.89096      1.08547      0.91422         0.022793      0.013599     -0.008013
      6.76854      9.20926      3.10248         0.017543      0.012494      0.004912
      6.65589      4.40735      9.06421        -0.002069      0.003778     -0.009530
      8.14659      5.43358      4.84371        -0.007058      0.017729      0.005131
     10.86483      6.82714      9.08393         0.001623     -0.005891     -0.002055
     14.90317      7.35364      4.60198         0.012492      0.002140     -0.007630
     12.36199      5.97013      6.94532        -0.001007      0.009431      0.003340
      6.49959      5.99800      6.78815        -0.002216      0.001665      0.006346
      3.61430      2.58306      4.95012         0.003543      0.004950     -0.021806
     10.86385      5.33986      4.86887        -0.009593     -0.003422      0.005516
      3.86498      6.08154      6.90521         0.000470      0.000426      0.003169
     13.70592      8.36565      1.41581        -0.007652     -0.009236      0.004457
      5.33677      8.27602      1.23892        -0.007087     -0.013387     -0.042190
      4.13554      6.22470      1.46246        -0.001148      0.013112      0.023748
      8.34268      2.24715      2.95426        -0.002951     -0.003213      0.001683
      9.56642      9.21763      2.98551        -0.000314     -0.001514     -0.011829
      2.43358      3.65880      7.02614         0.003002     -0.003029      0.008498
     12.99964      3.45759      0.96035         0.004945      0.009065      0.001604
     10.86191      2.01860      2.94877         0.003954      0.008064     -0.002956
     13.56226      5.11862      4.86453        -0.004096      0.002845     -0.008024
      3.95056      1.05202      7.03740         0.006680      0.013739     -0.001764
      9.51055      6.00443      7.00896         0.003351     -0.013494      0.000119
      3.61805      0.95781      1.13737         0.005273     -0.007880     -0.004904
      9.46777      6.02936      1.09765        -0.015501     -0.004019      0.036060
      5.47508      4.09678      1.29215         0.012010     -0.014593      0.000342
     12.17188      9.01006      3.09748         0.007293      0.002625     -0.008279
     12.23201      7.52981      4.84967        -0.000592     -0.036465     -0.007713
     13.20191      6.51639      2.86005         0.008291     -0.000922     -0.011009
      9.43936      4.48143      2.88198         0.029584      0.015562     -0.009133
      8.31517      8.56072      6.99013        -0.002270      0.000525      0.002356
      8.21587      8.51474      1.04613         0.019878     -0.010414      0.026465
     10.79730      6.95699      2.87721        -0.014516     -0.013925     -0.019409
      2.74728      0.16957      5.01634         0.003362     -0.002479     -0.000339
      8.01211      3.68639      0.93635         0.015944      0.007312      0.010504
      5.15117      2.01811      2.93976         0.000404     -0.004218      0.007520
      5.82064      6.71680      3.33353         0.002821     -0.004670      0.011524
      8.08961      0.55272      4.82086        -0.013130     -0.000984     -0.001709
      9.50265      1.22114      6.83101         0.000744      0.000368     -0.000426
[...]
      6.61860      2.70072      4.85414         0.004979      0.006955      0.002785
     12.00438      4.22973      2.91463        -0.009126     -0.004957      0.002948
      2.29947      1.81745      2.96062         0.008934      0.001319     -0.007391
     11.89741      5.74769      1.03654        -0.009422      0.012610      0.000480
      6.86693      6.06581      1.23796         0.028241     -0.010811      0.002404
      8.32773      7.03578      2.95620         0.007024      0.006343     -0.023940
      6.88302      4.26924      3.03792        -0.006571     -0.008772     -0.002138
     10.93420      3.71243      6.98820         0.001550      0.004228      0.004365
     10.59153      3.44288      1.02771        -0.009236      0.017991      0.004770
     10.97701      0.65866      4.91478        -0.027342     -0.008143     -0.016632
      9.65018      7.71810      5.00765         0.010222     -0.002870     -0.017619
      7.13050      7.75542      5.09564        -0.017442      0.027795     -0.004389
      5.25728      0.25492      4.92126        -0.001815     -0.000104     -0.005840
      0.89924      0.25814     11.72140        -0.011753     -0.012187      0.041386
      7.08574      9.48871     11.68582        -0.013546     -0.007535      0.032783
    total drift:                               -0.007252     -0.018207     -0.023912

  FREE ENERGIE OF THE ION-ELECTRON SYSTEM (eV)
  free  energy   TOTEN  =      -504.62185298 eV

  energy  without entropy=     -504.65021313  energy(sigma->0) =     -504.63130636

 d Force = 0.1395837E-03[ 0.860E-04, 0.193E-03]  d Energy = 0.1410156E-03-0.143E-05
 d Force = 0.4053592E+01[ 0.405E+01, 0.405E+01]  d Ewald  = 0.4053593E+01-0.517E-06

 NEB: the previous image is higher in energy: F
 NEB: the next image is higher in energy    : F
 NEB: image is at an extrema
 NEB: diff energy (min, max):     0.002377    0.440453

 NEB: Tangent
      0.00021      0.00068      0.00157
     -0.00401     -0.00221     -0.00506
      0.00131      0.00027      0.00131
      0.00850     -0.00359     -0.00061
      0.00451     -0.00016      0.00117
      0.00258     -0.00719     -0.00884
      0.00239     -0.00004     -0.00072
     -0.00500     -0.00061      0.00323
      0.00787     -0.00629     -0.00012
     -0.00016     -0.00415      0.00457
      0.00037      0.00068      0.00027
     -0.00001     -0.00103      0.00085
     -0.00033     -0.00186      0.00024
      0.00379      0.00356      0.00081
      0.00022     -0.00095      0.00236
      0.00536      0.00079     -0.00111
      0.00125     -0.00087     -0.00001
     -0.00087     -0.00125      0.00064
      0.00004      0.00011      0.00004
      0.00000      0.00000      0.00000
      0.00000      0.00000      0.00000
      0.00517     -0.00017      0.00085
      0.00000      0.00000      0.00000
      0.00000      0.00000      0.00000
      0.00274      0.00100     -0.00203
      0.00000      0.00000      0.00000
      0.00139     -0.00133     -0.00119
      0.00000      0.00000      0.00000
      0.00203      0.00287     -0.00073
      0.00139      0.00046      0.00062
      0.00000      0.00000      0.00000
      0.00000      0.00000      0.00000
      0.00094      0.00023      0.00240
      0.00000      0.00000      0.00000
      0.00000      0.00000      0.00000
      0.00000      0.00000      0.00000
      0.00000      0.00000      0.00000
      0.00000      0.00000      0.00000
      0.00361     -0.00144      0.00574
      0.00000      0.00000      0.00000
      0.00000      0.00000      0.00000
      0.00000      0.00000      0.00000
      0.00580      0.00793      0.00159
      0.00338     -0.01721      0.00141
      0.00000      0.00000      0.00000
      0.00000      0.00000      0.00000
      0.00000      0.00000      0.00000
      0.00000      0.00000      0.00000
      0.00000      0.00000      0.00000
      0.00000      0.00000      0.00000
      0.00000      0.00000      0.00000
      0.00461      0.00433     -0.00106
      0.00000      0.00000      0.00000
      0.00000      0.00000      0.00000
      0.00000      0.00000      0.00000
      0.00000      0.00000      0.00000
      0.00000      0.00000      0.00000
      0.00000      0.00000      0.00000
      0.00000      0.00000      0.00000
      0.00120      0.00110      0.00121
[...]
      0.00000      0.00000      0.00000
      0.00000      0.00000      0.00000
      0.00000      0.00000      0.00000
      0.00000      0.00000      0.00000
      0.00000      0.00000      0.00000
      0.00000      0.00000      0.00000
      0.00000      0.00000      0.00000
      0.00186     -0.00246      0.00110
      0.00000      0.00000      0.00000
      0.00000      0.00000      0.00000
      0.00000      0.00000      0.00000
      0.00000      0.00000      0.00000
      0.00000      0.00000      0.00000
      0.32939      0.51742      0.33966
      0.33739      0.55496      0.29232

 NEB: forces: par spring, perp REAL, dneb     7.270033    0.072636    0.000000
 NEB: distance to prev, next image, angle between     1.878128    0.424122  117.369370
 NEB: projections on to tangent (spring, REAL)    -7.270033    0.005517

 stress matrix after NEB project (eV)
   -106.03270      5.99541     -0.28125
      5.99541   -112.63697     -0.13607
     -0.28125     -0.13607     -0.74481
  FORCES: max atom, RMS     0.044426    0.008044
  FORCE total and by dimension    0.072845    0.037638
  Stress total and by dimension  154.927920  112.636966
 Quasi-Newton relaxation of ions (Broydens 2nd method)
  g(Force)  = 0.677E-03   g(Stress)= 0.000E+00

 retain information from N=  7 steps
 eigenvalues of (default step * inverse Hessian matrix)
  average eigenvalue of G=   2.1956
 eigenvalue spectrum of G is  5.6789  5.6789  2.5799  0.2993  0.6392  0.4623  0.0310

 reached required accuracy - stopping structural energy minimisation