 vasp.5.4.4.18Apr17-6-g9f103f2a35 (build Nov 30 2020 22:55:02) complex

 executed on             LinuxIFC date 2022.02.03  14:37:20

 INCAR:
 POTCAR:    PAW_PBE Pt 04Feb2005
 POTCAR:    PAW_PBE Co 02Aug2007
 POTCAR:    PAW_PBE Ni 02Aug2007
 POTCAR:    PAW_PBE Pt 04Feb2005
   VRHFIN =Pt: s1d9

   TITEL  = PAW_PBE Pt 04Feb2005
   POMASS =  195.080; ZVAL   =   10.000    mass and valenz
   ENMAX  =  230.283; ENMIN  =  172.712 eV

 POTCAR:    PAW_PBE Co 02Aug2007
   VRHFIN =Co: d8 s1

   TITEL  = PAW_PBE Co 02Aug2007
   POMASS =   58.933; ZVAL   =    9.000    mass and valenz
   ENMAX  =  267.968; ENMIN  =  200.976 eV

 POTCAR:    PAW_PBE Ni 02Aug2007
   VRHFIN =Ni:

   TITEL  = PAW_PBE Ni 02Aug2007
   POMASS =   58.690; ZVAL   =   10.000    mass and valenz
   ENMAX  =  269.532; ENMIN  =  202.149 eV

 Optimization of the real space projectors (new method)

 maximal supplied QI-value         = 14.36
 optimisation between [QCUT,QGAM] = [ 11.92, 23.98] = [ 39.79,161.09] Ry
 Optimized for a Real-space Cutoff    1.49 Angstroem

   l    n(q)    QCUT    max X(q) W(low)/X(q) W(high)/X(q)  e(spline)
   2     10    11.920    66.195    0.79E-04    0.18E-03    0.24E-06
   2     10    11.920    64.643    0.81E-04    0.19E-03    0.24E-06
   0     11    11.920    95.520    0.28E-04    0.54E-04    0.18E-06
   0     11    11.920    63.403    0.27E-04    0.52E-04    0.17E-06
   1     10    11.920    19.961    0.18E-04    0.11E-03    0.23E-06
   1     10    11.920    13.289    0.25E-04    0.87E-04    0.19E-06
 Optimization of the real space projectors (new method)

[...]

   l    n(q)    QCUT    max X(q) W(low)/X(q) W(high)/X(q)  e(spline)
   2      9    11.864    65.824    0.22E-03    0.53E-03    0.26E-06
   2      9    11.864    61.429    0.22E-03    0.53E-03    0.26E-06
   0      9    11.864    56.174    0.21E-03    0.32E-04    0.15E-06
   0      9    11.864    31.263    0.19E-03    0.30E-04    0.14E-06
   1      9    11.864    19.828    0.63E-04    0.30E-03    0.16E-06
   1      9    11.864    15.139    0.49E-04    0.25E-03    0.13E-06
 Optimization of the real space projectors (new method)

 maximal supplied QI-value         = 16.25
 optimisation between [QCUT,QGAM] = [ 11.86, 23.89] = [ 39.41,159.82] Ry
 Optimized for a Real-space Cutoff    1.33 Angstroem

   l    n(q)    QCUT    max X(q) W(low)/X(q) W(high)/X(q)  e(spline)
   2      9    11.864    60.317    0.21E-03    0.51E-03    0.25E-06
   2      9    11.864    55.921    0.21E-03    0.51E-03    0.26E-06
   0      9    11.864    51.690    0.22E-03    0.30E-04    0.17E-06
   0      9    11.864    30.015    0.20E-03    0.28E-04    0.15E-06
   1      9    11.864    18.849    0.76E-04    0.33E-03    0.17E-06
   1      9    11.864    14.624    0.60E-04    0.28E-03    0.15E-06
  PAW_PBE Pt 04Feb2005                  :
  PAW_PBE Co 02Aug2007                  :
  PAW_PBE Ni 02Aug2007                  :

 POSCAR: 11.26
  positions in direct lattice
  velocities in cartesian coordinates
 exchange correlation table for  LEXCH =        8
   RHO(1)=    0.500       N(1)  =     2000
   RHO(2)=  100.500       N(2)  =     4000

 ion  position               nearest neighbor table
   1  0.788  0.879  0.301-  49 2.47  59 2.56  60 2.65  28 2.70   4 2.74   2 2.74  29 2.74  19 2.79
                            12 2.85  11 2.85  61 2.87  33 2.95
   2  0.031  0.880  0.292-  79 2.49  77 2.55  60 2.72   1 2.74  28 2.74   4 2.81   6 2.85  16 2.90
                            30 2.92  33 3.01  22 3.16  52 3.26
   3  0.276  0.361  0.311-  64 2.55  68 2.62  31 2.62  39 2.67  33 2.71   5 2.71  30 2.75  13 2.76
                            25 2.78  19 2.80  43 2.80  18 2.88
   4  0.877  0.964  0.400-  60 2.70   9 2.72  17 2.73   1 2.74   6 2.75  16 2.76   2 2.81  12 2.81
                            11 2.87
   5  0.114  0.468  0.410-  39 2.60  33 2.69   3 2.71  12 2.72  16 2.76  10 2.77   7 2.78  25 2.84
                            13 3.00
   6  0.129  0.951  0.397-  52 2.59  22 2.71  16 2.75   4 2.75  14 2.78   8 2.80   2 2.85   9 2.96
                            10 2.97
   7  0.873  0.455  0.412-  75 2.54  39 2.57   5 2.78   9 2.79  10 2.80  27 2.80  29 2.82  15 2.85
                            12 2.93
   8  0.374  0.954  0.415-  52 2.54  43 2.54  61 2.69  13 2.78  27 2.80   6 2.80  10 2.84  11 2.85
                            14 2.88
   9  0.863  0.213  0.397-  75 2.60  22 2.67   4 2.72  17 2.73  15 2.75  60 2.78   7 2.79   6 2.96
                            10 3.00
  10  0.129  0.214  0.413-  22 2.64  43 2.68  13 2.72  39 2.77   5 2.77   7 2.80   8 2.84   6 2.97
                             9 3.00
  11  0.629  0.952  0.410-  61 2.64  12 2.72  19 2.74  27 2.75  17 2.78  13 2.79   8 2.85   1 2.85
                             4 2.87
  12  0.876  0.715  0.408-  29 2.67  16 2.70   5 2.72  11 2.72  33 2.81   4 2.81  27 2.84   1 2.85
                             7 2.93
  13  0.378  0.199  0.414-  43 2.69  10 2.72  19 2.73   3 2.76   8 2.78  11 2.79  25 2.80  17 2.80
                             5 3.00
  14  0.374  0.699  0.400-  52 2.52  44 2.55  15 2.73   6 2.78  25 2.80  16 2.81  30 2.85   8 2.88
                            27 2.90
  15  0.618  0.459  0.399-  75 2.54  44 2.60  14 2.73   9 2.75  25 2.78   7 2.85  18 2.85  17 2.85
                            27 2.86
  16  0.117  0.712  0.401-  30 2.66  12 2.70  33 2.74   6 2.75   5 2.76   4 2.76  14 2.81   2 2.90
                            25 2.92
  17  0.627  0.200  0.404-  18 2.69   9 2.73   4 2.73  11 2.78  19 2.79  13 2.80  25 2.81  60 2.82
                            15 2.85
  18  0.539  0.347  0.301-  67 2.46  26 2.60  68 2.67  60 2.68  17 2.69  19 2.70  25 2.81  15 2.85
                             3 2.88  30 2.94  75 3.18
  19  0.527  0.113  0.308-  59 2.47  80 2.51  68 2.57  43 2.61  61 2.64  18 2.70  13 2.73  11 2.74
                            17 2.79   1 2.79   3 2.80  60 2.92
  20  0.546  0.126  0.067-  48 2.50  57 2.52  47 2.52  62 2.53  37 2.60  56 2.66  34 2.70  63 2.89

  21  0.118  0.408  0.119-  47 2.44  40 2.48  36 2.49  69 2.60  57 2.64  42 2.67  64 2.70  70 2.72
                            31 2.74  50 3.30
  22  0.054  0.147  0.311-  77 2.42  65 2.51  55 2.52  43 2.58  39 2.63  10 2.64   9 2.67   6 2.71
                            75 2.90  52 3.05  31 3.06   2 3.16  60 3.21
  23  0.009  0.102  0.049-  40 2.49  62 2.55  70 2.57  41 2.59  45 2.66  76 2.69  24 2.70  35 2.74
                            53 3.07
  24  0.138  0.927  0.142-  79 2.46  35 2.50  77 2.54  58 2.54  53 2.56  55 2.59  38 2.59  73 2.64
                            70 2.65  23 2.70  66 2.83
  25  0.376  0.449  0.406-  30 2.76   3 2.78  15 2.78  13 2.80  14 2.80  17 2.81  18 2.81   5 2.84
                            16 2.92
  26  0.480  0.554  0.230-  74 2.50  44 2.51  73 2.52  51 2.59  79 2.60  18 2.60  78 2.62  30 2.62
                            32 2.66  67 2.70
  27  0.626  0.708  0.414-  44 2.49  61 2.69  11 2.75   8 2.80   7 2.80  29 2.80  12 2.84  15 2.86
                            14 2.90
  28  0.953  0.759  0.204-  58 2.53  50 2.61  66 2.61  42 2.62  36 2.63  33 2.66   1 2.70   2 2.74
                            64 2.80  49 2.88  34 3.22  59 3.23  35 3.30
  29  0.797  0.631  0.311-  39 2.60  32 2.61  49 2.61  75 2.62  42 2.63  33 2.64  44 2.66  12 2.67
                             1 2.74  27 2.80   7 2.82  61 2.83
  30  0.274  0.606  0.302-  79 2.44  33 2.60  64 2.61  26 2.62  16 2.66   3 2.75  25 2.76  14 2.85
                             2 2.92  18 2.94  52 3.30
  31  0.187  0.262  0.225-  70 2.52  57 2.57  65 2.58  55 2.59   3 2.62  39 2.62  43 2.63  42 2.72
                            80 2.73  21 2.74  68 2.76  64 2.79  22 3.06
  32  0.711  0.561  0.214-  69 2.53  51 2.56  54 2.61  29 2.61  49 2.62  26 2.66  65 2.66  50 2.66
                            42 2.68  75 2.69  78 2.71  67 2.73  44 2.74
  33  0.042  0.608  0.305-  42 2.46  64 2.51  39 2.51  30 2.60  29 2.64  28 2.66   5 2.69   3 2.71
                            16 2.74  12 2.81   1 2.95   2 3.01
  34  0.782  0.884  0.080-  48 2.38  35 2.38  50 2.53  66 2.54  36 2.55  62 2.67  20 2.70  28 3.22

  35  0.002  0.866  0.072-  36 2.37  34 2.38  66 2.43  24 2.50  58 2.60  23 2.74  62 2.75  28 3.30

  36  0.006  0.657  0.094-  50 2.33  35 2.37  58 2.38  21 2.49  34 2.55  28 2.63
  37  0.628  0.234  0.150-  41 2.41  56 2.42  59 2.43  67 2.44  62 2.45  68 2.50  51 2.50  74 2.51
                            20 2.60  66 2.60
  38  0.361  0.942  0.135-  53 2.40  45 2.41  63 2.42  57 2.43  48 2.45  55 2.45  54 2.46  78 2.48
                            80 2.54  73 2.59  24 2.59  70 2.83
  39  0.023  0.395  0.316-  42 2.47  33 2.51   7 2.57  65 2.58  75 2.58  29 2.60   5 2.60  31 2.62
                            22 2.63   3 2.67  10 2.77
  40  0.013  0.321  0.044-  69 2.32  76 2.45  21 2.48  23 2.49  70 2.51  45 2.63  71 2.93
  41  0.844  0.228  0.139-  67 2.35  76 2.37  77 2.38  37 2.41  62 2.44  51 2.48  69 2.48  66 2.49
                            65 2.58  23 2.59  70 2.61
  42  0.967  0.520  0.219-  33 2.46  39 2.47  50 2.48  64 2.48  65 2.50  28 2.62  29 2.63  69 2.65
                            21 2.67  32 2.68  31 2.72
  43  0.303  0.100  0.319-  52 2.45  80 2.47  55 2.52   8 2.54  22 2.58  61 2.58  19 2.61  31 2.63
                            10 2.68  13 2.69   3 2.80
  44  0.552  0.648  0.317-  61 2.46  78 2.48  27 2.49  26 2.51  14 2.55  52 2.55  15 2.60  29 2.66
                            75 2.73  32 2.74
  45  0.251  0.091  0.049-  38 2.41  57 2.45  53 2.48  70 2.50  63 2.54  40 2.63  23 2.66
  46  0.529  0.612  0.047-  54 2.37  73 2.44  51 2.45  71 2.47  72 2.53  53 2.63  56 2.72  76 2.87
                            63 3.07
  47  0.334  0.361  0.072-  74 2.29  56 2.44  21 2.44  57 2.50  72 2.50  20 2.52
  48  0.581  0.937  0.137-  49 2.29  63 2.35  34 2.38  54 2.38  80 2.38  38 2.45  59 2.46  20 2.50
                            57 2.63  50 2.74
  49  0.677  0.809  0.223-  48 2.29  50 2.34  61 2.46  78 2.47   1 2.47  59 2.54  80 2.57  29 2.61
                            32 2.62  54 2.79  28 2.88
  50  0.810  0.679  0.140-  36 2.33  49 2.34  54 2.38  71 2.39  42 2.48  69 2.52  34 2.53  28 2.61
                            32 2.66  48 2.74  21 3.30
  51  0.629  0.454  0.133-  56 2.40  76 2.44  46 2.45  41 2.48  37 2.50  67 2.53  32 2.56  26 2.59
                            74 2.59  69 2.66  73 2.78  54 2.83
  52  0.322  0.873  0.316-  55 2.36  79 2.41  61 2.42  78 2.44  43 2.45  14 2.52   8 2.54  44 2.55
                             6 2.59  22 3.05   2 3.26  30 3.30
  53  0.299  0.850  0.050-  73 2.39  38 2.40  45 2.48  24 2.56  63 2.58  46 2.63  72 2.82  23 3.07

  54  0.581  0.726  0.124-  46 2.37  50 2.38  48 2.38  73 2.40  71 2.42  63 2.42  38 2.46  78 2.50
                            32 2.61  49 2.79  51 2.83
  55  0.229  0.013  0.230-  52 2.36  80 2.44  79 2.44  38 2.45  43 2.52  22 2.52  78 2.56  24 2.59
                            31 2.59  77 2.61  70 2.62
  56  0.549  0.361  0.055-  51 2.40  37 2.42  47 2.44  74 2.52  76 2.56  62 2.60  72 2.61  20 2.66
                            46 2.72
  57  0.344  0.167  0.132-  38 2.43  45 2.45  80 2.47  47 2.50  20 2.52  68 2.55  31 2.57  48 2.63
                            21 2.64  70 2.71
[...]

  length of vectors
    11.222700119 11.222700119 22.000000000     0.102889726  0.102889726  0.045454545

 FORCES acting on ions
    electron-ion (+dipol)            ewald-force                    non-local-force                 convergence-correction
   -.139E+03 0.386E+02 -.131E+04   0.139E+03 -.384E+02 0.131E+04   0.418E+00 -.207E+00 0.252E+01   -.104E-02 0.241E-02 0.661E-02
   0.478E+02 0.617E+02 -.116E+04   -.481E+02 -.611E+02 0.116E+04   0.356E+00 -.454E+00 0.211E+01   -.963E-03 0.159E-02 0.214E-02
   -.636E+02 -.458E+02 -.147E+04   0.625E+02 0.462E+02 0.147E+04   0.115E+01 -.335E+00 0.187E+01   -.165E-02 -.605E-02 0.452E-02
   -.441E+02 0.171E+02 -.271E+04   0.444E+02 -.164E+02 0.271E+04   -.394E+00 -.736E+00 0.162E+01   -.206E-02 0.505E-03 0.140E-02
   -.690E+02 -.267E+02 -.284E+04   0.681E+02 0.275E+02 0.283E+04   0.878E+00 -.794E+00 0.249E+01   0.105E-02 -.116E-02 0.847E-03
   0.978E+02 0.618E+01 -.271E+04   -.974E+02 -.711E+01 0.270E+04   -.445E+00 0.974E+00 0.213E+01   0.409E-04 0.223E-02 0.278E-02
   0.128E+02 0.634E+01 -.292E+04   -.128E+02 -.734E+01 0.291E+04   -.641E-01 0.977E+00 0.281E+01   0.643E-03 0.151E-02 0.122E-02
   0.544E+02 0.808E+01 -.297E+04   -.547E+02 -.762E+01 0.297E+04   0.346E+00 -.451E+00 0.341E+01   0.478E-02 0.402E-02 -.301E-02
   0.181E+02 0.733E+02 -.273E+04   -.189E+02 -.728E+02 0.273E+04   0.785E+00 -.526E+00 0.206E+01   -.608E-03 -.105E-02 0.133E-02
   0.597E+02 0.127E+02 -.288E+04   -.587E+02 -.122E+02 0.288E+04   -.102E+01 -.451E+00 0.272E+01   0.459E-02 -.181E-02 -.235E-02
   -.965E+02 -.197E+02 -.284E+04   0.961E+02 0.191E+02 0.284E+04   0.381E+00 0.606E+00 0.169E+01   -.298E-02 0.821E-03 -.631E-03
   -.628E+02 -.339E+02 -.279E+04   0.630E+02 0.339E+02 0.279E+04   -.154E+00 0.195E-01 0.186E+01   -.104E-02 0.580E-03 0.180E-02
   -.452E+02 -.707E+02 -.287E+04   0.451E+02 0.701E+02 0.287E+04   0.978E-01 0.619E+00 0.214E+01   -.153E-02 -.242E-02 -.317E-02
   0.109E+03 0.542E+02 -.276E+04   -.108E+03 -.542E+02 0.275E+04   -.667E+00 0.270E-01 0.250E+01   0.407E-02 -.343E-02 0.275E-03
   0.844E+02 0.398E+02 -.274E+04   -.839E+02 -.389E+02 0.274E+04   -.527E+00 -.867E+00 0.211E+01   -.725E-03 0.387E-02 -.955E-03
   -.319E+02 -.320E+02 -.270E+04   0.314E+02 0.316E+02 0.270E+04   0.557E+00 0.358E+00 0.171E+01   -.162E-02 -.148E-02 0.273E-02
   -.361E+02 -.225E+02 -.277E+04   0.360E+02 0.222E+02 0.277E+04   0.834E-01 0.252E+00 0.185E+01   -.279E-02 -.113E-02 0.514E-03
   0.462E+02 -.604E+02 -.134E+04   -.451E+02 0.594E+02 0.133E+04   -.108E+01 0.972E+00 0.198E+01   -.188E-02 -.937E-03 0.640E-02
   -.110E+03 -.822E+02 -.148E+04   0.109E+03 0.817E+02 0.148E+04   0.120E+01 0.457E+00 0.234E+01   -.942E-02 -.240E-02 0.212E-02
   0.595E+02 0.540E+02 0.278E+04   -.587E+02 -.537E+02 -.277E+04   -.654E+00 -.428E+00 -.193E+01   -.159E-03 -.148E-02 0.944E-02
   -.118E+03 -.144E+03 0.196E+04   0.118E+03 0.145E+03 -.197E+04   -.148E+00 -.380E+00 0.135E+01   0.221E-02 0.234E-01 0.154E-01
   0.745E+02 0.681E+02 -.155E+04   -.738E+02 -.677E+02 0.155E+04   -.804E+00 -.435E+00 0.172E+01   0.605E-02 -.351E-02 0.619E-02
   0.785E+01 0.189E+03 0.297E+04   -.753E+01 -.187E+03 -.296E+04   -.210E+00 -.165E+01 -.199E+01   -.122E-01 -.101E-01 -.256E-03
   0.158E+03 0.253E+02 0.147E+04   -.158E+03 -.261E+02 -.147E+04   -.775E+00 0.950E+00 -.383E+00   -.205E-01 -.119E-01 0.249E-01
   -.199E+02 -.372E+02 -.276E+04   0.199E+02 0.367E+02 0.276E+04   -.714E-01 0.517E+00 0.189E+01   -.907E-03 -.175E-02 0.228E-02
   0.110E+03 0.905E+02 -.236E+03   -.110E+03 -.902E+02 0.236E+03   0.317E-01 -.315E+00 0.163E+00   0.418E-02 0.277E-02 0.910E-02
   -.554E+01 0.441E+02 -.293E+04   0.559E+01 -.437E+02 0.293E+04   -.575E-01 -.442E+00 0.275E+01   -.127E-02 0.141E-02 -.457E-02
   -.453E+02 -.460E+02 0.329E+03   0.451E+02 0.448E+02 -.330E+03   0.158E+00 0.122E+01 -.943E-01   0.478E-02 -.686E-02 -.274E-02
   -.852E+02 -.511E+02 -.145E+04   0.857E+02 0.505E+02 0.145E+04   -.438E+00 0.636E+00 0.201E+01   -.242E-02 -.134E-03 0.429E-02
   0.111E+02 0.731E+01 -.134E+04   -.118E+02 -.675E+01 0.134E+04   0.736E+00 -.512E+00 0.191E+01   0.541E-03 -.980E-03 0.398E-02
   -.651E+02 -.100E+03 -.299E+02   0.648E+02 0.100E+03 0.296E+02   0.373E+00 0.518E+00 0.259E+00   0.101E-01 -.195E-02 0.198E-01
   -.219E+02 -.287E+02 0.122E+03   0.225E+02 0.287E+02 -.123E+03   -.515E+00 -.717E-01 0.842E+00   -.311E-02 0.302E-02 0.119E-01
   -.663E+02 -.122E+03 -.121E+04   0.663E+02 0.121E+03 0.121E+04   0.204E-01 0.843E+00 0.716E+00   -.274E-02 -.216E-02 0.129E-03
   -.223E+01 0.110E+03 0.236E+04   0.348E+01 -.110E+03 -.236E+04   -.112E+01 -.358E+00 -.153E+01   0.190E-01 -.133E-01 0.941E-02
   0.775E+01 0.138E+03 0.248E+04   -.887E+01 -.137E+03 -.248E+04   0.106E+01 -.760E+00 -.242E+01   -.829E-02 -.164E-01 0.117E-01
   -.748E+01 0.875E+02 0.223E+04   0.735E+01 -.859E+02 -.223E+04   0.664E-01 -.138E+01 -.214E+01   0.766E-02 0.474E-02 0.845E-02
   0.126E+03 0.695E+02 0.107E+04   -.126E+03 -.696E+02 -.107E+04   -.284E+00 0.104E-01 0.260E-01   -.493E-02 0.239E-02 0.209E-01
   0.494E+02 -.603E+02 0.142E+04   -.490E+02 0.603E+02 -.142E+04   -.521E+00 0.175E-01 -.349E+00   0.873E-02 0.727E-03 0.400E-01
   -.696E+02 0.114E+02 -.141E+04   0.694E+02 -.112E+02 0.141E+04   0.160E+00 -.285E+00 0.284E+00   0.396E-02 0.106E-02 0.261E-02
   -.256E+03 -.128E+03 0.278E+04   0.255E+03 0.126E+03 -.277E+04   0.150E+01 0.153E+01 -.399E+01   0.624E-02 0.157E-01 -.183E-02
   -.165E+02 0.991E+02 0.131E+04   0.161E+02 -.990E+02 -.131E+04   0.431E+00 -.258E+00 -.683E+00   -.766E-02 -.423E-03 0.201E-01
   -.975E+02 -.854E+02 0.133E+03   0.974E+02 0.856E+02 -.132E+03   0.415E-01 -.179E+00 -.326E+00   0.574E-02 0.510E-02 0.560E-02
   0.167E+02 -.131E+03 -.148E+04   -.169E+02 0.130E+03 0.148E+04   0.199E+00 0.513E+00 0.287E+00   0.544E-02 -.617E-03 -.420E-03
   0.825E+02 0.132E+03 -.142E+04   -.825E+02 -.132E+03 0.142E+04   -.383E-01 -.625E+00 -.682E+00   0.161E-02 0.188E-02 0.267E-02
   -.797E+02 -.138E+03 0.273E+04   0.779E+02 0.137E+03 -.272E+04   0.156E+01 0.162E+01 -.329E+01   0.593E-02 0.118E-01 0.266E-02
   0.168E+02 -.253E+02 0.276E+04   -.173E+02 0.253E+02 -.276E+04   0.398E+00 -.127E+00 -.331E+01   0.562E-02 -.109E-01 0.119E-01
   0.228E+03 -.398E+02 0.247E+04   -.226E+03 0.395E+02 -.247E+04   -.130E+01 0.255E+00 -.199E+01   -.558E-02 0.838E-02 0.116E-01
   -.186E+03 -.299E+02 0.146E+04   0.186E+03 0.299E+02 -.146E+04   0.258E+00 -.171E-01 0.206E+00   0.887E-04 0.312E-02 0.241E-01
   -.191E+03 0.595E+02 0.364E+01   0.191E+03 -.592E+02 -.323E+01   0.355E+00 -.382E+00 -.480E+00   -.450E-02 0.167E-02 0.130E-01
   -.188E+03 -.403E+02 0.139E+04   0.188E+03 0.408E+02 -.139E+04   -.881E-01 -.437E+00 0.485E+00   0.156E-01 -.826E-02 0.952E-02
   0.267E+02 -.681E+02 0.135E+04   -.267E+02 0.677E+02 -.135E+04   -.547E-01 0.509E+00 -.410E-01   -.258E-02 0.674E-02 0.233E-01
   0.193E+03 0.431E+02 -.147E+04   -.193E+03 -.432E+02 0.147E+04   -.684E+00 0.137E+00 -.909E-02   0.921E-02 0.267E-02 -.104E-02
   0.180E+03 0.559E+01 0.273E+04   -.178E+03 -.570E+01 -.273E+04   -.187E+01 0.105E+00 -.326E+01   -.121E-01 -.431E-02 0.836E-02
   -.973E+02 0.354E+02 0.159E+04   0.975E+02 -.350E+02 -.159E+04   -.180E+00 -.420E+00 0.289E+00   0.659E-02 -.680E-02 0.245E-01
   0.113E+03 -.585E+02 -.105E+03   -.113E+03 0.584E+02 0.105E+03   -.402E+00 0.990E-01 -.151E+00   0.990E-02 -.230E-02 0.176E-01
   0.134E+03 0.310E+02 0.297E+04   -.134E+03 -.306E+02 -.296E+04   -.153E+00 -.304E+00 -.149E+01   -.259E-02 0.365E-02 0.124E-01
   -.527E+02 -.163E+03 0.172E+04   0.527E+02 0.162E+03 -.172E+04   -.611E-01 0.340E+00 0.145E+00   0.858E-02 0.181E-02 0.314E-01
   0.192E+03 -.967E+01 0.133E+04   -.193E+03 0.976E+01 -.134E+04   0.410E+00 -.541E-01 0.484E+00   -.189E-01 0.185E-02 0.675E-02
   -.126E+03 0.269E+02 0.196E+03   0.126E+03 -.268E+02 -.196E+03   0.408E+00 -.854E-01 -.345E+00   -.283E-02 0.735E-03 0.153E-01
   0.508E+01 0.571E+02 -.128E+04   -.494E+01 -.573E+02 0.128E+04   -.153E+00 0.160E+00 0.501E+00   -.111E-02 -.192E-02 0.628E-02
[...]
   0.146E+03 0.172E+02 -.221E+03   -.146E+03 -.178E+02 0.221E+03   0.240E+00 0.739E+00 -.513E+00   -.569E-02 0.491E-02 0.134E-01
   -.125E+02 -.963E+02 0.166E+03   0.129E+02 0.962E+02 -.165E+03   -.455E+00 0.110E-01 -.299E+00   -.545E-02 -.401E-02 0.151E-01
   -.170E+03 -.109E+03 0.165E+04   0.170E+03 0.110E+03 -.165E+04   0.242E-01 -.183E+00 -.334E+00   0.626E-02 0.198E-01 0.159E-01
   -.701E+02 0.675E+01 0.148E+04   0.704E+02 -.668E+01 -.148E+04   -.244E+00 -.125E+00 -.699E+00   0.543E-02 0.205E-02 0.248E-01
   -.272E+03 -.156E+03 0.302E+04   0.269E+03 0.155E+03 -.302E+04   0.225E+01 0.135E+01 -.367E+01   0.170E-01 0.230E-02 0.750E-02
   0.296E+03 -.678E+02 0.296E+04   -.294E+03 0.671E+02 -.296E+04   -.219E+01 0.764E+00 -.281E+01   -.220E-01 0.546E-03 0.143E-01
   0.876E+02 0.280E+02 0.150E+04   -.876E+02 -.283E+02 -.151E+04   0.108E+00 0.199E+00 0.480E-02   -.687E-02 -.110E-01 0.357E-01
   0.140E+03 0.123E+02 0.119E+04   -.140E+03 -.122E+02 -.119E+04   0.103E+00 -.292E-01 -.332E+00   -.168E-02 0.621E-02 0.219E-01
   0.879E+02 0.220E+02 -.157E+04   -.877E+02 -.220E+02 0.157E+04   -.163E+00 -.538E-01 -.298E+00   -.230E-02 0.531E-02 0.781E-02
   -.774E+00 -.994E+01 0.308E+04   0.758E+00 0.104E+02 -.307E+04   -.694E-01 -.408E+00 -.174E+01   0.246E-02 0.887E-02 0.579E-02
   0.637E+02 0.177E+03 -.563E+02   -.641E+02 -.177E+03 0.571E+02   0.443E+00 0.239E+00 -.830E+00   -.414E-02 -.115E-01 0.182E-01
   0.711E+01 0.967E+02 -.324E+02   -.734E+01 -.961E+02 0.325E+02   0.270E+00 -.663E+00 -.157E+00   0.153E-02 0.319E-02 0.187E-01
   0.229E+03 0.527E+02 -.248E+03   -.229E+03 -.524E+02 0.249E+03   0.350E+00 -.364E+00 -.576E+00   0.262E-03 -.421E-03 0.567E-02
   -.608E+02 -.117E+03 -.120E+02   0.609E+02 0.116E+03 0.117E+02   -.122E+00 0.280E+00 0.178E+00   -.426E-02 0.259E-02 0.214E-01
   -.270E+01 -.143E+01 -.109E+02   -.711E-14 0.512E-12 0.157E-10   0.266E+01 0.148E+01 0.102E+02   0.152E-01 0.281E-02 0.737E+00

 POSITION                                       TOTAL-FORCE (eV/Angst)
     13.77988      8.54352      6.63288         0.018870      0.001409     -0.007098
      5.28919      8.54899      6.41850         0.007260      0.005032      0.005273
      5.12651      3.50587      6.84221         0.010211      0.012652      0.020550
     15.25417      9.36847      8.78946        -0.001387     -0.003687     -0.000307
      3.90014      4.54832      9.02311         0.003833     -0.001726     -0.000968
      6.78260      9.23850      8.74183         0.009926      0.003447      0.007519
     12.34895      4.42481      9.06983        -0.000821     -0.001727      0.007266
      9.55302      9.27094      9.13559        -0.002872      0.002371      0.001117
     10.88514      2.06923      8.73459        -0.001033      0.002601      0.002192
      2.64582      2.07635      9.08867        -0.004654     -0.000653     -0.009479
     12.39581      9.25096      9.01745        -0.003960      0.008518     -0.006155
     13.83671      6.94443      8.98624        -0.003463      0.000014      0.004862
      5.36523      1.93719      9.10060        -0.003044     -0.001318     -0.004060
      8.11686      6.79843      8.80075         0.000487      0.006230      0.001537
      9.51293      4.45707      8.78131        -0.000381      0.004205      0.004437
      5.30708      6.91617      8.81405        -0.008930      0.004497      0.004931
      8.16272      1.94442      8.89892        -0.005307     -0.003433     -0.004052
      7.99665      3.37127      6.62487         0.000783      0.015849     -0.016779
      6.55433      1.09977      6.78652        -0.005224     -0.006622      0.009123
      6.83385      1.22925      1.47033        -0.005152      0.034505      0.000102
      3.61235      3.96468      2.61995        -0.008749      0.002197      0.001057
      1.42946      1.43268      6.83516         0.007421     -0.003630      0.010449
      0.67127      0.98910      1.08188        -0.016274     -0.019676     -0.001736
      6.74807      9.00879      3.12342        -0.013211      0.013344     -0.015490
      6.73706      4.36815      8.93609        -0.008802     -0.005056     -0.005242
      8.49330      5.38439      5.05378        -0.019774     -0.006226      0.030823
     11.00023      6.87995      9.09784         0.000477     -0.001799      0.005339
     14.94884      7.37673      4.49249         0.021752     -0.011341     -0.011072
     12.48139      6.13491      6.83670        -0.007254     -0.003853     -0.002477
      6.47792      5.89216      6.65451         0.018410      0.007060     -0.022022
      3.57422      2.54624      4.95878        -0.018916     -0.011456     -0.037236
     11.12614      5.45251      4.71025         0.018217      0.004294      0.007445
      3.88117      5.90946      6.70634         0.003964     -0.001150     -0.006937
     13.73438      8.58852      1.76277        -0.005883     -0.018178     -0.040459
      4.87663      8.41395      1.57788         0.012203      0.007385      0.018396
      3.75877      6.38414      2.06092         0.022283     -0.002285      0.017102
      8.35850      2.27224      3.29405        -0.004438     -0.002798      0.007175
      9.33367      9.15886      2.96349         0.002124     -0.005021      0.017447
      2.47978      3.84183      6.95933        -0.004383      0.006265      0.000194
      1.94892      3.12368      0.97734        -0.001251      0.008649      0.006793
     10.75187      2.21221      3.05623         0.004146      0.006695      0.002338
     13.77799      5.05868      4.81470        -0.014984      0.011354     -0.003216
      3.95640      0.96772      7.02620        -0.004380     -0.005156      0.000943
      9.83065      6.29802      6.97633        -0.001465      0.002102      0.004977
      3.32747      0.88717      1.07332        -0.002897      0.001419     -0.006202
      9.37038      5.94444      1.03355         0.022481      0.005910     -0.037908
      5.77436      3.51120      1.58883         0.005285      0.007714      0.002586
     11.78080      9.10211      3.01275        -0.012810     -0.005839      0.018646
     12.14221      7.86485      4.90717        -0.005505     -0.016508     -0.001786
     12.89855      6.59993      3.08536        -0.003506     -0.004580      0.020624
      9.60902      4.40928      2.93166        -0.007303     -0.012370      0.001341
      8.50621      8.48201      6.96080         0.003344      0.004526      0.005088
      8.12654      8.25967      1.10014        -0.018634      0.011508     -0.003842
     10.59532      7.05732      2.72628        -0.002486     -0.004405      0.010112
      2.64345      0.12582      5.05287         0.008001      0.002489     -0.012157
      8.18206      3.50560      1.21995        -0.009980     -0.030670      0.011197
      4.79851      1.62222      2.89617        -0.006670      0.000362      0.010471
      5.80940      6.64990      3.24762        -0.013654      0.004003     -0.022784
      7.65468      0.41297      4.68699        -0.005429     -0.003281     -0.007975
      9.46819      1.13438      6.53768        -0.013314      0.002315     -0.006600
[...]
      9.64277      0.01896      3.43463         0.024735      0.003508      0.013450
      9.85949      3.06130      5.05334        -0.002802     -0.002877      0.004969
      6.31739      2.58312      4.70295         0.000988     -0.004551     -0.008713
     12.25313      4.17493      2.83324        -0.005833     -0.003337     -0.004083
      2.09525      1.75623      3.07324         0.004657      0.002495      0.017263
     11.83128      5.72145      1.13423         0.032210      0.004495     -0.002385
      6.85743      5.74904      1.30355        -0.004400     -0.004307      0.008018
      8.21979      6.81570      3.00225         0.004323      0.009966     -0.001158
      7.04013      4.41026      3.27464        -0.000562     -0.001030      0.004240
     11.12356      3.90011      6.90291         0.001147     -0.003105      0.006530
     10.73608      3.41609      1.01158         0.004943     -0.012824      0.006636
     11.35396      0.81935      4.88330        -0.009356     -0.000007     -0.008981
      9.67608      7.72321      4.95729         0.015033     -0.001929     -0.008388
      7.20385      7.63915      5.11888        -0.005643     -0.014412      0.011553
      5.07803      0.26935      4.93904        -0.006505     -0.009142     -0.002853
    total drift:                               -0.021259      0.047473     -0.020501

  FREE ENERGIE OF THE ION-ELECTRON SYSTEM (eV)
  free  energy   TOTEN  =      -499.64566582 eV

  energy  without entropy=     -499.67516783  energy(sigma->0) =     -499.65549982

 reached required accuracy - stopping structural energy minimisation