 vasp.5.4.4.18Apr17-6-g9f103f2a35 (build Nov 30 2020 22:55:02) complex

 executed on             LinuxIFC date 2022.09.16  21:59:15

 INCAR:
 POTCAR:    PAW_PBE Pt 04Feb2005
 POTCAR:    PAW_PBE Fe 06Sep2000
 POTCAR:    PAW_PBE Co 02Aug2007
 POTCAR:    PAW_PBE Cu 22Jun2005
 POTCAR:    PAW_PBE Ni 02Aug2007
 POTCAR:    PAW_PBE O 08Apr2002

 POTCAR:    PAW_PBE Pt 04Feb2005
   VRHFIN =Pt: s1d9

   TITEL  = PAW_PBE Pt 04Feb2005
   POMASS =  195.080; ZVAL   =   10.000    mass and valenz
   ENMAX  =  230.283; ENMIN  =  172.712 eV

 POTCAR:    PAW_PBE Fe 06Sep2000
   VRHFIN =Fe:  d7 s1

   TITEL  = PAW_PBE Fe 06Sep2000
   POMASS =   55.847; ZVAL   =    8.000    mass and valenz
   ENMAX  =  267.882; ENMIN  =  200.911 eV

 POTCAR:    PAW_PBE Co 02Aug2007
   VRHFIN =Co: d8 s1

   TITEL  = PAW_PBE Co 02Aug2007
   POMASS =   58.933; ZVAL   =    9.000    mass and valenz
   ENMAX  =  267.968; ENMIN  =  200.976 eV

 POTCAR:    PAW_PBE Cu 22Jun2005
   VRHFIN =Cu: d10 p1

   TITEL  = PAW_PBE Cu 22Jun2005
   POMASS =   63.546; ZVAL   =   11.000    mass and valenz
   ENMAX  =  295.446; ENMIN  =  221.585 eV

 POTCAR:    PAW_PBE Ni 02Aug2007
   VRHFIN =Ni:

   TITEL  = PAW_PBE Ni 02Aug2007
   POMASS =   58.690; ZVAL   =   10.000    mass and valenz
   ENMAX  =  269.532; ENMIN  =  202.149 eV

 POTCAR:    PAW_PBE O 08Apr2002
   VRHFIN =O: s2p4

   TITEL  = PAW_PBE O 08Apr2002
   POMASS =   16.000; ZVAL   =    6.000    mass and valenz
   ENMAX  =  400.000; ENMIN  =  300.000 eV

 Optimization of the real space projectors (new method)

 maximal supplied QI-value         = 14.36
 optimisation between [QCUT,QGAM] = [ 11.92, 23.98] = [ 39.79,161.09] Ry
 Optimized for a Real-space Cutoff    1.49 Angstroem

   l    n(q)    QCUT    max X(q) W(low)/X(q) W(high)/X(q)  e(spline)
   2     10    11.920    66.195    0.79E-04    0.18E-03    0.24E-06
   2     10    11.920    64.643    0.81E-04    0.19E-03    0.24E-06
   0     11    11.920    95.520    0.28E-04    0.54E-04    0.18E-06
   0     11    11.920    63.403    0.27E-04    0.52E-04    0.17E-06
   1     10    11.920    19.961    0.18E-04    0.11E-03    0.23E-06
   1     10    11.920    13.289    0.25E-04    0.87E-04    0.19E-06
 Optimization of the real space projectors (new method)

[...]

   l    n(q)    QCUT    max X(q) W(low)/X(q) W(high)/X(q)  e(spline)
   2      9    11.864    60.317    0.21E-03    0.51E-03    0.25E-06
   2      9    11.864    55.921    0.21E-03    0.51E-03    0.26E-06
   0      9    11.864    51.690    0.22E-03    0.30E-04    0.17E-06
   0      9    11.864    30.015    0.20E-03    0.28E-04    0.15E-06
   1      9    11.864    18.849    0.76E-04    0.33E-03    0.17E-06
   1      9    11.864    14.624    0.60E-04    0.28E-03    0.15E-06
 Optimization of the real space projectors (new method)

 maximal supplied QI-value         = 24.76
 optimisation between [QCUT,QGAM] = [ 11.88, 24.01] = [ 39.54,161.47] Ry
 Optimized for a Real-space Cutoff    1.18 Angstroem

   l    n(q)    QCUT    max X(q) W(low)/X(q) W(high)/X(q)  e(spline)
   0      8    11.883    20.381    0.86E-04    0.11E-03    0.31E-06
   0      8    11.883    15.268    0.94E-04    0.12E-03    0.33E-06
   1      8    11.883     5.964    0.19E-03    0.18E-04    0.33E-06
   1      8    11.883     5.382    0.17E-03    0.20E-04    0.29E-06
  PAW_PBE Pt 04Feb2005                  :
  PAW_PBE Fe 06Sep2000                  :
  PAW_PBE Co 02Aug2007                  :
  PAW_PBE Cu 22Jun2005                  :
  PAW_PBE Ni 02Aug2007                  :
  PAW_PBE O 08Apr2002                   :

 POSCAR: Pt   Fe   Co   Cu   Ni   O
  positions in cartesian coordinates
 exchange correlation table for  LEXCH =        8
   RHO(1)=    0.500       N(1)  =     2000
   RHO(2)=  100.500       N(2)  =     4000

 ion  position               nearest neighbor table
   1  0.785  0.878  0.319-  19 2.60  61 2.63  49 2.64  29 2.66  28 2.66  33 2.66  59 2.68  60 2.69
                             2 2.74   4 2.77  12 2.82  11 2.92
   2  0.043  0.883  0.315-  79 2.53  77 2.59  60 2.62  28 2.64  30 2.65  52 2.66  33 2.67  22 2.69
                             1 2.74   6 2.76   4 2.77  16 2.92
   3  0.281  0.380  0.319-  39 2.56  64 2.57  33 2.59  31 2.63  68 2.70  43 2.71  30 2.71  19 2.71
                            13 2.73   5 2.81  18 2.82  25 2.84
   4  0.879  0.961  0.421-   6 2.60  16 2.62   9 2.63  12 2.68  11 2.69  17 2.71  60 2.75   1 2.77
                             2 2.77
   5  0.122  0.464  0.429-  12 2.59   7 2.62  16 2.63  10 2.64  13 2.65  25 2.66  33 2.74  39 2.74
                             3 2.81
   6  0.125  0.962  0.421-   4 2.60   8 2.61  14 2.63  10 2.64  16 2.65   9 2.65   2 2.76  52 2.78
                            22 2.86
   7  0.875  0.460  0.426-  15 2.61   5 2.62   9 2.62  10 2.63  12 2.64  27 2.67  39 2.68  75 2.78
                            29 2.79
   8  0.373  0.961  0.419-  43 2.59  14 2.60   6 2.61  27 2.63  10 2.64  13 2.65  52 2.67  11 2.69
                            61 2.70
   9  0.875  0.213  0.419-   7 2.62   4 2.63  15 2.64  17 2.64  10 2.64   6 2.65  75 2.66  60 2.70
                            22 2.78
  10  0.125  0.212  0.423-  13 2.60   7 2.63   8 2.64   5 2.64   9 2.64   6 2.64  39 2.67  43 2.75
                            22 2.79
  11  0.627  0.958  0.434-  81 1.98  27 2.61  12 2.63   8 2.69   4 2.69  13 2.71  17 2.73   1 2.92
                            61 3.01  19 3.02
  12  0.876  0.709  0.426-   5 2.59  11 2.63  16 2.63   7 2.64  27 2.66   4 2.68  33 2.68   1 2.82
                            29 2.82
  13  0.371  0.212  0.422-  10 2.60   5 2.65   8 2.65  25 2.68  81 2.70  17 2.70  11 2.71  43 2.71
                             3 2.73  19 2.79
  14  0.375  0.714  0.423-   8 2.60  27 2.61   6 2.63  25 2.63  15 2.64  16 2.66  44 2.70  52 2.76
                            30 2.77
  15  0.626  0.464  0.423-   7 2.61  27 2.61  17 2.62   9 2.64  14 2.64  25 2.68  44 2.69  18 2.73
                            75 2.75
  16  0.125  0.711  0.427-  25 2.60   4 2.62   5 2.63  12 2.63   6 2.65  14 2.66  33 2.69  30 2.85
                             2 2.92
  17  0.623  0.218  0.431-  81 1.99  15 2.62   9 2.64  25 2.64  13 2.70   4 2.71  11 2.73  18 2.82
                            60 2.94  19 3.03
  18  0.552  0.373  0.320-  60 2.56  75 2.59  67 2.60  44 2.65  68 2.71  19 2.72  15 2.73  30 2.73
                            26 2.73   3 2.82  17 2.82  25 2.85
  19  0.537  0.123  0.315-  80 2.57  43 2.57  68 2.59  59 2.60   1 2.60  61 2.63   3 2.71  18 2.72
                            60 2.73  13 2.79  11 3.02  17 3.03
  20  0.547  0.124  0.040-  37 2.55  57 2.56  48 2.58  62 2.64  63 2.68  47 2.68  45 2.68  56 2.70
                            34 2.71
  21  0.121  0.460  0.128-  40 2.52  36 2.53  47 2.53  42 2.60  69 2.61  64 2.62  70 2.64  50 2.64
                            58 2.67  31 2.70  57 2.71  74 2.72
  22  0.044  0.137  0.314-  65 2.51  55 2.52  77 2.57  39 2.58  43 2.58  75 2.60   2 2.69  60 2.70
                            52 2.72   9 2.78  10 2.79   6 2.86  31 3.38
  23  0.042  0.130  0.033-  70 2.58  40 2.60  41 2.61  45 2.62  62 2.64  76 2.64  24 2.69  35 2.73
                            53 2.78
  24  0.130  0.958  0.132-  79 2.51  77 2.54  35 2.57  53 2.57  55 2.58  70 2.62  38 2.64  58 2.64
                            73 2.65  23 2.69  66 2.70  41 2.72
  25  0.372  0.466  0.426-  16 2.60  14 2.63  17 2.64   5 2.66  15 2.68  13 2.68  30 2.81   3 2.84
                            18 2.85
  26  0.455  0.546  0.219-  73 2.50  74 2.54  51 2.56  79 2.61  64 2.63  30 2.64  68 2.67  78 2.67
                            32 2.68  67 2.72  18 2.73  44 2.75
  27  0.622  0.714  0.423-  14 2.61  11 2.61  15 2.61   8 2.63  12 2.66   7 2.67  44 2.69  61 2.74
                            29 2.78
  28  0.956  0.790  0.221-  58 2.57  66 2.57  50 2.58  42 2.59  49 2.61  64 2.63   2 2.64   1 2.66
                            59 2.70  33 2.72  79 2.76  77 2.77
  29  0.795  0.622  0.319-  39 2.54  42 2.55  75 2.57  32 2.61  44 2.64  33 2.65   1 2.66  61 2.68
                            49 2.68  27 2.78   7 2.79  12 2.82
  30  0.292  0.631  0.318-  79 2.56  64 2.60  52 2.61  44 2.62  26 2.64   2 2.65  33 2.65   3 2.71
                            18 2.73  14 2.77  25 2.81  16 2.85
  31  0.203  0.281  0.225-  70 2.52  55 2.56  65 2.57  43 2.59  57 2.60   3 2.63  39 2.67  80 2.70
                            21 2.70  42 2.71  68 2.75  64 2.79  22 3.38
  32  0.706  0.549  0.221-  54 2.53  69 2.56  51 2.58  49 2.59  42 2.60  29 2.61  78 2.62  65 2.63
                            75 2.68  26 2.68  44 2.69  67 2.70
  33  0.042  0.631  0.325-   3 2.59  39 2.64  30 2.65  29 2.65   1 2.66   2 2.67  12 2.68  16 2.69
                            64 2.69  28 2.72  42 2.73   5 2.74
  34  0.797  0.862  0.042-  50 2.38  66 2.51  48 2.53  36 2.55  71 2.56  63 2.61  20 2.71  35 2.76
                            62 2.76
  35  0.056  0.866  0.038-  58 2.54  72 2.55  36 2.56  24 2.57  66 2.62  53 2.65  23 2.73  62 2.73
                            34 2.76
  36  0.046  0.628  0.037-  21 2.53  34 2.55  35 2.56  58 2.58  50 2.61  47 2.63  72 2.64  40 2.69
                            71 2.72
  37  0.627  0.222  0.129-  51 2.51  74 2.51  67 2.52  56 2.53  41 2.55  20 2.55  68 2.56  59 2.56
                            62 2.59  66 2.66  57 2.73  48 2.89
  38  0.382  0.955  0.130-  53 2.47  80 2.48  45 2.49  78 2.53  48 2.54  73 2.55  63 2.55  54 2.56
                            55 2.59  57 2.62  24 2.64  70 2.67
  39  0.037  0.384  0.325-  29 2.54   3 2.56  22 2.58  75 2.59  33 2.64  42 2.66  31 2.67  10 2.67
                             7 2.68   5 2.74  65 2.77  43 2.80
  40  0.031  0.382  0.038-  69 2.44  21 2.52  71 2.53  76 2.56  70 2.57  23 2.60  36 2.69  45 2.78
                            47 2.78
  41  0.872  0.215  0.128-  76 2.45  65 2.52  77 2.53  67 2.54  37 2.55  69 2.57  62 2.57  51 2.59
                            23 2.61  70 2.65  66 2.66  24 2.72
  42  0.955  0.545  0.224-  29 2.55  50 2.56  28 2.59  21 2.60  32 2.60  69 2.61  49 2.63  65 2.64
                            64 2.65  39 2.66  31 2.71  33 2.73
  43  0.298  0.115  0.321-  55 2.53  52 2.54  61 2.55  19 2.57  22 2.58  31 2.59   8 2.59  80 2.64
                             3 2.71  13 2.71  10 2.75  39 2.80
  44  0.542  0.629  0.322-  61 2.57  52 2.59  30 2.62  78 2.64  29 2.64  18 2.65  75 2.65  27 2.69
                            32 2.69  15 2.69  14 2.70  26 2.75
  45  0.295  0.119  0.039-  70 2.49  38 2.49  57 2.57  53 2.60  23 2.62  63 2.64  20 2.68  47 2.75
                            40 2.78
  46  0.548  0.625  0.044-  51 2.38  73 2.39  54 2.41  71 2.56  53 2.56  63 2.58  76 2.59  56 2.62
                            72 2.64
  47  0.296  0.379  0.039-  74 2.41  21 2.53  57 2.61  72 2.61  56 2.62  36 2.63  20 2.68  45 2.75
                            40 2.78
  48  0.625  0.950  0.132-  49 2.40  80 2.48  54 2.48  34 2.53  38 2.54  59 2.55  50 2.56  63 2.57
                            20 2.58  57 2.65  66 2.68  37 2.89
  49  0.706  0.794  0.220-  48 2.40  50 2.48  54 2.49  80 2.53  32 2.59  28 2.61  78 2.61  42 2.63
                            61 2.63   1 2.64  29 2.68  59 2.69
[...]
     12.969068  7.879772  0.925674            0           0           0
      5.163396  7.917194  0.830298            0           0           0
      3.807011  5.745024  0.813805            0           0           0
      7.798522  2.032451  2.832513            0           0           0
      9.077547  8.733730  2.857427            0           0           0
      2.413135  3.508913  7.141682            0           0           0
      2.344093  3.490514  0.825101            0           0           0
     10.348141  1.969830  2.822490            0           0           0
     12.960353  4.985870  4.925592            0           0           0
      3.759536  1.055602  7.054063            0           0           0
      9.038725  5.748352  7.080741            0           0           0
      3.748243  1.091821  0.867003            0           0           0
      9.091210  5.718673  0.960427            0           0           0
      5.124479  3.470454  0.855627            0           0           0
     11.620923  8.687580  2.905895            0           0           0
     11.653130  7.264496  4.842290            0           0           0
     12.867560  6.452796  2.833790            0           0           0
      9.042010  4.207796  2.796278            0           0           0
      7.769649  8.006390  6.981678            0           0           0
      7.813155  7.939223  0.886525            0           0           0
     10.391439  6.535663  2.821980            0           0           0
      2.513474  0.258257  5.000827            0           0           0
      7.742638  3.484538  0.761574            0           0           0
      5.078354  1.877603  2.917008            0           0           0
      5.160365  6.447147  2.899226            0           0           0
      7.708921  0.459858  4.847993            0           0           0
      9.051523  1.179341  6.980086            0           0           0
[...]
      9.073503  2.652522  4.913605            0           0           0
      6.371693  2.665576  4.858272            0           0           0
     11.658911  4.174860  2.814827            0           0           0
      2.440982  1.892366  2.832794            0           0           0
     11.649530  5.686214  0.885461            0           0           0
      6.447433  5.719494  0.925972            0           0           0
      7.829267  6.506514  2.836212            0           0           0
      6.419224  4.130068  2.782896            0           0           0
     10.386551  3.466994  7.031774            0           0           0
     10.344097  3.450125  0.868038            0           0           0
     10.370626  0.484098  4.871515            0           0           0
      9.040790  7.290173  4.936995            0           0           0
      6.462653  7.295032  4.940739            0           0           0
      5.042471  0.276335  4.884059            0           0           0
      6.902355  0.929248 10.945008    -0.073484    0.105582    0.991692

   2 f  =   10.690112 THz    67.167955 2PiTHz  356.583746 cm-1    44.210766 meV
             X         Y         Z           dx          dy          dz
     12.930406  8.030817  7.016659            0           0           0
      5.108954  8.071231  6.934528            0           0           0
      4.974938  3.476172  7.024422            0           0           0
     14.354840  8.791051  9.268274            0           0           0
      3.731141  4.239879  9.430191            0           0           0
      6.399700  8.794433  9.268639            0           0           0
     11.672185  4.210113  9.380269            0           0           0
      9.006119  8.784829  9.217481            0           0           0
     10.358678  1.944627  9.216612            0           0           0
      2.439797  1.938585  9.298548            0           0           0
     11.675830  8.758366  9.548380            0           0           0
     12.997957  6.487761  9.375105            0           0           0
      5.038780  1.943039  9.277123            0           0           0
      7.731337  6.526429  9.314835            0           0           0
      9.062633  4.244579  9.307382            0           0           0
      5.072186  6.505797  9.395947            0           0           0
      7.730335  1.990154  9.482644            0           0           0
      7.793055  3.410072  7.041830            0           0           0
      6.323551  1.125857  6.939709            0           0           0
      6.428579  1.129740  0.878720            0           0           0
      3.705484  4.208436  2.816869            0           0           0
      1.187342  1.251063  6.904377            0           0           0
      1.135691  1.190800  0.725566            0           0           0
      6.436066  8.760995  2.900314            0           0           0
      6.386773  4.262897  9.365549            0           0           0
      7.681351  4.990728  4.814740            0           0           0
     10.340280  6.525266  9.297236            0           0           0
     14.264242  7.225928  4.862987            0           0           0
     11.680284  5.686699  7.011772            0           0           0
      6.418796  5.768250  6.995244            0           0           0
      3.621194  2.565893  4.960228            0           0           0
     10.360912  5.024302  4.856517            0           0           0
      3.769557  5.769410  7.159655            0           0           0
     12.969068  7.879772  0.925674            0           0           0
      5.163396  7.917194  0.830298            0           0           0
      3.807011  5.745024  0.813805            0           0           0
      7.798522  2.032451  2.832513            0           0           0
      9.077547  8.733730  2.857427            0           0           0
      2.413135  3.508913  7.141682            0           0           0
      2.344093  3.490514  0.825101            0           0           0
     10.348141  1.969830  2.822490            0           0           0
     12.960353  4.985870  4.925592            0           0           0
      3.759536  1.055602  7.054063            0           0           0
      9.038725  5.748352  7.080741            0           0           0
      3.748243  1.091821  0.867003            0           0           0
      9.091210  5.718673  0.960427            0           0           0
      5.124479  3.470454  0.855627            0           0           0
     11.620923  8.687580  2.905895            0           0           0
     11.653130  7.264496  4.842290            0           0           0
     12.867560  6.452796  2.833790            0           0           0
      9.042010  4.207796  2.796278            0           0           0
      7.769649  8.006390  6.981678            0           0           0
      7.813155  7.939223  0.886525            0           0           0
     10.391439  6.535663  2.821980            0           0           0
      2.513474  0.258257  5.000827            0           0           0
      7.742638  3.484538  0.761574            0           0           0
      5.078354  1.877603  2.917008            0           0           0
      5.160365  6.447147  2.899226            0           0           0
      7.708921  0.459858  4.847993            0           0           0
      9.051523  1.179341  6.980086            0           0           0
[...]
      9.073503  2.652522  4.913605            0           0           0
      6.371693  2.665576  4.858272            0           0           0
     11.658911  4.174860  2.814827            0           0           0
      2.440982  1.892366  2.832794            0           0           0
     11.649530  5.686214  0.885461            0           0           0
      6.447433  5.719494  0.925972            0           0           0
      7.829267  6.506514  2.836212            0           0           0
      6.419224  4.130068  2.782896            0           0           0
     10.386551  3.466994  7.031774            0           0           0
     10.344097  3.450125  0.868038            0           0           0
     10.370626  0.484098  4.871515            0           0           0
      9.040790  7.290173  4.936995            0           0           0
      6.462653  7.295032  4.940739            0           0           0
      5.042471  0.276335  4.884059            0           0           0
      6.902355  0.929248 10.945008     0.486397    0.871891   -0.056785

   3 f/i=    2.851642 THz    17.917394 2PiTHz   95.120527 cm-1    11.793447 meV
             X         Y         Z           dx          dy          dz
     12.930406  8.030817  7.016659            0           0           0
      5.108954  8.071231  6.934528            0           0           0
      4.974938  3.476172  7.024422            0           0           0
     14.354840  8.791051  9.268274            0           0           0
      3.731141  4.239879  9.430191            0           0           0
      6.399700  8.794433  9.268639            0           0           0
     11.672185  4.210113  9.380269            0           0           0
      9.006119  8.784829  9.217481            0           0           0
     10.358678  1.944627  9.216612            0           0           0
      2.439797  1.938585  9.298548            0           0           0
     11.675830  8.758366  9.548380            0           0           0
     12.997957  6.487761  9.375105            0           0           0
      5.038780  1.943039  9.277123            0           0           0
      7.731337  6.526429  9.314835            0           0           0
      9.062633  4.244579  9.307382            0           0           0
      5.072186  6.505797  9.395947            0           0           0
      7.730335  1.990154  9.482644            0           0           0
      7.793055  3.410072  7.041830            0           0           0
      6.323551  1.125857  6.939709            0           0           0
      6.428579  1.129740  0.878720            0           0           0
      3.705484  4.208436  2.816869            0           0           0
      1.187342  1.251063  6.904377            0           0           0
      1.135691  1.190800  0.725566            0           0           0
      6.436066  8.760995  2.900314            0           0           0
      6.386773  4.262897  9.365549            0           0           0
      7.681351  4.990728  4.814740            0           0           0
     10.340280  6.525266  9.297236            0           0           0
     14.264242  7.225928  4.862987            0           0           0
     11.680284  5.686699  7.011772            0           0           0
      6.418796  5.768250  6.995244            0           0           0
      3.621194  2.565893  4.960228            0           0           0
     10.360912  5.024302  4.856517            0           0           0
      3.769557  5.769410  7.159655            0           0           0
     12.969068  7.879772  0.925674            0           0           0
      5.163396  7.917194  0.830298            0           0           0
      3.807011  5.745024  0.813805            0           0           0
      7.798522  2.032451  2.832513            0           0           0
      9.077547  8.733730  2.857427            0           0           0
      2.413135  3.508913  7.141682            0           0           0
      2.344093  3.490514  0.825101            0           0           0
     10.348141  1.969830  2.822490            0           0           0
     12.960353  4.985870  4.925592            0           0           0
      3.759536  1.055602  7.054063            0           0           0
      9.038725  5.748352  7.080741            0           0           0
      3.748243  1.091821  0.867003            0           0           0
      9.091210  5.718673  0.960427            0           0           0
      5.124479  3.470454  0.855627            0           0           0
     11.620923  8.687580  2.905895            0           0           0
     11.653130  7.264496  4.842290            0           0           0
     12.867560  6.452796  2.833790            0           0           0
      9.042010  4.207796  2.796278            0           0           0
      7.769649  8.006390  6.981678            0           0           0
      7.813155  7.939223  0.886525            0           0           0
     10.391439  6.535663  2.821980            0           0           0
      2.513474  0.258257  5.000827            0           0           0
      7.742638  3.484538  0.761574            0           0           0
      5.078354  1.877603  2.917008            0           0           0
      5.160365  6.447147  2.899226            0           0           0
      7.708921  0.459858  4.847993            0           0           0
      9.051523  1.179341  6.980086            0           0           0
[...]
      9.073503  2.652522  4.913605            0           0           0
      6.371693  2.665576  4.858272            0           0           0
     11.658911  4.174860  2.814827            0           0           0
      2.440982  1.892366  2.832794            0           0           0
     11.649530  5.686214  0.885461            0           0           0
      6.447433  5.719494  0.925972            0           0           0
      7.829267  6.506514  2.836212            0           0           0
      6.419224  4.130068  2.782896            0           0           0
     10.386551  3.466994  7.031774            0           0           0
     10.344097  3.450125  0.868038            0           0           0
     10.370626  0.484098  4.871515            0           0           0
      9.040790  7.290173  4.936995            0           0           0
      6.462653  7.295032  4.940739            0           0           0
      5.042471  0.276335  4.884059            0           0           0
      6.902355  0.929248 10.945008    -0.870642    0.478183   -0.115425

 Finite differences POTIM=  1.500000000000000E-002
  LATTYP: Found a hexagonal cell.
 ALAT       =    10.5600004196
 C/A-ratio  =     2.0833332505

  Lattice vectors:

 A1 = (   5.2800002098,  -9.1452286274,   0.0000000000)
 A2 = ( -10.5600004196,   0.0000000000,   0.0000000000)
 A3 = (   0.0000000000,   0.0000000000, -22.0000000000)

Analysis of symmetry for initial positions (statically):
 Subroutine PRICEL returns:
 Original cell was already a primitive cell.

[...]

The static configuration has the point symmetry C_1 .

Analysis of symmetry for dynamics (positions and initial velocities):
 Subroutine PRICEL returns:
 Original cell was already a primitive cell.

[...]

The dynamic configuration has the point symmetry C_1 .

Analysis of constrained symmetry for selective dynamics:
 Subroutine PRICEL returns:
 Original cell was already a primitive cell.

[...]

The constrained configuration has the point symmetry C_1 .

Analysis of structural, dynamic, and magnetic symmetry:
 Subroutine PRICEL returns:
 Original cell was already a primitive cell.

 Routine SETGRP: Setting up the symmetry group for a
 hexagonal supercell.

 Subroutine GETGRP returns: Found  1 space group operations
 (whereof  1 operations were pure point group operations)
 out of a pool of 24 trial point group operations.

The magnetic configuration has the point symmetry C_1 .

 Subroutine INISYM returns: Found  1 space group operations
 (whereof  1 operations are pure point group operations),
 and found     1 'primitive' translations

 KPOINTS: mesh auto

Automatic generation of k-mesh.
Space group operators:
 irot       det(A)        alpha          n_x          n_y          n_z        tau_x        tau_y        tau_z
    1     1.000000     0.000001     1.000000     0.000000     0.000000     0.000000     0.000000     0.000000

 Subroutine IBZKPT returns following result:

 Found      4 irreducible k-points:

 Following reciprocal coordinates:
            Coordinates               Weight
  0.000000  0.000000  0.000000      1.000000
  0.500000  0.000000  0.000000      1.000000
  0.000000  0.500000  0.000000      1.000000
  0.500000  0.500000  0.000000      1.000000

 Following cartesian coordinates:
            Coordinates               Weight
  0.000000  0.000000  0.000000      1.000000
  0.047348 -0.027337  0.000000      1.000000
  0.000000  0.054673  0.000000      1.000000
  0.047348  0.027337  0.000000      1.000000

 TETIRR: Found     12 inequivalent tetrahedra from       24
 BZINTS: Fermi energy:  2.029717;783.000000 electrons
         Band energy:-740.204096;  BLOECHL correction: -0.065710