 vasp.5.4.4.18Apr17-6-g9f103f2a35 (build Oct 25 2019 11:13:22) complex

 executed on             LinuxIFC date 2021.10.30  02:09:16

 INCAR:
 POTCAR:    PAW_PBE Pt 04Feb2005
 POTCAR:    PAW_PBE Fe 06Sep2000
 POTCAR:    PAW_PBE Co 02Aug2007
 POTCAR:    PAW_PBE Cu 22Jun2005
 POTCAR:    PAW_PBE Ni 02Aug2007
 POTCAR:    PAW_PBE H 15Jun2001
 POTCAR:    PAW_PBE Pt 04Feb2005
   VRHFIN =Pt: s1d9

   TITEL  = PAW_PBE Pt 04Feb2005
   POMASS =  195.080; ZVAL   =   10.000    mass and valenz
   ENMAX  =  230.283; ENMIN  =  172.712 eV

 POTCAR:    PAW_PBE Fe 06Sep2000
   VRHFIN =Fe:  d7 s1

   TITEL  = PAW_PBE Fe 06Sep2000
   POMASS =   55.847; ZVAL   =    8.000    mass and valenz
   ENMAX  =  267.882; ENMIN  =  200.911 eV

 POTCAR:    PAW_PBE Co 02Aug2007
   VRHFIN =Co: d8 s1

   TITEL  = PAW_PBE Co 02Aug2007
   POMASS =   58.933; ZVAL   =    9.000    mass and valenz
   ENMAX  =  267.968; ENMIN  =  200.976 eV

 POTCAR:    PAW_PBE Cu 22Jun2005
   VRHFIN =Cu: d10 p1

   TITEL  = PAW_PBE Cu 22Jun2005
   POMASS =   63.546; ZVAL   =   11.000    mass and valenz
   ENMAX  =  295.446; ENMIN  =  221.585 eV

 POTCAR:    PAW_PBE Ni 02Aug2007
   VRHFIN =Ni:

   TITEL  = PAW_PBE Ni 02Aug2007
   POMASS =   58.690; ZVAL   =   10.000    mass and valenz
   ENMAX  =  269.532; ENMIN  =  202.149 eV

 POTCAR:    PAW_PBE H 15Jun2001
   VRHFIN =H: ultrasoft test

   TITEL  = PAW_PBE H 15Jun2001
   POMASS =    1.000; ZVAL   =    1.000    mass and valenz
   ENMAX  =  250.000; ENMIN  =  200.000 eV

 Optimization of the real space projectors (new method)

 maximal supplied QI-value         = 14.36
 optimisation between [QCUT,QGAM] = [ 11.92, 23.98] = [ 39.79,161.09] Ry
 Optimized for a Real-space Cutoff    1.49 Angstroem

   l    n(q)    QCUT    max X(q) W(low)/X(q) W(high)/X(q)  e(spline)
   2     10    11.920    66.195    0.79E-04    0.18E-03    0.24E-06
   2     10    11.920    64.643    0.81E-04    0.19E-03    0.24E-06
   0     11    11.920    95.520    0.28E-04    0.54E-04    0.18E-06
   0     11    11.920    63.403    0.27E-04    0.52E-04    0.17E-06
   1     10    11.920    19.961    0.18E-04    0.11E-03    0.23E-06
   1     10    11.920    13.289    0.25E-04    0.87E-04    0.19E-06
 Optimization of the real space projectors (new method)

[...]

   l    n(q)    QCUT    max X(q) W(low)/X(q) W(high)/X(q)  e(spline)
   2      9    11.864    60.317    0.21E-03    0.51E-03    0.25E-06
   2      9    11.864    55.921    0.21E-03    0.51E-03    0.26E-06
   0      9    11.864    51.690    0.22E-03    0.30E-04    0.17E-06
   0      9    11.864    30.015    0.20E-03    0.28E-04    0.15E-06
   1      9    11.864    18.849    0.76E-04    0.33E-03    0.17E-06
   1      9    11.864    14.624    0.60E-04    0.28E-03    0.15E-06
 Optimization of the real space projectors (new method)

 maximal supplied QI-value         = 34.20
 optimisation between [QCUT,QGAM] = [ 11.97, 23.94] = [ 40.13,160.53] Ry
 Optimized for a Real-space Cutoff    1.18 Angstroem

   l    n(q)    QCUT    max X(q) W(low)/X(q) W(high)/X(q)  e(spline)
   0      8    11.971    19.460    0.15E-03    0.31E-03    0.25E-06
   0      8    11.971    12.209    0.13E-03    0.29E-03    0.25E-06
   1      8    11.971     4.655    0.22E-03    0.24E-03    0.21E-06
  PAW_PBE Pt 04Feb2005                  :
  PAW_PBE Fe 06Sep2000                  :
  PAW_PBE Co 02Aug2007                  :
  PAW_PBE Cu 22Jun2005                  :
  PAW_PBE Ni 02Aug2007                  :
  PAW_PBE H 15Jun2001                   :

 POSCAR: 11.26-high
  positions in direct lattice
  velocities in cartesian coordinates
 exchange correlation table for  LEXCH =        8
   RHO(1)=    0.500       N(1)  =     2000
   RHO(2)=  100.500       N(2)  =     4000

 ion  position               nearest neighbor table
   1  0.776  0.870  0.315-  56 2.59  32 2.67  15 2.74  33 2.75  65 2.77  23 2.78   8 2.78  40 2.79
                            16 2.83  41 2.87   3 2.88   2 2.93
   2  0.037  0.869  0.316-  38 2.65  79 2.66  32 2.76  26 2.76   8 2.79  34 2.81  58 2.81  10 2.81
                            41 2.83   3 2.83  20 2.84   1 2.93
   3  0.036  0.617  0.313-  50 2.60  68 2.63  32 2.69   6 2.81   9 2.81   4 2.81   2 2.83  20 2.84
                            33 2.85  34 2.86  16 2.87   1 2.88
   4  0.028  0.371  0.319-  50 2.61  36 2.68  42 2.70  11 2.72  77 2.76   9 2.77  14 2.77  33 2.80
                             3 2.81  26 2.83   6 2.88   5 2.96
   5  0.290  0.106  0.318-  61 2.55  36 2.68  12 2.69  39 2.69  58 2.70  26 2.77  65 2.77  14 2.78
                            17 2.79  23 2.80   6 2.92   4 2.96
   6  0.287  0.368  0.317-  68 2.59  71 2.62  36 2.71  23 2.75  29 2.76   9 2.80  17 2.81   3 2.81
                            34 2.86   4 2.88  22 2.90   5 2.92
   7  0.860  0.689  0.125-  74 2.52  43 2.54  45 2.59  55 2.63  60 2.65  50 2.65  56 2.66  32 2.70
                            72 2.71  25 2.83  64 3.07
   8  0.861  0.955  0.416-  15 2.76  21 2.77   1 2.78  41 2.78   2 2.79  16 2.80  13 2.83  20 2.87
                            10 2.94
   9  0.115  0.456  0.419-  20 2.72   4 2.77  16 2.78  11 2.79   6 2.80  29 2.81   3 2.81  14 2.84
                            17 2.90
  10  0.124  0.953  0.420-  58 2.71  14 2.76  26 2.76  12 2.78   2 2.81  18 2.83  13 2.87  20 2.90
                             8 2.94
  11  0.870  0.449  0.421-   4 2.72  77 2.72  19 2.74  13 2.76  14 2.79   9 2.79  33 2.82  31 2.82
                            16 2.83
  12  0.375  0.947  0.418-   5 2.69  65 2.70  58 2.70  18 2.72  15 2.74  31 2.75  10 2.78  17 2.79
                            14 2.86
  13  0.866  0.205  0.416-  77 2.72  11 2.76  21 2.77  26 2.77  41 2.77  19 2.78  14 2.83   8 2.83
                            10 2.87
  14  0.120  0.201  0.420-  10 2.76   4 2.77   5 2.78  11 2.79  26 2.81  17 2.81  13 2.83   9 2.84
                            12 2.86
  15  0.619  0.946  0.418-  81 1.90   1 2.74  12 2.74  16 2.75  65 2.75  31 2.76   8 2.76  17 2.79
                            23 2.81  21 2.92
  16  0.867  0.703  0.420-  81 1.91  15 2.75  20 2.76  33 2.77   9 2.78  31 2.79   8 2.80   1 2.83
                            11 2.83   3 2.87
  17  0.372  0.197  0.420-  23 2.75  12 2.79   5 2.79  15 2.79   6 2.81  14 2.81  21 2.82  29 2.83
                             9 2.90
  18  0.378  0.703  0.417-  51 2.60  58 2.67  31 2.69  12 2.72  34 2.74  19 2.75  10 2.83  29 2.89
                            20 2.98
  19  0.622  0.456  0.419-  51 2.65  77 2.66  31 2.72  22 2.73  11 2.74  18 2.75  13 2.78  21 2.82
                            29 2.88
  20  0.115  0.699  0.421-   9 2.72  16 2.76  29 2.81  34 2.82   3 2.84   2 2.84   8 2.87  10 2.90
                            18 2.98
  21  0.619  0.206  0.417-  22 2.75  13 2.77   8 2.77  23 2.77  29 2.78  41 2.80  17 2.82  19 2.82
                            15 2.92
  22  0.541  0.377  0.317-  70 2.59  30 2.64  71 2.64  77 2.68  51 2.70  19 2.73  21 2.75  34 2.79
                            41 2.80  29 2.80   6 2.90  23 2.92
  23  0.532  0.121  0.317-  71 2.65  40 2.70  39 2.75  17 2.75   6 2.75  21 2.77   1 2.78   5 2.80
                            15 2.81  41 2.84  22 2.92  65 2.94
  24  0.544  0.120  0.050-  46 2.53  63 2.54  55 2.60  43 2.70  66 2.73  54 2.84  62 2.84  52 2.87
                            67 2.92
  25  0.114  0.439  0.123-  54 2.49  48 2.53  45 2.58  36 2.70  73 2.70  63 2.75  50 2.75  68 2.78
                             7 2.83  72 2.85  64 2.94  76 3.11
  26  0.039  0.114  0.316-  79 2.55  61 2.63  42 2.67   2 2.76  10 2.76  13 2.77   5 2.77  58 2.79
                            14 2.81  41 2.82   4 2.83  77 2.96
  27  0.024  0.132  0.037-  48 2.54  49 2.59  73 2.61  28 2.65  78 2.71  59 2.73  66 2.74  52 2.92
                            44 3.11
  28  0.115  0.958  0.130-  59 2.54  79 2.58  44 2.59  38 2.63  27 2.65  61 2.66  69 2.68  73 2.69
                            47 2.79  49 2.84  35 2.87  64 2.93
  29  0.368  0.451  0.419-   6 2.76  34 2.77  21 2.78  22 2.80   9 2.81  20 2.81  17 2.83  19 2.88
                            18 2.89
  30  0.456  0.540  0.221-  76 2.51  57 2.56  22 2.64  34 2.68  51 2.72  37 2.72  35 2.73  80 2.74
                            71 2.76  38 2.79  70 2.79  68 2.85
  31  0.619  0.700  0.421-  81 1.81  51 2.68  18 2.69  65 2.72  19 2.72  33 2.75  12 2.75  15 2.76
                            16 2.79  11 2.82
  32  0.941  0.791  0.218-  64 2.57  69 2.60   1 2.67   3 2.69   7 2.70   2 2.76  56 2.78  40 2.87
                            50 2.87  79 2.91  68 3.02  38 3.04
  33  0.780  0.622  0.318-  56 2.60  37 2.62  50 2.62  65 2.69  77 2.73  31 2.75  51 2.75   1 2.75
                            16 2.77   4 2.80  11 2.82   3 2.85
  34  0.289  0.621  0.318-  38 2.67  30 2.68  68 2.74  18 2.74  58 2.75  29 2.77  51 2.77  22 2.79
                             2 2.81  20 2.82   6 2.86   3 2.86
  35  0.377  0.709  0.122-  53 2.48  75 2.55  59 2.60  47 2.62  60 2.68  30 2.73  80 2.74  38 2.75
                            57 2.85  76 2.87  28 2.87  64 2.87
  36  0.198  0.277  0.223-  73 2.54  63 2.54   4 2.68   5 2.68  25 2.70   6 2.71  61 2.76  42 2.81
                            68 2.83  50 2.84  39 2.91  71 2.97
  37  0.694  0.548  0.222-  72 2.55  60 2.56  57 2.60  33 2.62  56 2.63  80 2.66  51 2.69  77 2.70
                            30 2.72  50 2.75  70 2.82  42 2.88
  38  0.211  0.792  0.224-  64 2.58  58 2.59  61 2.62  28 2.63   2 2.65  34 2.67  80 2.70  35 2.75
                            30 2.79  79 2.85  68 3.02  32 3.04
  39  0.456  0.016  0.221-  47 2.49  55 2.60  80 2.62  63 2.64  65 2.65  61 2.65   5 2.69  56 2.69
                            23 2.75  40 2.78  36 2.91  71 3.11
  40  0.686  0.047  0.215-  46 2.52  69 2.55  55 2.59  23 2.70  71 2.71  41 2.74  39 2.78   1 2.79
                            70 2.86  32 2.87  56 2.93  79 2.99
  41  0.785  0.121  0.313-  70 2.55  79 2.58  40 2.74  13 2.77   8 2.78  21 2.80  22 2.80  26 2.82
                             2 2.83  23 2.84  77 2.87   1 2.87
  42  0.943  0.286  0.222-  49 2.49  72 2.55  70 2.65  26 2.67  79 2.67  73 2.68  77 2.70   4 2.70
                            50 2.78  36 2.81  37 2.88  61 3.01
  43  0.787  0.882  0.049-  55 2.41  69 2.50   7 2.54  44 2.64  24 2.70  66 2.72  45 2.88  67 2.95

  44  0.036  0.851  0.047-  45 2.41  69 2.53  64 2.55  28 2.59  43 2.64  75 2.68  59 3.07  27 3.11

  45  0.048  0.630  0.044-  44 2.41  75 2.46  64 2.49  25 2.58   7 2.59  54 2.82  43 2.88
  46  0.621  0.226  0.132-  70 2.50  62 2.51  57 2.51  40 2.52  24 2.53  66 2.58  76 2.58  71 2.59
                            49 2.65  69 2.81  63 2.90
  47  0.371  0.944  0.131-  59 2.38  52 2.40  39 2.49  67 2.54  61 2.56  35 2.62  80 2.62  60 2.68
                            73 2.76  55 2.77  28 2.79
  48  0.994  0.372  0.045-  72 2.33  78 2.48  74 2.51  25 2.53  27 2.54  73 2.62
  49  0.863  0.212  0.131-  78 2.43  42 2.49  66 2.56  70 2.57  27 2.59  79 2.61  72 2.63  69 2.64
                            46 2.65  57 2.68  28 2.84  73 2.86
  50  0.946  0.532  0.224-   3 2.60   4 2.61  33 2.62  72 2.64   7 2.65  37 2.75  25 2.75  56 2.78
                            42 2.78  36 2.84  32 2.87  68 2.92
  51  0.537  0.619  0.323-  18 2.60  80 2.64  19 2.65  65 2.67  31 2.68  37 2.69  77 2.69  22 2.70
[...]
   0.145E+02 -.249E+02 -.128E+04   -.148E+02 0.243E+02 0.128E+04   0.372E+00 0.515E+00 0.209E+01   -.654E-01 0.263E-01 0.295E-01
   -.419E+02 -.486E+00 -.135E+04   0.411E+02 0.112E+01 0.135E+04   0.692E+00 -.675E+00 0.164E+01   -.266E-01 0.288E-01 0.274E-01
   0.228E+00 -.807E+02 -.137E+04   -.808E+00 0.796E+02 0.137E+04   0.561E+00 0.121E+01 0.175E+01   -.124E-02 -.926E-01 -.442E-01
   0.525E+02 0.301E+01 -.140E+04   -.522E+02 -.307E+01 0.140E+04   -.274E+00 0.911E-01 0.161E+01   -.169E-02 -.232E-01 0.360E-02
   -.121E+03 -.443E+01 0.153E+04   0.120E+03 0.514E+01 -.154E+04   0.982E+00 -.720E+00 0.683E+00   -.129E+00 -.308E-02 0.130E+00
   0.735E+01 0.651E+01 -.265E+04   -.645E+01 -.636E+01 0.264E+04   -.855E+00 -.128E+00 0.179E+01   -.557E-01 -.187E-01 0.210E-01
   -.111E+02 0.887E+01 -.266E+04   0.108E+02 -.826E+01 0.266E+04   0.271E+00 -.656E+00 0.150E+01   -.373E-01 0.288E-01 0.857E-02
   0.400E+02 -.167E+02 -.268E+04   -.396E+02 0.162E+02 0.267E+04   -.370E+00 0.500E+00 0.225E+01   0.381E-01 -.313E-01 -.400E-01
   -.369E+02 -.636E+01 -.270E+04   0.368E+02 0.517E+01 0.270E+04   0.985E-01 0.112E+01 0.191E+01   -.499E-01 0.808E-01 -.175E-01
   0.587E+01 -.404E+02 -.271E+04   -.664E+01 0.404E+02 0.271E+04   0.762E+00 0.601E-01 0.223E+01   0.448E-01 -.738E-01 -.677E-01
   -.850E+01 0.450E+02 -.266E+04   0.812E+01 -.446E+02 0.266E+04   0.426E+00 -.464E+00 0.167E+01   -.258E-01 0.645E-01 0.141E-01
   0.220E+01 -.560E+01 -.269E+04   -.200E+01 0.563E+01 0.268E+04   -.240E+00 -.322E-01 0.164E+01   0.229E-01 0.144E-01 -.203E-01
   -.442E+02 -.334E+02 -.267E+04   0.441E+02 0.334E+02 0.267E+04   0.800E-01 0.701E-01 0.746E+00   -.192E-01 -.775E-01 -.165E-01
   -.372E+02 0.253E-01 -.265E+04   0.374E+02 -.267E+00 0.265E+04   -.110E+00 0.233E+00 0.693E+00   -.101E+00 0.148E-01 -.716E-02
   0.390E+01 -.302E+02 -.269E+04   -.355E+01 0.297E+02 0.269E+04   -.369E+00 0.597E+00 0.171E+01   0.554E-02 -.447E-01 -.175E-02
   0.580E+02 0.168E+02 -.269E+04   -.571E+02 -.165E+02 0.269E+04   -.106E+01 -.298E+00 0.203E+01   0.106E+00 -.758E-02 -.103E+00
   0.354E+02 0.260E+02 -.272E+04   -.346E+02 -.254E+02 0.272E+04   -.820E+00 -.673E+00 0.209E+01   0.452E-01 0.649E-01 -.485E-01
   0.740E+01 -.726E+01 -.266E+04   -.761E+01 0.710E+01 0.266E+04   0.232E+00 0.153E+00 0.139E+01   -.123E-01 -.202E-02 -.618E-03
   0.341E+01 0.153E+02 -.268E+04   -.340E+01 -.150E+02 0.267E+04   -.226E-01 -.246E+00 0.189E+01   0.114E-01 -.498E-02 0.127E-01
   0.469E+02 0.311E+01 -.143E+04   -.455E+02 -.245E+01 0.142E+04   -.137E+01 -.773E+00 0.139E+01   0.601E-01 0.749E-01 0.854E-02
   -.578E+01 0.151E+02 -.135E+04   0.557E+01 -.151E+02 0.135E+04   0.208E+00 0.693E-01 0.939E+00   -.298E-01 -.752E-01 -.889E-03
   0.821E+02 0.608E+02 0.270E+04   -.817E+02 -.609E+02 -.270E+04   -.308E+00 0.628E-01 -.265E+01   -.595E-01 0.433E-01 0.550E-01
   0.526E+02 -.338E+02 0.160E+04   -.532E+02 0.337E+02 -.160E+04   0.637E+00 0.165E+00 0.143E+01   0.157E-01 -.807E-01 0.326E-01
   -.135E+02 -.161E+02 -.136E+04   0.136E+02 0.158E+02 0.136E+04   -.696E-01 0.344E+00 0.184E+01   0.801E-01 -.204E-01 -.365E-01
   -.789E+02 0.857E+02 0.283E+04   0.795E+02 -.844E+02 -.283E+04   -.632E+00 -.135E+01 -.297E+01   0.597E-01 0.213E-01 0.806E-01
   -.149E+02 0.275E+02 0.149E+04   0.145E+02 -.274E+02 -.149E+04   0.315E+00 -.851E-01 -.315E+00   0.115E+00 0.641E-01 0.128E+00
   0.125E+02 0.625E+01 -.269E+04   -.130E+02 -.612E+01 0.269E+04   0.445E+00 -.147E+00 0.187E+01   0.358E-01 0.186E-01 -.783E-02
   0.102E+02 -.782E+02 0.746E+01   -.994E+01 0.774E+02 -.813E+01   -.396E+00 0.633E+00 0.544E+00   0.714E-01 0.687E-01 0.101E+00
   -.310E+02 0.132E+02 -.272E+04   0.292E+02 -.138E+02 0.272E+04   0.180E+01 0.742E+00 0.194E+01   0.860E-02 -.192E-01 -.856E-01
   0.265E+02 0.301E+02 0.962E+02   -.270E+02 -.309E+02 -.965E+02   0.652E+00 0.827E+00 0.225E+00   -.751E-01 -.788E-02 0.739E-01
   -.827E+02 0.199E+02 -.137E+04   0.819E+02 -.197E+02 0.137E+04   0.960E+00 -.374E+00 0.225E+01   -.116E+00 0.782E-01 0.320E-01
   0.460E+02 -.157E+02 -.137E+04   -.451E+02 0.162E+02 0.137E+04   -.106E+01 -.601E+00 0.138E+01   0.119E+00 0.434E-01 -.110E-02
   0.407E+02 -.785E+02 0.159E+04   -.394E+02 0.784E+02 -.159E+04   -.137E+01 -.106E-01 0.134E+01   0.603E-01 0.521E-01 0.187E+00
   0.408E+02 -.303E+02 0.265E+01   -.411E+02 0.304E+02 -.317E+01   0.394E+00 0.113E-01 0.574E+00   -.254E-01 -.813E-01 -.140E-01
   -.523E+02 -.790E+01 0.525E+01   0.527E+02 0.898E+01 -.606E+01   -.332E+00 -.126E+01 0.726E+00   -.194E-01 0.140E+00 0.804E-01
   0.509E+02 -.349E+01 0.276E+02   -.502E+02 0.465E+01 -.274E+02   -.903E+00 -.117E+01 -.292E+00   0.130E+00 0.189E-01 0.837E-01
   -.315E+02 -.560E+02 0.873E+02   0.307E+02 0.546E+02 -.888E+02   0.102E+01 0.160E+01 0.154E+01   -.457E-01 -.108E+00 0.455E-01
   0.155E+02 0.803E+02 0.137E+03   -.158E+02 -.794E+02 -.139E+03   0.396E+00 -.952E+00 0.166E+01   -.795E-01 -.430E-01 0.521E-01
   0.198E+02 0.724E+02 -.134E+04   -.194E+02 -.721E+02 0.134E+04   -.263E+00 -.305E+00 0.151E+01   -.369E-01 0.177E-01 0.230E-01
   -.107E+03 0.183E+01 0.270E+02   0.106E+03 -.198E+01 -.282E+02   0.918E+00 0.545E-01 0.129E+01   0.315E-01 0.374E-02 -.923E-02
   -.573E+00 0.746E+02 0.220E+04   0.183E+01 -.741E+02 -.220E+04   -.121E+01 -.479E+00 -.364E+01   -.798E-01 0.995E-02 0.518E-01
   -.188E+02 -.163E+02 0.222E+04   0.171E+02 0.144E+02 -.222E+04   0.176E+01 0.197E+01 -.303E+01   0.255E-01 0.167E-01 0.346E-01
   0.122E+03 0.273E+02 0.225E+04   -.120E+03 -.260E+02 -.224E+04   -.205E+01 -.133E+01 -.395E+01   -.183E-01 -.943E-01 0.336E-01
   0.423E+02 0.107E+03 0.113E+04   -.417E+02 -.107E+03 -.112E+04   -.598E+00 -.265E+00 -.655E+00   -.353E-01 0.425E-02 0.493E-01
   0.884E+01 -.399E+02 0.114E+04   -.869E+01 0.397E+02 -.114E+04   -.215E+00 0.155E+00 -.538E+00   0.207E-01 -.866E-02 0.127E+00
   -.212E+03 0.614E+01 0.225E+04   0.209E+03 -.633E+01 -.224E+04   0.269E+01 0.169E+00 -.347E+01   0.410E-01 -.233E-01 0.751E-01
   -.618E+02 0.687E+02 0.113E+04   0.615E+02 -.677E+02 -.113E+04   0.336E+00 -.107E+01 -.686E+00   0.486E-01 0.139E-01 0.683E-01
   -.530E+02 -.123E+02 0.326E+02   0.525E+02 0.122E+02 -.321E+02   0.520E+00 0.281E-01 -.654E+00   -.645E-01 0.290E-01 0.309E-01
   0.213E+02 0.580E+01 -.113E+04   -.213E+02 -.602E+01 0.113E+04   -.569E-01 0.988E-01 -.179E+00   0.442E-01 0.605E-01 -.385E-02
   -.290E+02 -.104E+03 0.220E+04   0.283E+02 0.102E+03 -.220E+04   0.702E+00 0.261E+01 -.315E+01   0.714E-02 0.276E-01 0.741E-01
   0.105E+03 -.140E+03 0.252E+04   -.104E+03 0.139E+03 -.252E+04   -.127E+01 0.105E+01 -.308E+01   0.359E-01 0.581E-01 0.105E+00
   0.201E+03 0.810E+02 0.252E+04   -.200E+03 -.796E+02 -.252E+04   -.116E+01 -.139E+01 -.299E+01   -.948E-02 -.487E-01 0.453E-01
   -.503E+02 -.578E+02 0.131E+04   0.502E+02 0.573E+02 -.131E+04   0.217E+00 0.647E+00 -.558E+00   -.881E-01 -.626E-01 0.133E+00
   -.996E+02 -.210E+01 0.354E+02   0.995E+02 0.190E+01 -.356E+02   0.240E+00 0.240E+00 0.175E+00   -.110E+00 -.678E-02 0.461E-01
   -.215E+01 -.464E+02 0.122E+04   0.232E+01 0.458E+02 -.122E+04   -.209E+00 0.783E+00 -.439E+00   0.166E-01 0.137E-01 0.160E+00
   0.533E+02 0.412E+01 -.125E+04   -.531E+02 -.406E+01 0.125E+04   -.358E+00 0.214E-01 0.371E+00   0.104E+00 -.533E-01 -.507E-01
   0.708E+02 0.478E+02 0.255E+04   -.702E+02 -.460E+02 -.254E+04   -.727E+00 -.187E+01 -.407E+01   0.457E-01 0.459E-01 0.654E-01
   -.650E+01 -.358E+02 0.127E+04   0.665E+01 0.361E+02 -.127E+04   -.236E+00 -.373E+00 -.415E+00   0.396E-01 0.608E-01 0.197E+00
[...]
   0.125E+03 -.510E+02 0.292E+02   -.124E+03 0.503E+02 -.287E+02   -.538E-01 0.785E+00 -.665E+00   0.327E-01 -.177E-01 0.224E-01
   0.401E+02 0.113E+03 0.157E+04   -.399E+02 -.113E+03 -.157E+04   -.269E+00 -.696E+00 -.132E+01   -.396E-01 0.443E-01 0.117E+00
   -.144E+02 0.417E+02 -.203E+02   0.150E+02 -.421E+02 0.202E+02   -.602E+00 0.475E+00 -.205E-01   0.577E-02 0.610E-01 0.553E-01
   0.505E+02 0.747E+02 -.329E+02   -.501E+02 -.741E+02 0.329E+02   -.500E+00 -.655E+00 -.706E-01   -.988E-02 -.586E-02 0.172E-01
   -.149E+03 -.708E+01 0.134E+04   0.149E+03 0.697E+01 -.134E+04   0.756E+00 0.136E+00 -.922E+00   0.108E-01 0.239E-01 0.118E+00
   -.218E+02 -.114E+02 0.146E+04   0.222E+02 0.112E+02 -.146E+04   -.485E+00 0.255E+00 -.738E+00   0.191E-01 -.206E-01 0.102E+00
   -.204E+03 -.116E+03 0.285E+04   0.204E+03 0.114E+03 -.285E+04   0.518E+00 0.135E+01 -.258E+01   0.524E-01 0.430E-01 0.117E+00
   -.195E+02 -.126E+03 0.282E+04   0.175E+02 0.126E+03 -.282E+04   0.202E+01 0.263E+00 -.164E+01   -.121E-01 -.110E+00 0.561E-01
   0.626E+02 -.391E+02 0.140E+04   -.617E+02 0.389E+02 -.140E+04   -.855E+00 0.304E+00 -.552E+00   -.467E-01 -.437E-01 0.414E-01
   -.535E+02 0.164E+02 -.140E+04   0.532E+02 -.162E+02 0.140E+04   0.350E+00 -.378E+00 -.170E-01   -.277E-01 0.127E+00 0.322E-01
   -.598E+02 0.502E+02 0.281E+04   0.601E+02 -.495E+02 -.281E+04   -.319E+00 -.623E+00 -.130E+01   0.524E-01 -.551E-01 0.809E-01
   -.115E+02 0.589E+02 0.184E+02   0.117E+02 -.585E+02 -.182E+02   -.359E+00 -.408E+00 -.325E+00   0.604E-01 0.122E-01 0.292E-01
   0.354E+02 0.541E+01 0.622E+01   -.352E+02 -.518E+01 -.619E+01   -.309E+00 -.300E+00 -.274E+00   0.686E-01 -.340E-02 0.993E-01
   -.686E+00 0.121E+01 -.315E+03   0.439E+00 -.139E+01 0.317E+03   0.286E+00 0.206E+00 -.139E+01   -.440E-02 -.297E-02 -.882E-02
   -.176E+01 -.240E+00 0.128E+01   0.733E-13 -.203E-12 -.193E-11   0.174E+01 0.320E+00 -.452E+01   0.118E-01 -.481E-01 0.322E+01

 POSITION                                       TOTAL-FORCE (eV/Angst)
     13.58037      8.45051      6.94214         0.004315      0.006023      0.003940
      5.27816      8.45120      6.92581         0.005833     -0.012379      0.003757
      3.85857      5.99152      6.88133         0.007655     -0.002868      0.011278
      2.39269      3.61035      7.00766        -0.002520     -0.004832     -0.004108
      3.85043      1.03189      7.00450        -0.013910      0.000609      0.006282
      5.27873      3.56919      6.98116         0.002159     -0.000094     -0.006261
     13.51950      6.69208      2.75694        -0.026917     -0.013509      0.008289
     15.13390      9.26807      9.16307        -0.005696     -0.002233     -0.013705
      3.85283      4.41848      9.22932         0.000347     -0.008338     -0.003729
      6.70316      9.19884      9.17412         0.001449     -0.004988      0.006872
     12.27074      4.32449      9.25288         0.006190      0.000977     -0.008968
      9.44144      9.20466      9.20792         0.022324      0.002810     -0.011741
     10.85551      1.99028      9.14086         0.001812     -0.004952      0.004762
      2.47784      1.94949      9.24426        -0.016799      0.003366      0.007177
     12.25476      9.27223      9.22360        -0.018301     -0.036572      0.006653
     13.72703      6.79688      9.25064        -0.000670      0.007605      0.015882
      5.27048      1.92361      9.23830        -0.009304     -0.003045     -0.004432
      8.12563      6.82568      9.19323        -0.006187      0.000442      0.008081
      9.52787      4.42342      9.22564         0.000199      0.014991     -0.010044
      5.25485      6.81051      9.21023         0.011706     -0.003539     -0.009078
      8.08385      1.97418      9.17650         0.013543      0.026713     -0.003962
      8.17556      3.64682      6.98775         0.012728     -0.014177     -0.004675
      6.64097      1.17348      6.95708         0.005282      0.018905     -0.008455
      6.78185      1.16816      1.10976        -0.016018      0.008091     -0.009987
      3.74327      4.26289      2.71491         0.015929      0.004504      0.014815
      1.07891      1.11098      6.95292        -0.000305     -0.006994      0.001365
      1.01575      1.28649      0.81183         0.000539     -0.006868      0.017442
      6.67142      9.31568      2.85544         0.007649      0.015162     -0.014124
      6.65755      4.39954      9.22386        -0.003672      0.005041      0.008073
      8.14285      5.24496      4.86976        -0.009618     -0.008406     -0.024424
     10.81581      6.79406      9.27290         0.017406      0.008255     -0.010667
     14.99686      7.68362      4.79411        -0.057797      0.003749      0.015223
     12.23085      6.05692      7.01150         0.012893      0.010119     -0.000650
      6.72184      6.02784      6.98488         0.004354      0.006284      0.014965
      8.20780      6.89173      2.69128        -0.003050      0.002281     -0.014162
      3.77766      2.69345      4.90572        -0.014661      0.009659     -0.012068
     10.86552      5.33036      4.88657         0.019055      0.020857     -0.002038
      6.80891      7.69639      4.91949         0.007091      0.005945      0.002324
      5.20720      0.16029      4.85410         0.005345     -0.019700      0.005471
      7.96508      0.45571      4.72390         0.011749     -0.042325     -0.012817
      9.47560      1.17503      6.88758        -0.000688      0.010545     -0.009742
     12.19222      2.77766      4.87496         0.002722     -0.023467      0.007125
     13.78001      8.57392      1.07376         0.005023     -0.016062     -0.014408
      5.17612      8.26819      1.02395         0.013218      0.006242     -0.004004
      4.07688      6.12594      0.96722         0.011831      0.006470      0.009722
      8.23477      2.19285      2.91186        -0.006140     -0.006005      0.017840
      9.46232      9.17873      2.88867        -0.010873      0.000346     -0.015496
     13.23829      3.61532      0.98546         0.007153     -0.005480      0.005419
     10.87798      2.06279      2.87872        -0.004944     -0.004105     -0.002011
     13.60649      5.17210      4.92826        -0.016388      0.023352      0.018253
      9.48501      6.01360      7.09926         0.002261      0.003908     -0.001467
      3.91652      1.06390      1.10530         0.011203     -0.002050      0.038735
      9.69052      5.79723      1.02825        -0.018617     -0.006619     -0.003636
      5.55996      3.72993      1.09992        -0.006561     -0.032463     -0.007366
     12.22782      8.97667      2.86865        -0.008848     -0.004804      0.012794
     12.22062      7.58099      4.89646        -0.006316     -0.001146      0.043859
      9.50033      4.35926      2.89266         0.005614      0.005822      0.003170
      8.10858      8.42591      7.03213        -0.012955     -0.006878      0.006771
      8.20297      8.78072      0.90411         0.016656      0.012051      0.002813
     10.87946      6.90186      2.86164        -0.025351      0.000030     -0.003662
[...]
     10.84088      8.41789      0.89812        -0.021181      0.013783     -0.001391
      5.29878      5.08233      4.87221         0.004765     -0.006618     -0.037593
     15.21969      9.46320      2.91158         0.010619      0.002898      0.002044
      9.54798      2.83243      4.93973        -0.003394     -0.007683     -0.000348
      6.74099      2.86414      4.91726         0.004087      0.026478     -0.035074
     12.12718      4.37157      2.88927         0.006653      0.000192     -0.007030
      2.50652      1.86558      2.87455        -0.002559      0.008434     -0.010904
     12.02738      5.81407      0.92547        -0.020987     -0.003236      0.006092
      6.52756      5.95530      1.01982        -0.011079     -0.035318      0.007787
      6.84854      4.37406      2.90086        -0.013498     -0.015877     -0.005218
     10.85189      3.70269      7.03038        -0.001739     -0.004482     -0.002692
     10.75754      3.55271      0.95995        -0.000750      0.001788     -0.003669
     10.94499      0.41654      4.90182         0.023191      0.026175     -0.011043
      9.50574      7.61774      4.99769         0.010485      0.004657      0.022714
     12.39642      7.69776     10.08505         0.033464      0.022483      0.018167
    total drift:                               -0.004654      0.032166     -0.011159

  FREE ENERGIE OF THE ION-ELECTRON SYSTEM (eV)
  free  energy   TOTEN  =      -507.93824367 eV

  energy  without entropy=     -507.94434184  energy(sigma->0) =     -507.94027639

 d Force = 0.1801264E-02[ 0.908E-03, 0.269E-02]  d Energy = 0.1814941E-02-0.137E-04
 d Force =-0.4693191E+02[-0.469E+02,-0.469E+02]  d Ewald  =-0.4693194E+02 0.243E-04

 Conjugate gradient step on ions:
 trial-energy change:   -0.001815  1 .order   -0.001801   -0.002695   -0.000908
  (g-gl).g = 0.119E-02      g.g   = 0.126E-02  gl.gl    = 0.323E-02
 g(Force)  = 0.126E-02   g(Stress)= 0.000E+00 ortho     = 0.994E-05
 gamma     =   0.36919
 trial     =   2.13317
 opt step  =   3.21692  (harmonic =   3.21692) maximal distance =0.01751386
 next E    =  -507.938461   (d E  =  -0.00203)

 reached required accuracy - stopping structural energy minimisation