 vasp.5.4.4.18Apr17-6-g9f103f2a35 (build Nov 30 2020 22:55:02) complex

 executed on             LinuxIFC date 2021.10.12  11:06:11

 INCAR:
 POTCAR:    PAW_PBE Pt 04Feb2005
 POTCAR:    PAW_PBE Fe 06Sep2000
 POTCAR:    PAW_PBE Co 02Aug2007
 POTCAR:    PAW_PBE Cu 22Jun2005
 POTCAR:    PAW_PBE Ni 02Aug2007
 POTCAR:    PAW_PBE Pt 04Feb2005
   VRHFIN =Pt: s1d9

   TITEL  = PAW_PBE Pt 04Feb2005
   POMASS =  195.080; ZVAL   =   10.000    mass and valenz
   ENMAX  =  230.283; ENMIN  =  172.712 eV

 POTCAR:    PAW_PBE Fe 06Sep2000
   VRHFIN =Fe:  d7 s1

   TITEL  = PAW_PBE Fe 06Sep2000
   POMASS =   55.847; ZVAL   =    8.000    mass and valenz
   ENMAX  =  267.882; ENMIN  =  200.911 eV

 POTCAR:    PAW_PBE Co 02Aug2007
   VRHFIN =Co: d8 s1

   TITEL  = PAW_PBE Co 02Aug2007
   POMASS =   58.933; ZVAL   =    9.000    mass and valenz
   ENMAX  =  267.968; ENMIN  =  200.976 eV

 POTCAR:    PAW_PBE Cu 22Jun2005
   VRHFIN =Cu: d10 p1

   TITEL  = PAW_PBE Cu 22Jun2005
   POMASS =   63.546; ZVAL   =   11.000    mass and valenz
   ENMAX  =  295.446; ENMIN  =  221.585 eV

 POTCAR:    PAW_PBE Ni 02Aug2007
   VRHFIN =Ni:

   TITEL  = PAW_PBE Ni 02Aug2007
   POMASS =   58.690; ZVAL   =   10.000    mass and valenz
   ENMAX  =  269.532; ENMIN  =  202.149 eV

 Optimization of the real space projectors (new method)

 maximal supplied QI-value         = 14.36
 optimisation between [QCUT,QGAM] = [ 11.92, 23.98] = [ 39.79,161.09] Ry
 Optimized for a Real-space Cutoff    1.49 Angstroem

   l    n(q)    QCUT    max X(q) W(low)/X(q) W(high)/X(q)  e(spline)
   2     10    11.920    66.195    0.79E-04    0.18E-03    0.24E-06
   2     10    11.920    64.643    0.81E-04    0.19E-03    0.24E-06
   0     11    11.920    95.520    0.28E-04    0.54E-04    0.18E-06
   0     11    11.920    63.403    0.27E-04    0.52E-04    0.17E-06
   1     10    11.920    19.961    0.18E-04    0.11E-03    0.23E-06
   1     10    11.920    13.289    0.25E-04    0.87E-04    0.19E-06
 Optimization of the real space projectors (new method)

[...]

   l    n(q)    QCUT    max X(q) W(low)/X(q) W(high)/X(q)  e(spline)
   2     10    11.864     4.610    0.10E-03    0.20E-03    0.29E-06
   2     10    11.864     8.522    0.17E-03    0.33E-03    0.50E-06
   0     11    11.864    51.609    0.52E-04    0.55E-04    0.33E-06
   0     11    11.864    27.747    0.46E-04    0.52E-04    0.31E-06
   1     10    11.864    20.408    0.54E-04    0.25E-04    0.21E-06
   1     10    11.864    13.425    0.48E-04    0.22E-04    0.18E-06
 Optimization of the real space projectors (new method)

 maximal supplied QI-value         = 16.25
 optimisation between [QCUT,QGAM] = [ 11.86, 23.89] = [ 39.41,159.82] Ry
 Optimized for a Real-space Cutoff    1.33 Angstroem

   l    n(q)    QCUT    max X(q) W(low)/X(q) W(high)/X(q)  e(spline)
   2      9    11.864    60.317    0.21E-03    0.51E-03    0.25E-06
   2      9    11.864    55.921    0.21E-03    0.51E-03    0.26E-06
   0      9    11.864    51.690    0.22E-03    0.30E-04    0.17E-06
   0      9    11.864    30.015    0.20E-03    0.28E-04    0.15E-06
   1      9    11.864    18.849    0.76E-04    0.33E-03    0.17E-06
   1      9    11.864    14.624    0.60E-04    0.28E-03    0.15E-06
  PAW_PBE Pt 04Feb2005                  :
  PAW_PBE Fe 06Sep2000                  :
  PAW_PBE Co 02Aug2007                  :
  PAW_PBE Cu 22Jun2005                  :
  PAW_PBE Ni 02Aug2007                  :

 POSCAR: 11.06
  positions in direct lattice
  velocities in cartesian coordinates
 exchange correlation table for  LEXCH =        8
   RHO(1)=    0.500       N(1)  =     2000
   RHO(2)=  100.500       N(2)  =     4000

 ion  position               nearest neighbor table
   1  0.787  0.880  0.311-  49 2.56  59 2.61  28 2.65  11 2.76  19 2.76  61 2.77   4 2.77  33 2.78
                            29 2.78  60 2.79  12 2.84   2 2.84
   2  0.043  0.881  0.306-  79 2.53  77 2.58  28 2.71  30 2.74  33 2.76  60 2.76   6 2.78  52 2.79
                             4 2.82   1 2.84  22 2.84  16 2.90
   3  0.280  0.378  0.315-  64 2.55  68 2.66  31 2.66  39 2.67  33 2.74   5 2.74  13 2.77  25 2.80
                            19 2.80  43 2.81  30 2.84  18 2.96
   4  0.876  0.964  0.412-  60 2.70   9 2.72  17 2.74   6 2.74  16 2.76   1 2.77  12 2.79  11 2.79
                             2 2.82
   5  0.117  0.467  0.417-  39 2.65  33 2.70  12 2.71   7 2.72  16 2.74   3 2.74  10 2.75  25 2.80
                            13 2.88
   6  0.126  0.959  0.412-  52 2.65   8 2.74   4 2.74  14 2.76  16 2.76  22 2.78   2 2.78   9 2.79
                            10 2.82
   7  0.877  0.456  0.418-  39 2.63  75 2.65   5 2.72  15 2.73   9 2.74  10 2.74  29 2.75  27 2.81
                            12 2.83
   8  0.374  0.959  0.414-  43 2.57  52 2.63  61 2.68  14 2.72   6 2.74  13 2.75  27 2.75  10 2.76
                            11 2.78
   9  0.874  0.211  0.412-  75 2.64  60 2.67   4 2.72   7 2.74  17 2.75  15 2.75  22 2.77   6 2.79
                            10 2.82
  10  0.128  0.213  0.415-  39 2.64  43 2.68  13 2.72  22 2.73   7 2.74   5 2.75   8 2.76   6 2.82
                             9 2.82
  11  0.626  0.958  0.414-  61 2.71  12 2.73  13 2.74   1 2.76  27 2.76  17 2.77   8 2.78  19 2.79
                             4 2.79
  12  0.874  0.713  0.417-  33 2.70   5 2.71  29 2.71  11 2.73  16 2.74   4 2.79  27 2.79   7 2.83
                             1 2.84
  13  0.377  0.206  0.416-  43 2.68  10 2.72  11 2.74   8 2.75  19 2.76  17 2.77   3 2.77  25 2.79
                             5 2.88
  14  0.377  0.712  0.415-  44 2.62  52 2.65  27 2.71   8 2.72   6 2.76  30 2.76  15 2.76  25 2.80
                            16 2.82
  15  0.627  0.462  0.416-  44 2.63  75 2.65  27 2.72  18 2.73   7 2.73   9 2.75  14 2.76  17 2.81
                            25 2.82
  16  0.123  0.711  0.416-  33 2.63   5 2.74  30 2.74  12 2.74   6 2.76   4 2.76  25 2.77  14 2.82
                             2 2.90
  17  0.626  0.209  0.414-  18 2.71  60 2.73   4 2.74   9 2.75  13 2.77  11 2.77  25 2.79  15 2.81
                            19 2.81
  18  0.548  0.377  0.315-  67 2.54  68 2.61  26 2.67  17 2.71  15 2.73  44 2.73  60 2.73  75 2.75
                            25 2.80  30 2.83  19 2.86   3 2.96
  19  0.534  0.126  0.311-  80 2.53  68 2.56  59 2.57  43 2.65   1 2.76  13 2.76  61 2.78  11 2.79
                             3 2.80  17 2.81  18 2.86  60 2.88
  20  0.552  0.124  0.052-  37 2.54  57 2.54  48 2.56  62 2.67  63 2.77  47 2.79  34 2.81  56 2.83
                            45 2.95
  21  0.117  0.448  0.127-  47 2.51  36 2.52  40 2.52  42 2.62  70 2.69  69 2.70  64 2.70  31 2.74
                            50 2.78  57 2.79  74 3.04  58 3.09
  22  0.048  0.135  0.311-  65 2.53  77 2.54  55 2.56  43 2.69  39 2.70  10 2.73   9 2.77   6 2.78
                            75 2.81  52 2.83   2 2.84  60 2.85  31 3.34
  23  0.032  0.132  0.039-  70 2.56  41 2.58  40 2.58  62 2.69  76 2.70  24 2.71  45 2.77  35 2.89
                            53 2.93
  24  0.132  0.957  0.136-  79 2.51  35 2.56  77 2.57  53 2.57  55 2.59  70 2.65  58 2.68  23 2.71
                            73 2.74  38 2.74  66 2.81  41 2.91
  25  0.373  0.460  0.417-  16 2.77  30 2.78  13 2.79  17 2.79   5 2.80  18 2.80   3 2.80  14 2.80
                            15 2.82
  26  0.458  0.551  0.220-  74 2.50  73 2.52  51 2.55  79 2.63  30 2.64  18 2.67  44 2.69  32 2.73
                            78 2.74  68 2.81  67 2.84  64 2.85
  27  0.623  0.711  0.416-  44 2.64  61 2.68  14 2.71  15 2.72   8 2.75  11 2.76  29 2.77  12 2.79
                             7 2.81
  28  0.955  0.779  0.215-  58 2.56  50 2.56  66 2.61   1 2.65  42 2.65  33 2.67  49 2.68   2 2.71
                            64 2.75  59 2.94  77 3.16  79 3.16
  29  0.800  0.623  0.317-  42 2.55  32 2.63  39 2.63  49 2.64  75 2.67  12 2.71  33 2.73   7 2.75
                            27 2.77   1 2.78  61 2.80  44 2.83
  30  0.288  0.630  0.314-  79 2.53  64 2.63  26 2.64  33 2.72  16 2.74   2 2.74  52 2.76  14 2.76
                            25 2.78  44 2.79  18 2.83   3 2.84
  31  0.197  0.274  0.226-  70 2.49  43 2.57  57 2.57  55 2.61  65 2.63  39 2.63   3 2.66  21 2.74
                            42 2.80  80 2.84  64 2.96  68 3.01  22 3.34
  32  0.704  0.554  0.222-  54 2.55  69 2.55  51 2.59  29 2.63  49 2.63  44 2.66  78 2.67  75 2.68
                            65 2.72  42 2.73  26 2.73  67 2.77
  33  0.041  0.633  0.318-  16 2.63  28 2.67  64 2.67  42 2.70  12 2.70   5 2.70  30 2.72  29 2.73
                             3 2.74   2 2.76   1 2.78  39 2.79
  34  0.794  0.860  0.055-  50 2.37  48 2.43  66 2.54  36 2.60  63 2.69  71 2.72  20 2.81  35 2.85

  35  0.050  0.863  0.048-  36 2.43  58 2.54  24 2.56  66 2.58  72 2.69  34 2.85  23 2.89  53 2.90
                            62 2.92
  36  0.046  0.646  0.053-  35 2.43  21 2.52  58 2.52  50 2.58  34 2.60  72 2.68  47 2.90  71 3.06

  37  0.627  0.234  0.134-  67 2.50  56 2.50  51 2.50  20 2.54  59 2.54  74 2.55  68 2.55  62 2.57
                            41 2.59  66 2.76
  38  0.383  0.952  0.134-  45 2.42  53 2.43  80 2.46  55 2.52  78 2.52  63 2.54  73 2.58  54 2.59
                            48 2.62  24 2.74  57 2.75  70 2.83
  39  0.035  0.384  0.321-  42 2.60  31 2.63  29 2.63   7 2.63  10 2.64   5 2.65   3 2.67  75 2.68
                            65 2.68  22 2.70  33 2.79  43 2.96
  40  0.009  0.376  0.044-  69 2.35  76 2.47  21 2.52  23 2.58  70 2.59  71 2.60  45 3.03
  41  0.868  0.220  0.132-  76 2.44  77 2.46  67 2.52  65 2.54  62 2.56  23 2.58  37 2.59  69 2.60
                            51 2.66  66 2.68  70 2.71  24 2.91
  42  0.958  0.538  0.223-  50 2.48  29 2.55  39 2.60  21 2.62  69 2.62  28 2.65  65 2.66  33 2.70
                            32 2.73  64 2.76  49 2.77  31 2.80
  43  0.301  0.114  0.319-  55 2.52   8 2.57  31 2.57  80 2.58  19 2.65  52 2.67  13 2.68  10 2.68
                            61 2.68  22 2.69   3 2.81  39 2.96
  44  0.542  0.626  0.320-  78 2.62  14 2.62  15 2.63  27 2.64  32 2.66  26 2.69  61 2.71  75 2.71
                            52 2.72  18 2.73  30 2.79  29 2.83
  45  0.291  0.112  0.049-  38 2.42  70 2.44  53 2.53  57 2.59  63 2.71  23 2.77  20 2.95  40 3.03
                            47 3.10
  46  0.550  0.626  0.049-  54 2.38  51 2.39  73 2.40  71 2.55  76 2.70  56 2.73  53 2.75  63 2.76
                            72 2.80
  47  0.309  0.384  0.051-  74 2.30  21 2.51  56 2.59  57 2.60  72 2.60  20 2.79  36 2.90  45 3.10

  48  0.625  0.943  0.137-  49 2.35  34 2.43  80 2.48  54 2.52  63 2.52  20 2.56  59 2.58  38 2.62
                            50 2.70  57 2.82  66 2.91
  49  0.707  0.789  0.221-  48 2.35  50 2.43  54 2.50   1 2.56  32 2.63  61 2.63  29 2.64  80 2.66
                            78 2.67  28 2.68  42 2.77  59 2.93
  50  0.857  0.689  0.133-  71 2.36  34 2.37  49 2.43  42 2.48  54 2.49  69 2.53  28 2.56  36 2.58
                            48 2.70  21 2.78
  51  0.628  0.460  0.130-  46 2.39  76 2.43  37 2.50  56 2.51  26 2.55  32 2.59  67 2.62  69 2.64
                            41 2.66  74 2.68  73 2.76  54 2.82
  52  0.299  0.874  0.317-  55 2.42  79 2.45  78 2.55   8 2.63  14 2.65   6 2.65  43 2.67  61 2.68
[...]
     0.000000000  0.000000000 22.000000000     0.000000000  0.000000000  0.045454545

  length of vectors
    11.060000420 11.060000420 22.000000000     0.104403300  0.104403300  0.045454545

 FORCES acting on ions
    electron-ion (+dipol)            ewald-force                    non-local-force                 convergence-correction
   -.603E+02 0.697E+02 -.137E+04   0.600E+02 -.699E+02 0.137E+04   0.330E+00 0.156E+00 0.214E+01   0.517E-03 -.107E-03 0.341E-03
   0.453E+02 0.591E+02 -.131E+04   -.448E+02 -.594E+02 0.130E+04   -.497E+00 0.299E+00 0.245E+01   0.632E-03 -.769E-04 0.397E-03
   0.404E+02 -.155E+02 -.144E+04   -.420E+02 0.156E+02 0.144E+04   0.159E+01 -.129E+00 0.191E+01   -.249E-03 -.376E-04 0.116E-03
   -.714E+01 0.424E+02 -.276E+04   0.754E+01 -.419E+02 0.276E+04   -.373E+00 -.456E+00 0.144E+01   0.595E-03 0.308E-04 -.325E-03
   -.281E+02 0.610E+01 -.277E+04   0.272E+02 -.532E+01 0.276E+04   0.887E+00 -.772E+00 0.218E+01   0.587E-04 -.254E-03 -.400E-03
   0.229E+02 -.172E+01 -.276E+04   -.228E+02 0.121E+01 0.276E+04   -.164E+00 0.482E+00 0.186E+01   0.114E-03 0.487E-04 -.590E-03
   -.302E+02 -.109E+02 -.283E+04   0.303E+02 0.992E+01 0.283E+04   -.120E+00 0.991E+00 0.224E+01   0.198E-05 -.425E-03 -.773E-03
   0.158E+02 -.271E+02 -.282E+04   -.163E+02 0.274E+02 0.282E+04   0.564E+00 -.282E+00 0.261E+01   -.634E-03 0.277E-03 -.495E-03
   -.269E+02 0.309E+02 -.280E+04   0.265E+02 -.306E+02 0.280E+04   0.392E+00 -.262E+00 0.189E+01   0.398E-03 0.105E-03 -.760E-03
   -.451E+01 0.244E+01 -.277E+04   0.522E+01 -.205E+01 0.277E+04   -.648E+00 -.371E+00 0.248E+01   -.887E-04 -.326E-04 -.737E-03
   -.294E+02 -.121E+02 -.280E+04   0.296E+02 0.116E+02 0.280E+04   -.214E+00 0.474E+00 0.156E+01   -.585E-04 0.103E-03 -.161E-03
   -.264E+02 -.596E+01 -.277E+04   0.266E+02 0.577E+01 0.277E+04   -.119E+00 0.215E+00 0.195E+01   0.219E-03 -.351E-03 -.253E-03
   0.764E-01 -.396E+02 -.279E+04   -.284E+00 0.389E+02 0.278E+04   0.215E+00 0.755E+00 0.186E+01   -.454E-03 0.354E-03 -.473E-03
   0.470E+02 0.200E+02 -.280E+04   -.462E+02 -.197E+02 0.279E+04   -.880E+00 -.327E+00 0.225E+01   -.404E-03 0.212E-03 -.423E-03
   0.406E+02 -.222E+00 -.282E+04   -.399E+02 0.797E+00 0.282E+04   -.629E+00 -.549E+00 0.225E+01   0.183E-03 -.184E-03 -.670E-03
   0.410E+00 -.686E+01 -.276E+04   -.788E+00 0.622E+01 0.276E+04   0.378E+00 0.641E+00 0.184E+01   0.340E-03 0.765E-05 -.326E-03
   0.300E+02 -.690E+01 -.280E+04   -.299E+02 0.709E+01 0.280E+04   -.720E-01 -.198E+00 0.193E+01   0.157E-03 0.300E-03 -.373E-03
   0.781E+02 -.544E+02 -.147E+04   -.768E+02 0.547E+02 0.147E+04   -.119E+01 -.224E+00 0.152E+01   0.220E-03 0.155E-03 0.125E-03
   0.191E+02 -.382E+02 -.142E+04   -.202E+02 0.379E+02 0.142E+04   0.111E+01 0.358E+00 0.240E+01   -.968E-04 0.694E-03 0.511E-03
   0.595E+02 0.338E+02 0.281E+04   -.592E+02 -.339E+02 -.281E+04   -.351E+00 0.109E+00 -.281E+01   -.561E-04 0.113E-03 -.721E-03
   -.139E+02 -.316E+02 0.164E+04   0.128E+02 0.322E+02 -.164E+04   0.120E+01 -.470E+00 0.130E+01   0.132E-03 -.915E-03 -.698E-04
   -.518E+02 0.206E+02 -.141E+04   0.527E+02 -.201E+02 0.141E+04   -.822E+00 -.436E+00 0.233E+01   0.477E-03 0.223E-03 0.214E-03
   -.708E+02 0.943E+02 0.293E+04   0.714E+02 -.927E+02 -.293E+04   -.490E+00 -.166E+01 -.269E+01   0.255E-03 0.647E-03 0.104E-03
   0.403E+02 -.476E+02 0.151E+04   -.400E+02 0.470E+02 -.151E+04   -.327E+00 0.605E+00 -.709E+00   0.349E-03 0.702E-03 0.264E-03
   0.157E+02 -.508E-01 -.278E+04   -.160E+02 -.509E-02 0.278E+04   0.303E+00 0.470E-01 0.181E+01   -.217E-03 0.163E-03 -.455E-03
   0.117E+02 0.112E+02 -.108E+02   -.116E+02 -.109E+02 0.992E+01   -.193E+00 -.398E+00 0.889E+00   -.333E-03 -.240E-03 0.620E-03
   -.214E+02 0.127E+02 -.282E+04   0.208E+02 -.128E+02 0.282E+04   0.604E+00 0.462E-01 0.217E+01   -.151E-03 -.288E-03 -.235E-03
   -.995E+01 0.294E+02 0.141E+03   0.880E+01 -.310E+02 -.141E+03   0.124E+01 0.162E+01 -.187E+00   0.653E-03 -.232E-03 0.261E-03
   -.749E+02 -.226E+01 -.143E+04   0.756E+02 0.111E+01 0.143E+04   -.685E+00 0.123E+01 0.270E+01   -.234E-04 -.974E-03 0.231E-03
   0.471E+02 0.276E+02 -.145E+04   -.471E+02 -.268E+02 0.145E+04   0.557E-02 -.799E+00 0.206E+01   -.264E-04 0.153E-03 0.154E-03
   -.211E+02 -.753E+02 -.540E+02   0.201E+02 0.749E+02 0.543E+02   0.108E+01 0.494E+00 -.225E+00   -.706E-03 -.508E-04 -.883E-04
   -.337E+02 -.215E+02 -.109E+02   0.343E+02 0.222E+02 0.105E+02   -.551E+00 -.745E+00 0.431E+00   0.395E-04 -.749E-03 0.739E-03
   0.124E+02 0.590E+01 -.114E+04   -.124E+02 -.608E+01 0.114E+04   -.402E-01 0.264E+00 0.165E+00   0.189E-03 -.242E-03 0.802E-04
   -.852E+02 0.572E+01 0.224E+04   0.856E+02 -.690E+01 -.224E+04   -.452E+00 0.123E+01 -.287E+01   0.211E-03 0.321E-03 -.807E-03
   0.367E+02 -.119E+02 0.231E+04   -.372E+02 0.100E+02 -.230E+04   0.552E+00 0.196E+01 -.303E+01   -.265E-03 0.190E-03 -.289E-03
   0.596E+02 0.347E+02 0.225E+04   -.590E+02 -.330E+02 -.225E+04   -.644E+00 -.174E+01 -.289E+01   0.364E-04 -.256E-03 -.456E-03
   0.476E+02 0.808E+02 0.119E+04   -.467E+02 -.800E+02 -.119E+04   -.955E+00 -.817E+00 -.542E-01   0.403E-04 0.151E-03 -.385E-03
   0.213E+02 -.881E+02 0.121E+04   -.212E+02 0.876E+02 -.121E+04   -.131E+00 0.454E+00 -.532E+00   -.583E-03 0.620E-03 -.230E-03
   -.674E+02 -.210E+02 -.118E+04   0.676E+02 0.212E+02 0.118E+04   -.140E+00 -.203E+00 0.245E+00   -.252E-03 -.360E-03 -.526E-04
   -.200E+03 -.366E+01 0.236E+04   0.197E+03 0.328E+01 -.236E+04   0.211E+01 0.342E+00 -.381E+01   0.331E-03 -.646E-03 -.303E-03
   -.439E+02 0.700E+02 0.123E+04   0.430E+02 -.695E+02 -.123E+04   0.934E+00 -.618E+00 -.518E+00   0.587E-03 -.334E-04 -.434E-03
   -.830E+02 -.809E+01 -.184E+02   0.827E+02 0.847E+01 0.185E+02   0.198E+00 -.419E+00 -.213E+00   0.262E-03 -.698E-03 0.502E-03
   0.148E+02 -.848E+02 -.119E+04   -.150E+02 0.847E+02 0.119E+04   0.146E+00 0.171E+00 0.593E+00   -.769E-03 0.351E-03 0.178E-03
   0.178E+02 0.212E+02 -.119E+04   -.179E+02 -.213E+02 0.119E+04   0.163E+00 0.922E-01 -.217E+00   -.134E-03 -.399E-03 0.243E-03
   -.221E+02 -.106E+03 0.230E+04   0.209E+02 0.104E+03 -.230E+04   0.120E+01 0.210E+01 -.327E+01   -.279E-03 0.624E-03 0.497E-04
   0.305E+02 -.368E+02 0.263E+04   -.303E+02 0.370E+02 -.263E+04   -.216E+00 -.120E+00 -.299E+01   0.137E-03 -.295E-03 -.580E-03
   0.202E+03 0.428E+02 0.261E+04   -.201E+03 -.420E+02 -.261E+04   -.784E+00 -.921E+00 -.314E+01   -.447E-03 -.153E-03 -.312E-03
   -.784E+02 -.580E+02 0.131E+04   0.777E+02 0.570E+02 -.131E+04   0.698E+00 0.111E+01 -.127E+00   0.131E-03 0.565E-04 -.103E-02
   -.990E+02 0.324E+02 0.165E+02   0.991E+02 -.323E+02 -.168E+02   -.636E-01 -.132E+00 0.311E+00   0.229E-03 -.612E-03 0.411E-03
   -.169E+03 -.420E+01 0.135E+04   0.169E+03 0.477E+01 -.135E+04   0.679E-01 -.598E+00 -.125E+00   0.430E-03 0.159E-04 -.208E-03
   -.573E+01 -.123E+02 0.132E+04   0.593E+01 0.120E+02 -.132E+04   -.175E+00 0.470E+00 -.252E+00   0.745E-04 -.545E-04 -.348E-03
   0.538E+02 -.179E+00 -.137E+04   -.538E+02 0.132E+00 0.137E+04   -.128E+00 0.869E-01 0.731E+00   -.594E-03 0.472E-03 0.180E-03
   0.826E+02 -.598E+02 0.264E+04   -.818E+02 0.601E+02 -.264E+04   -.866E+00 -.254E+00 -.334E+01   0.102E-03 0.382E-03 -.407E-03
   -.301E+02 -.197E+01 0.134E+04   0.301E+02 0.231E+01 -.134E+04   -.103E+00 -.373E+00 -.561E+00   -.390E-03 -.155E-03 -.517E-03
   0.465E+02 -.909E+02 -.275E+02   -.456E+02 0.904E+02 0.278E+02   -.857E+00 0.490E+00 -.456E+00   -.580E-03 0.674E-03 0.255E-03
   0.685E+02 0.359E+02 0.328E+04   -.686E+02 -.349E+02 -.327E+04   0.100E+00 -.939E+00 -.420E+01   0.107E-03 -.315E-04 -.711E-03
   0.645E+02 -.124E+02 0.162E+04   -.648E+02 0.119E+02 -.162E+04   0.304E+00 0.599E+00 0.111E-01   -.103E-02 0.793E-03 -.445E-03
   0.185E+03 -.416E+02 0.154E+04   -.185E+03 0.421E+02 -.154E+04   -.207E+00 -.510E+00 -.214E-01   -.201E-03 -.946E-04 0.398E-03
   0.296E+02 0.887E+02 0.117E+03   -.302E+02 -.885E+02 -.117E+03   0.598E+00 -.352E+00 -.888E-01   0.557E-03 0.233E-03 0.430E-03
   0.110E+02 0.718E+02 -.161E+04   -.105E+02 -.718E+02 0.161E+04   -.474E+00 -.319E-01 0.769E+00   0.551E-03 0.526E-03 0.559E-03
[...]
   0.416E+02 -.477E+02 -.802E+01   -.412E+02 0.467E+02 0.785E+01   -.424E+00 0.117E+01 0.688E-01   0.454E-03 0.529E-03 0.103E-02
   0.752E+02 -.265E+01 -.690E+00   -.744E+02 0.258E+01 0.110E+01   -.752E+00 0.784E-01 -.353E+00   -.391E-03 0.701E-03 0.418E-03
   -.118E+03 -.102E+02 0.148E+04   0.117E+03 0.104E+02 -.148E+04   0.570E+00 -.220E+00 -.567E+00   0.316E-03 -.109E-02 -.150E-03
   -.548E+02 0.488E+01 0.154E+04   0.553E+02 -.522E+01 -.154E+04   -.459E+00 0.356E+00 -.600E+00   0.157E-03 0.570E-04 0.123E-03
   -.165E+03 -.284E+02 0.296E+04   0.164E+03 0.283E+02 -.295E+04   0.644E-01 0.717E-01 -.266E+01   -.179E-03 -.134E-03 -.846E-03
   0.938E+02 -.663E+02 0.293E+04   -.945E+02 0.667E+02 -.293E+04   0.840E+00 -.314E+00 -.168E+01   -.230E-03 -.445E-03 -.550E-03
   0.281E+02 -.302E+02 0.153E+04   -.277E+02 0.300E+02 -.153E+04   -.372E+00 0.179E+00 0.250E-01   -.600E-04 -.568E-05 -.186E-04
   0.101E+03 0.969E+01 0.147E+04   -.100E+03 -.969E+01 -.147E+04   -.842E+00 0.316E-01 -.585E+00   -.492E-03 -.994E-04 -.115E-03
   -.319E+02 -.427E+02 -.151E+04   0.319E+02 0.429E+02 0.151E+04   0.591E-01 -.166E+00 0.147E+00   0.338E-03 -.271E-03 0.954E-04
   -.475E+02 0.196E+02 0.294E+04   0.478E+02 -.189E+02 -.293E+04   -.348E+00 -.582E+00 -.200E+01   0.770E-04 -.367E-03 -.783E-03
   -.480E+02 0.132E+03 0.749E+02   0.484E+02 -.132E+03 -.746E+02   -.436E+00 -.356E+00 -.448E+00   0.741E-03 0.110E-03 0.326E-03
   -.399E+01 0.529E+02 -.437E+02   0.388E+01 -.521E+02 0.436E+02   0.127E+00 -.812E+00 -.142E-01   -.872E-03 -.888E-05 0.331E-03
   0.118E+03 -.133E+02 -.544E+02   -.118E+03 0.140E+02 0.547E+02   -.425E+00 -.690E+00 -.331E+00   -.247E-03 0.323E-03 0.703E-03
   -.235E+02 -.939E+02 0.136E+02   0.231E+02 0.935E+02 -.136E+02   0.399E+00 0.416E+00 -.455E-01   -.105E-02 0.860E-03 0.237E-03
   -.238E+01 0.130E+00 0.876E+00   0.924E-13 0.142E-12 -.153E-10   0.237E+01 -.126E+00 -.849E+00   -.615E-03 0.367E-03 -.780E-02

 POSITION                                       TOTAL-FORCE (eV/Angst)
     13.57327      8.43279      6.83402         0.005866     -0.003825     -0.011072
      5.35056      8.43435      6.74087        -0.015586     -0.011953      0.007854
      5.18393      3.61969      6.93114        -0.011405     -0.014161      0.003070
     15.01709      9.23114      9.06251         0.031251      0.000030     -0.001817
      3.87765      4.47225      9.18296        -0.000812     -0.003142     -0.014104
      6.70042      9.18543      9.05604        -0.009723     -0.011177     -0.004131
     12.21873      4.37153      9.20600        -0.009376      0.002505     -0.006675
      9.44234      9.18823      9.10942        -0.006472     -0.002101      0.006875
     10.82853      2.02069      9.05716        -0.001639     -0.028783      0.007743
      2.59243      2.03666      9.12221         0.032620      0.014489     -0.005949
     12.22392      9.18014      9.11696         0.007285     -0.016129      0.003115
     13.60906      6.83062      9.17543        -0.017771      0.024695     -0.016283
      5.31239      1.97122      9.15554         0.002286      0.001851     -0.013667
      8.10827      6.81833      9.13045        -0.012137      0.010978     -0.007031
      9.49291      4.42695      9.14550         0.030028      0.013025     -0.006298
      5.29269      6.81275      9.14169         0.002023     -0.000940      0.002325
      8.08000      1.99858      9.09833        -0.000849      0.008395     -0.009806
      8.14154      3.61334      6.92204         0.005704      0.004836      0.008668
      6.60499      1.20614      6.84151        -0.018332      0.000099      0.005255
      6.78710      1.18523      1.14924        -0.003654     -0.008072     -0.021245
      3.76654      4.28943      2.79191        -0.009530     -0.007571     -0.001632
      1.27895      1.28968      6.85013         0.007572      0.000206      0.004822
      1.08322      1.26580      0.86116         0.001954     -0.004272     -0.018982
      6.75769      9.17044      2.98650         0.015254     -0.017187      0.012923
      6.67257      4.40965      9.16593        -0.001817      0.001556     -0.008203
      8.11381      5.27353      4.83171         0.009558     -0.007527      0.021121
     10.82249      6.80546      9.15730        -0.004167     -0.015209     -0.011369
     14.86749      7.46195      4.73691         0.000449      0.000534     -0.002665
     12.28988      5.97092      6.96716         0.001323      0.012672      0.040344
      6.66986      6.03402      6.90576         0.001604      0.007387      0.001681
      3.69611      2.62221      4.96528         0.013230      0.024202      0.014982
     10.84750      5.30333      4.87795        -0.016471     -0.001229     -0.017277
      3.95420      6.06489      7.00428        -0.002369      0.003704      0.006797
     13.54014      8.23685      1.21769         0.000482      0.005602      0.015383
      5.32877      8.26421      1.06683        -0.000122     -0.008714     -0.010648
      4.07872      6.18644      1.16963         0.015103     -0.013754      0.002710
      8.23293      2.23943      2.94956        -0.004099      0.001991      0.013283
      9.50197      9.12028      2.95366        -0.010509      0.010088      0.012026
      2.51369      3.67778      7.05979         0.003769     -0.002201     -0.002135
      2.17813      3.60438      0.95905        -0.013810     -0.008421     -0.001733
     10.81855      2.10616      2.90557        -0.008112     -0.009088      0.009341
     13.56981      5.15767      4.91632        -0.004907     -0.006900     -0.011542
      3.95813      1.09520      7.01671         0.002358      0.006436     -0.005338
      9.46023      5.99791      7.04047        -0.010590      0.002468      0.003040
      3.84082      1.07508      1.08740        -0.019275     -0.000314      0.005206
      9.54360      5.99174      1.07418        -0.030048      0.022747      0.020362
      5.53326      3.67383      1.11237        -0.008562      0.024084      0.002737
     12.12391      9.03535      3.02482         0.022208      0.000261     -0.005845
     12.19001      7.56078      4.85800         0.004181     -0.015292     -0.004500
     13.29175      6.60251      2.91585        -0.001627      0.016608     -0.001497
      9.48696      4.40599      2.86728         0.020295      0.019862     -0.006823
      8.13437      8.36776      6.98052         0.004536     -0.000028     -0.001855
      8.22572      8.40044      1.02038         0.026941     -0.012216     -0.000314
     10.81470      6.88846      2.87925        -0.008618     -0.008152     -0.002940
      2.70342      0.21102      5.02247         0.006969     -0.009722      0.002671
      8.11520      3.66906      0.89878        -0.005814      0.002662     -0.007991
      5.28377      1.95964      3.04932        -0.003078      0.007810      0.005161
      5.61899      6.74656      3.08047         0.002217     -0.005215      0.011437
      8.07791      0.54162      4.83808         0.004992      0.002826     -0.002632
      9.48923      1.24020      6.88431         0.004104      0.000297      0.000457
[...]
     15.01485      9.35842      2.95367        -0.013994      0.003218      0.011580
      9.57359      2.84462      4.96726        -0.000635      0.001454      0.001694
      6.69370      2.85116      4.88285         0.015605      0.006272      0.009477
     12.12773      4.35211      2.88488         0.003328      0.003323      0.004582
      2.46536      1.93297      2.91282         0.015017     -0.005060      0.001387
     12.08907      5.94123      0.99380        -0.015655     -0.018399     -0.005401
      6.74616      5.97802      1.08730         0.013916     -0.000681      0.004785
      8.23740      6.87147      2.88707        -0.003904      0.012322     -0.007199
      6.80581      4.34717      2.90754         0.003656     -0.010724      0.012508
     10.89030      3.69465      7.01810         0.012016      0.009003     -0.029929
     10.76626      3.58716      0.97095        -0.012939     -0.009214     -0.003226
     10.88657      0.63149      4.87040        -0.008543     -0.002074     -0.020850
      9.52479      7.61651      4.98098        -0.011258     -0.000833     -0.008435
      6.95958      7.62760      4.96170         0.005644      0.019343     -0.009384
      5.23455      0.23107      4.94671        -0.003342     -0.012191      0.014953
    total drift:                               -0.011363      0.004199      0.019246

  FREE ENERGIE OF THE ION-ELECTRON SYSTEM (eV)
  free  energy   TOTEN  =      -500.81993921 eV

  energy  without entropy=     -500.81910615  energy(sigma->0) =     -500.81966153