 vasp.5.4.4.18Apr17-6-g9f103f2a35 (build Nov 30 2020 22:55:02) complex

 executed on             LinuxIFC date 2021.10.11  20:22:54

 INCAR:
 POTCAR:    PAW_PBE Pt 04Feb2005
 POTCAR:    PAW_PBE Fe 06Sep2000
 POTCAR:    PAW_PBE Co 02Aug2007
 POTCAR:    PAW_PBE Cu 22Jun2005
 POTCAR:    PAW_PBE Ni 02Aug2007

 POTCAR:    PAW_PBE Pt 04Feb2005
   VRHFIN =Pt: s1d9

   TITEL  = PAW_PBE Pt 04Feb2005
   POMASS =  195.080; ZVAL   =   10.000    mass and valenz
   ENMAX  =  230.283; ENMIN  =  172.712 eV

 POTCAR:    PAW_PBE Fe 06Sep2000
   VRHFIN =Fe:  d7 s1

   TITEL  = PAW_PBE Fe 06Sep2000
   POMASS =   55.847; ZVAL   =    8.000    mass and valenz
   ENMAX  =  267.882; ENMIN  =  200.911 eV

 POTCAR:    PAW_PBE Co 02Aug2007
   VRHFIN =Co: d8 s1

   TITEL  = PAW_PBE Co 02Aug2007
   POMASS =   58.933; ZVAL   =    9.000    mass and valenz
   ENMAX  =  267.968; ENMIN  =  200.976 eV

 POTCAR:    PAW_PBE Cu 22Jun2005
   VRHFIN =Cu: d10 p1

   TITEL  = PAW_PBE Cu 22Jun2005
   POMASS =   63.546; ZVAL   =   11.000    mass and valenz
   ENMAX  =  295.446; ENMIN  =  221.585 eV

 POTCAR:    PAW_PBE Ni 02Aug2007
   VRHFIN =Ni:

   TITEL  = PAW_PBE Ni 02Aug2007
   POMASS =   58.690; ZVAL   =   10.000    mass and valenz
   ENMAX  =  269.532; ENMIN  =  202.149 eV

 Optimization of the real space projectors (new method)

 maximal supplied QI-value         = 14.36
 optimisation between [QCUT,QGAM] = [ 11.92, 23.98] = [ 39.79,161.09] Ry
 Optimized for a Real-space Cutoff    1.49 Angstroem

   l    n(q)    QCUT    max X(q) W(low)/X(q) W(high)/X(q)  e(spline)
   2     10    11.920    66.195    0.79E-04    0.18E-03    0.24E-06
   2     10    11.920    64.643    0.81E-04    0.19E-03    0.24E-06
   0     11    11.920    95.520    0.28E-04    0.54E-04    0.18E-06
   0     11    11.920    63.403    0.27E-04    0.52E-04    0.17E-06
   1     10    11.920    19.961    0.18E-04    0.11E-03    0.23E-06
   1     10    11.920    13.289    0.25E-04    0.87E-04    0.19E-06
 Optimization of the real space projectors (new method)

[...]

   l    n(q)    QCUT    max X(q) W(low)/X(q) W(high)/X(q)  e(spline)
   2     10    11.864     4.610    0.10E-03    0.20E-03    0.29E-06
   2     10    11.864     8.522    0.17E-03    0.33E-03    0.50E-06
   0     11    11.864    51.609    0.52E-04    0.55E-04    0.33E-06
   0     11    11.864    27.747    0.46E-04    0.52E-04    0.31E-06
   1     10    11.864    20.408    0.54E-04    0.25E-04    0.21E-06
   1     10    11.864    13.425    0.48E-04    0.22E-04    0.18E-06
 Optimization of the real space projectors (new method)

 maximal supplied QI-value         = 16.25
 optimisation between [QCUT,QGAM] = [ 11.86, 23.89] = [ 39.41,159.82] Ry
 Optimized for a Real-space Cutoff    1.33 Angstroem

   l    n(q)    QCUT    max X(q) W(low)/X(q) W(high)/X(q)  e(spline)
   2      9    11.864    60.317    0.21E-03    0.51E-03    0.25E-06
   2      9    11.864    55.921    0.21E-03    0.51E-03    0.26E-06
   0      9    11.864    51.690    0.22E-03    0.30E-04    0.17E-06
   0      9    11.864    30.015    0.20E-03    0.28E-04    0.15E-06
   1      9    11.864    18.849    0.76E-04    0.33E-03    0.17E-06
   1      9    11.864    14.624    0.60E-04    0.28E-03    0.15E-06
  PAW_PBE Pt 04Feb2005                  :
  PAW_PBE Fe 06Sep2000                  :
  PAW_PBE Co 02Aug2007                  :
  PAW_PBE Cu 22Jun2005                  :
  PAW_PBE Ni 02Aug2007                  :

 POSCAR: 10.56
  positions in direct lattice
  velocities in cartesian coordinates
 exchange correlation table for  LEXCH =        8
   RHO(1)=    0.500       N(1)  =     2000
   RHO(2)=  100.500       N(2)  =     4000

 ion  position               nearest neighbor table
   1  0.787  0.879  0.318-  49 2.62  28 2.63  19 2.63  59 2.65  33 2.65  61 2.66  29 2.67  60 2.68
                             2 2.72  11 2.77   4 2.82  12 2.85
   2  0.042  0.883  0.316-  79 2.55  77 2.59  60 2.62  30 2.65  28 2.65  52 2.66  33 2.68  22 2.69
                             1 2.72   6 2.76   4 2.84  16 2.90
   3  0.279  0.381  0.320-  39 2.56  64 2.57  33 2.59  31 2.63  19 2.70  30 2.71  43 2.71  68 2.72
                             5 2.78  13 2.80  18 2.82  25 2.85
   4  0.874  0.962  0.425-  17 2.63   9 2.63   6 2.64  11 2.64  16 2.64  12 2.65   1 2.82  60 2.82
                             2 2.84
   5  0.121  0.462  0.428-  12 2.62   7 2.63  16 2.64  10 2.64  25 2.66  13 2.67  39 2.73  33 2.73
                             3 2.78
   6  0.124  0.962  0.422-   8 2.63  10 2.64  14 2.64   4 2.64   9 2.64  16 2.65   2 2.76  52 2.78
                            22 2.87
   7  0.873  0.460  0.427-  15 2.62   9 2.63   5 2.63  10 2.64  12 2.65  27 2.65  39 2.69  75 2.77
                            29 2.80
   8  0.374  0.960  0.420-  43 2.60  14 2.61  27 2.62   6 2.63  13 2.63  10 2.64  11 2.64  52 2.69
                            61 2.73
   9  0.873  0.211  0.421-   7 2.63   4 2.63  17 2.63  15 2.63   6 2.64  10 2.66  75 2.69  60 2.72
                            22 2.81
  10  0.125  0.211  0.422-  13 2.62   5 2.64   6 2.64   8 2.64   7 2.64   9 2.66  39 2.67  43 2.72
                            22 2.78
  11  0.624  0.961  0.424-  13 2.63  12 2.64  17 2.64   4 2.64  27 2.64   8 2.64   1 2.77  19 2.83
                            61 2.84
  12  0.874  0.711  0.427-   5 2.62  11 2.64  16 2.64   7 2.65  27 2.65   4 2.65  33 2.70  29 2.82
                             1 2.85
  13  0.374  0.209  0.425-  10 2.62  11 2.63   8 2.63  17 2.65  25 2.66   5 2.67  43 2.77   3 2.80
                            19 2.83
  14  0.375  0.712  0.424-  27 2.61   8 2.61   6 2.64  15 2.65  25 2.65  16 2.66  44 2.71  30 2.77
                            52 2.78
  15  0.625  0.462  0.423-   7 2.62  27 2.63   9 2.63  14 2.65  17 2.65  25 2.65  44 2.70  75 2.73
                            18 2.76
  16  0.124  0.711  0.427-   5 2.64  25 2.64  12 2.64   4 2.64   6 2.65  14 2.66  33 2.68  30 2.83
                             2 2.90
  17  0.624  0.211  0.422-   4 2.63   9 2.63  11 2.64  25 2.65  13 2.65  15 2.65  18 2.76  60 2.78
                            19 2.85
  18  0.548  0.376  0.317-  67 2.56  60 2.59  75 2.60  44 2.65  68 2.66  26 2.66  30 2.70  19 2.73
                            17 2.76  15 2.76   3 2.82  25 2.89
  19  0.534  0.125  0.315-  80 2.55  43 2.56  68 2.57  59 2.61   1 2.63  61 2.64   3 2.70  18 2.73
                            60 2.76  13 2.83  11 2.83  17 2.85
  20  0.547  0.124  0.040-  37 2.55  57 2.56  48 2.58  62 2.64  63 2.68  47 2.68  45 2.68  56 2.70
                            34 2.71
  21  0.121  0.460  0.128-  40 2.52  36 2.53  47 2.53  42 2.60  69 2.61  64 2.62  70 2.64  50 2.64
                            58 2.67  31 2.70  57 2.71  74 2.72
  22  0.043  0.137  0.314-  65 2.51  55 2.53  77 2.57  43 2.58  39 2.58  75 2.61  60 2.68   2 2.69
                            52 2.73  10 2.78   9 2.81   6 2.87  31 3.39
  23  0.042  0.130  0.033-  70 2.58  40 2.60  41 2.61  45 2.62  62 2.64  76 2.64  24 2.69  35 2.73
                            53 2.78
  24  0.130  0.958  0.132-  79 2.51  77 2.54  35 2.57  53 2.57  55 2.58  70 2.62  38 2.64  58 2.64
                            73 2.65  23 2.69  66 2.70  41 2.72
  25  0.374  0.462  0.427-  16 2.64  17 2.65  15 2.65  14 2.65   5 2.66  13 2.66  30 2.84   3 2.85
                            18 2.89
  26  0.455  0.546  0.219-  73 2.50  74 2.54  51 2.56  79 2.61  64 2.63  30 2.65  18 2.66  68 2.67
                            78 2.67  32 2.68  67 2.72  44 2.76
  27  0.622  0.712  0.424-  14 2.61   8 2.62  15 2.63  11 2.64  12 2.65   7 2.65  44 2.69  61 2.79
                            29 2.79
  28  0.956  0.790  0.221-  58 2.57  66 2.57  50 2.58  42 2.59  49 2.61   1 2.63  64 2.63   2 2.65
                            59 2.70  33 2.72  79 2.76  77 2.77
  29  0.794  0.623  0.319-  39 2.54  42 2.56  75 2.58  32 2.62  44 2.64  33 2.65   1 2.67  61 2.67
                            49 2.68  27 2.79   7 2.80  12 2.82
  30  0.292  0.631  0.319-  79 2.57  64 2.61  52 2.61  44 2.62   2 2.65  26 2.65  33 2.66  18 2.70
                             3 2.71  14 2.77  16 2.83  25 2.84
  31  0.203  0.281  0.225-  70 2.52  55 2.56  65 2.57  43 2.60  57 2.60   3 2.63  39 2.67  80 2.70
                            21 2.70  42 2.71  68 2.75  64 2.79  22 3.39
  32  0.706  0.549  0.221-  54 2.53  69 2.56  51 2.58  49 2.59  42 2.60  29 2.62  78 2.62  65 2.63
                            26 2.68  75 2.69  67 2.70  44 2.70
  33  0.040  0.631  0.326-   3 2.59  39 2.64  29 2.65   1 2.65  30 2.66   2 2.68  16 2.68  12 2.70
                            64 2.71  28 2.72   5 2.73  42 2.73
  34  0.797  0.862  0.042-  50 2.38  66 2.51  48 2.53  36 2.55  71 2.56  63 2.61  20 2.71  35 2.76
                            62 2.76
  35  0.056  0.866  0.038-  58 2.54  72 2.55  36 2.56  24 2.57  66 2.62  53 2.65  23 2.73  62 2.73
                            34 2.76
  36  0.046  0.628  0.037-  21 2.53  34 2.55  35 2.56  58 2.58  50 2.61  47 2.63  72 2.64  40 2.69
                            71 2.72
  37  0.627  0.222  0.129-  51 2.51  74 2.51  67 2.52  56 2.53  41 2.55  20 2.55  68 2.56  59 2.56
                            62 2.59  66 2.66  57 2.73  48 2.89
  38  0.382  0.955  0.130-  53 2.47  80 2.48  45 2.49  78 2.53  48 2.54  73 2.55  63 2.55  54 2.56
                            55 2.59  57 2.62  24 2.64  70 2.67
  39  0.035  0.384  0.325-  29 2.54   3 2.56  22 2.58  75 2.59  33 2.64  42 2.66  31 2.67  10 2.67
                             7 2.69   5 2.73  65 2.76  43 2.80
  40  0.031  0.382  0.038-  69 2.44  21 2.52  71 2.53  76 2.56  70 2.57  23 2.60  36 2.69  45 2.78
                            47 2.78
  41  0.872  0.215  0.128-  76 2.45  65 2.52  77 2.53  67 2.54  37 2.55  69 2.57  62 2.57  51 2.59
                            23 2.61  70 2.65  66 2.66  24 2.72
  42  0.955  0.545  0.224-  50 2.56  29 2.56  28 2.59  21 2.60  32 2.60  69 2.61  49 2.63  65 2.64
                            64 2.65  39 2.66  31 2.71  33 2.73
  43  0.296  0.116  0.321-  52 2.53  55 2.54  61 2.56  19 2.56  22 2.58  31 2.60   8 2.60  80 2.66
                             3 2.71  10 2.72  13 2.77  39 2.80
  44  0.540  0.630  0.322-  61 2.56  52 2.58  30 2.62  78 2.64  29 2.64  18 2.65  75 2.66  27 2.69
                            15 2.70  32 2.70  14 2.71  26 2.76
  45  0.295  0.119  0.039-  70 2.49  38 2.49  57 2.57  53 2.60  23 2.62  63 2.64  20 2.68  47 2.75
                            40 2.78
  46  0.548  0.625  0.044-  51 2.38  73 2.39  54 2.41  71 2.56  53 2.56  63 2.58  76 2.59  56 2.62
                            72 2.64
  47  0.296  0.379  0.039-  74 2.41  21 2.53  57 2.61  72 2.61  56 2.62  36 2.63  20 2.68  45 2.75
                            40 2.78
  48  0.625  0.950  0.132-  49 2.40  80 2.48  54 2.48  34 2.53  38 2.54  59 2.55  50 2.56  63 2.57
                            20 2.58  57 2.65  66 2.68  37 2.89
  49  0.706  0.794  0.220-  48 2.40  50 2.48  54 2.49  80 2.53  32 2.59  28 2.61  78 2.61   1 2.62
                            61 2.63  42 2.63  29 2.68  59 2.69
  50  0.866  0.706  0.129-  34 2.38  71 2.42  54 2.48  49 2.48  42 2.56  48 2.56  69 2.58  28 2.58
                            36 2.61  21 2.64  66 2.76  58 2.85
[...]
   0.986E+01 0.296E+01 -.293E+04   -.100E+02 -.289E+01 0.293E+04   0.140E+00 -.927E-01 0.729E+00   0.190E-03 -.291E-03 -.730E-03
   -.227E+02 -.924E+01 0.378E+01   0.226E+02 0.947E+01 -.509E+01   0.418E-02 -.285E+00 0.128E+01   -.151E-03 0.139E-02 0.254E-02
   -.113E+02 0.779E+01 -.294E+04   0.109E+02 -.792E+01 0.294E+04   0.483E+00 0.174E+00 0.121E+01   -.177E-03 -.425E-03 -.826E-03
   0.194E+02 0.661E+02 0.207E+00   -.203E+02 -.672E+02 -.621E+00   0.105E+01 0.111E+01 0.353E+00   0.104E-02 0.117E-02 0.116E-02
   -.654E+02 0.901E+01 -.150E+04   0.658E+02 -.102E+02 0.150E+04   -.351E+00 0.122E+01 0.290E+01   -.132E-02 -.694E-03 0.745E-03
   0.281E+02 0.274E+02 -.155E+04   -.279E+02 -.267E+02 0.155E+04   -.323E+00 -.684E+00 0.232E+01   0.866E-03 0.474E-03 -.286E-03
   0.200E+02 -.637E+02 -.827E+02   -.209E+02 0.632E+02 0.830E+02   0.102E+01 0.471E+00 -.210E+00   0.174E-04 -.839E-03 0.158E-02
   -.228E+02 -.232E+02 0.392E-01   0.236E+02 0.238E+02 -.749E+00   -.821E+00 -.702E+00 0.717E+00   -.283E-03 0.352E-03 0.238E-02
   0.188E+02 0.152E+02 -.126E+04   -.190E+02 -.156E+02 0.125E+04   0.134E+00 0.460E+00 0.446E+00   0.227E-03 -.112E-03 0.584E-03
   -.598E+02 -.266E+01 0.244E+04   0.601E+02 0.136E+01 -.244E+04   -.390E+00 0.132E+01 -.270E+01   -.736E-03 0.146E-03 -.101E-03
   0.306E+02 -.141E+02 0.247E+04   -.304E+02 0.126E+02 -.247E+04   -.723E-01 0.150E+01 -.227E+01   0.492E-04 0.640E-03 0.356E-03
   0.228E+02 -.395E+01 0.247E+04   -.230E+02 0.455E+01 -.247E+04   0.164E+00 -.634E+00 -.285E+01   -.901E-03 0.340E-04 0.867E-04
   0.714E+01 0.518E+02 0.129E+04   -.626E+01 -.511E+02 -.129E+04   -.913E+00 -.685E+00 -.120E+00   -.989E-04 -.673E-03 0.108E-02
   0.336E+02 -.543E+02 0.128E+04   -.335E+02 0.540E+02 -.128E+04   -.134E+00 0.249E+00 -.400E+00   -.311E-03 -.274E-03 0.140E-02
   -.543E+02 -.242E+02 -.124E+04   0.545E+02 0.244E+02 0.124E+04   -.155E+00 -.252E+00 0.721E+00   -.845E-03 -.825E-03 0.925E-03
   -.933E+02 0.205E+02 0.248E+04   0.931E+02 -.202E+02 -.248E+04   0.255E+00 -.238E+00 -.265E+01   -.714E-03 -.832E-04 0.123E-03
   -.337E+02 0.461E+02 0.130E+04   0.329E+02 -.456E+02 -.130E+04   0.812E+00 -.562E+00 -.401E+00   0.518E-03 -.425E-03 0.119E-02
   -.431E+02 0.231E+01 -.486E+02   0.429E+02 -.193E+01 0.486E+02   0.188E+00 -.422E+00 -.842E-01   -.596E-03 -.364E-03 0.100E-02
   0.146E+02 -.824E+02 -.125E+04   -.147E+02 0.822E+02 0.125E+04   0.136E+00 0.241E+00 0.108E+01   -.996E-04 0.105E-03 0.268E-03
   0.122E+02 0.301E+02 -.124E+04   -.123E+02 -.301E+02 0.124E+04   0.127E+00 -.933E-01 0.338E+00   0.102E-03 -.247E-03 0.222E-04
   0.146E+02 -.465E+02 0.245E+04   -.153E+02 0.458E+02 -.245E+04   0.689E+00 0.681E+00 -.274E+01   0.877E-04 -.326E-03 0.162E-03
   0.438E+01 -.196E+02 0.276E+04   -.448E+01 0.199E+02 -.275E+04   0.117E+00 -.234E+00 -.237E+01   0.695E-03 0.611E-03 -.429E-03
   0.119E+03 0.291E+02 0.279E+04   -.120E+03 -.284E+02 -.279E+04   0.466E+00 -.686E+00 -.235E+01   -.247E-04 -.881E-03 -.590E-04
   -.362E+02 -.275E+02 0.142E+04   0.358E+02 0.264E+02 -.142E+04   0.434E+00 0.107E+01 -.404E+00   -.317E-03 -.228E-03 0.113E-02
   -.597E+02 0.678E+02 0.188E+02   0.597E+02 -.676E+02 -.197E+02   -.412E-01 -.238E+00 0.827E+00   -.974E-03 0.443E-03 0.145E-02
   -.885E+02 0.191E+02 0.141E+04   0.880E+02 -.187E+02 -.141E+04   0.545E+00 -.482E+00 -.922E-01   -.674E-03 0.357E-03 0.548E-03
   -.208E+02 0.921E+01 0.139E+04   0.210E+02 -.945E+01 -.139E+04   -.141E+00 0.301E+00 -.108E+00   0.703E-03 0.397E-03 0.846E-03
   0.458E+02 0.718E+01 -.141E+04   -.456E+02 -.738E+01 0.140E+04   -.289E+00 0.243E+00 0.147E+01   -.242E-03 -.306E-03 -.523E-03
   0.528E+02 -.807E+02 0.277E+04   -.526E+02 0.805E+02 -.276E+04   -.335E+00 0.229E+00 -.244E+01   0.816E-03 0.676E-04 0.512E-03
   -.137E+02 0.198E+01 0.138E+04   0.139E+02 -.175E+01 -.138E+04   -.108E+00 -.259E+00 -.404E+00   -.166E-03 0.308E-03 0.960E-03
   0.168E+02 -.674E+02 -.201E+02   -.160E+02 0.669E+02 0.204E+02   -.782E+00 0.567E+00 -.353E+00   -.355E-03 -.852E-03 0.987E-03
   0.308E+02 0.339E+02 0.344E+04   -.309E+02 -.331E+02 -.344E+04   0.142E+00 -.866E+00 -.358E+01   0.370E-03 -.271E-03 -.936E-03
   0.632E+02 0.845E+01 0.174E+04   -.633E+02 -.914E+01 -.174E+04   0.139E+00 0.715E+00 -.118E+00   -.443E-03 -.540E-03 0.176E-02
   0.102E+03 -.314E+02 0.172E+04   -.102E+03 0.313E+02 -.172E+04   -.227E+00 0.196E-01 0.768E-01   0.914E-03 0.878E-03 0.315E-02
   0.156E+02 0.710E+02 0.803E+02   -.162E+02 -.709E+02 -.811E+02   0.598E+00 -.170E+00 0.749E+00   0.208E-03 0.538E-04 0.211E-02
   0.137E+02 0.549E+02 -.172E+04   -.132E+02 -.544E+02 0.171E+04   -.476E+00 -.461E+00 0.150E+01   0.832E-03 0.459E-03 0.472E-03
[...]
   0.775E+01 -.772E+02 0.463E+02   -.739E+01 0.761E+02 -.470E+02   -.359E+00 0.131E+01 0.595E+00   0.757E-03 -.645E-03 0.304E-02
   0.565E+02 -.379E+02 -.141E+01   -.560E+02 0.375E+02 0.108E+01   -.608E+00 0.455E+00 0.393E+00   -.242E-03 -.548E-03 0.217E-02
   -.736E+02 0.922E+00 0.155E+04   0.731E+02 -.810E+00 -.155E+04   0.423E+00 -.456E-01 -.772E-01   -.901E-04 -.347E-04 0.596E-03
   -.128E+02 0.194E+02 0.162E+04   0.131E+02 -.196E+02 -.162E+04   -.347E+00 0.226E+00 -.419E+00   -.896E-04 -.428E-03 0.147E-02
   -.101E+03 -.430E+01 0.308E+04   0.101E+03 0.436E+01 -.308E+04   -.524E+00 -.248E-01 -.130E+01   -.690E-03 0.193E-03 -.202E-04
   0.701E+02 -.524E+02 0.309E+04   -.705E+02 0.530E+02 -.308E+04   0.359E+00 -.614E+00 -.907E+00   0.107E-02 0.130E-03 0.194E-03
   0.148E+02 -.403E+02 0.155E+04   -.144E+02 0.401E+02 -.155E+04   -.408E+00 0.219E+00 0.290E-01   0.513E-04 0.147E-02 0.214E-02
   0.513E+02 0.201E+01 0.159E+04   -.508E+02 -.198E+01 -.159E+04   -.486E+00 0.339E-02 -.942E-01   -.491E-03 -.280E-04 0.160E-02
   -.405E+02 -.738E+02 -.156E+04   0.405E+02 0.739E+02 0.155E+04   0.120E+00 -.691E-01 0.775E+00   0.155E-03 -.313E-03 0.833E-03
   -.540E+02 0.295E+02 0.307E+04   0.544E+02 -.289E+02 -.307E+04   -.418E+00 -.605E+00 -.194E+01   0.619E-03 0.348E-03 -.571E-03
   -.466E+02 0.739E+02 0.724E+02   0.469E+02 -.737E+02 -.725E+02   -.347E+00 -.340E+00 0.786E-01   0.564E-03 -.446E-03 0.180E-02
   0.105E+00 0.623E+02 -.630E+01   -.162E+00 -.615E+02 0.619E+01   0.863E-01 -.856E+00 -.124E-01   -.552E-03 0.223E-03 0.135E-02
   0.460E+02 0.618E+01 -.367E+02   -.456E+02 -.558E+01 0.366E+02   -.376E+00 -.612E+00 0.665E-01   0.426E-03 0.514E-03 0.131E-02
   0.250E+02 -.495E+02 0.304E+02   -.253E+02 0.491E+02 -.307E+02   0.313E+00 0.459E+00 0.175E+00   -.419E-03 -.358E-03 0.161E-02
   -.222E+01 -.746E+00 -.912E+01   -.526E-12 -.355E-13 0.438E-11   0.223E+01 0.716E+00 0.905E+01   0.663E-03 0.472E-05 0.448E-01

 POSITION                                       TOTAL-FORCE (eV/Angst)
     12.94971      8.04053      6.98678        -0.032193      0.024236     -0.011616
      5.10438      8.07593      6.94934         0.035427     -0.013027     -0.006699
      4.95824      3.48638      7.03441        -0.008804     -0.051578      0.004865
     14.30651      8.79892      9.34049         0.021089      0.016900     -0.013858
      3.72415      4.22944      9.41621        -0.005273     -0.011113      0.025770
      6.38668      8.79371      9.28021        -0.019088      0.036008     -0.001642
     11.65321      4.20769      9.38672         0.004611     -0.001233      0.014615
      9.02014      8.78104      9.25070         0.023707      0.003767      0.012931
     10.33836      1.93334      9.25329         0.005802     -0.008854     -0.002126
      2.43331      1.93048      9.29284        -0.012156      0.012722      0.009673
     11.66339      8.78921      9.32755        -0.003167     -0.034031     -0.002719
     12.97924      6.50294      9.38765        -0.050658     -0.020137      0.013425
      5.05605      1.91534      9.35042         0.007962      0.009534      0.027102
      7.71902      6.51495      9.33618         0.048150      0.001013     -0.011643
      9.03732      4.22113      9.30256         0.004999     -0.025672     -0.003943
      5.06014      6.50457      9.38552         0.003039     -0.032046      0.014528
      7.70633      1.92706      9.28204        -0.000754      0.018412      0.016879
      7.77291      3.43929      6.97865        -0.040020     -0.023244      0.002435
      6.29731      1.14161      6.92884         0.034154      0.012042     -0.001451
      6.42858      1.12974      0.87872        -0.022678      0.004734     -0.006496
      3.70548      4.20844      2.81687         0.004703      0.004294     -0.018050
      1.17724      1.25398      6.90783        -0.008714     -0.004995      0.033258
      1.13569      1.19080      0.72557        -0.004316      0.010531      0.010779
      6.43607      8.76100      2.90031        -0.014154      0.024987      0.020634
      6.38645      4.22215      9.39201        -0.008992     -0.008470     -0.006813
      7.68135      4.99073      4.81474        -0.003747     -0.002895     -0.016054
     10.32777      6.50741      9.33108         0.022765      0.011650     -0.007488
     14.26424      7.22593      4.86299         0.033076     -0.015217      0.001960
     11.66971      5.69639      7.02111        -0.036113     -0.034485     -0.000442
      6.41238      5.77464      7.00881        -0.004999      0.026112     -0.007444
      3.62119      2.56589      4.96023         0.012289      0.011661      0.021661
     10.36091      5.02430      4.85652         0.026690      0.007335      0.001107
      3.75671      5.77381      7.16365        -0.007877     -0.038079     -0.005807
     12.96907      7.87977      0.92567        -0.009715     -0.008390      0.017836
      5.16340      7.91719      0.83030         0.039130      0.018816     -0.003563
      3.80701      5.74502      0.81381         0.000504     -0.005653     -0.010488
      7.79852      2.03245      2.83251        -0.011835     -0.010444     -0.002710
      9.07755      8.73373      2.85743         0.006848     -0.008440      0.010175
      2.40002      3.51136      7.13949         0.016502      0.002168      0.002292
      2.34409      3.49051      0.82510         0.007901      0.027120     -0.014852
     10.34814      1.96983      2.82249        -0.027070      0.008478     -0.010885
     12.96035      4.98587      4.92559        -0.006106     -0.018735      0.011364
      3.74159      1.06028      7.07107        -0.025690      0.005568      0.004219
      9.02910      5.76585      7.09105         0.025688      0.007387     -0.030769
      3.74824      1.09182      0.86700        -0.012178      0.003217     -0.010076
      9.09121      5.71867      0.96043         0.005233      0.022777     -0.017398
      5.12448      3.47045      0.85563         0.001635      0.036420      0.000013
     11.62092      8.68758      2.90590         0.008212     -0.014076      0.039911
     11.65313      7.26450      4.84229         0.001398     -0.012373     -0.036590
     12.86756      6.45280      2.83379         0.020797      0.003617     -0.004361
      9.04201      4.20780      2.79628        -0.009635      0.026309     -0.002079
      7.76571      8.00921      6.99487         0.024096      0.001744     -0.005852
      7.81315      7.93922      0.88653        -0.038786      0.000984     -0.005356
     10.39144      6.53566      2.82198         0.010648     -0.008794      0.008116
      2.51347      0.25826      5.00083         0.030579      0.003397     -0.006317
      7.74264      3.48454      0.76157        -0.002389     -0.007683      0.007728
      5.07835      1.87760      2.91701        -0.003301     -0.011140     -0.005525
      5.16037      6.44715      2.89923        -0.010888     -0.007618     -0.008443
      7.70892      0.45986      4.84799         0.002602      0.016685     -0.001240
      9.05518      1.18967      6.97136         0.004868     -0.013235      0.013159
[...]
     14.29598      8.81469      2.83748        -0.012446      0.003851     -0.009449
      9.07350      2.65252      4.91360         0.011379     -0.020918     -0.023747
      6.37169      2.66558      4.85827        -0.008926      0.021732      0.012187
     11.65891      4.17486      2.81483        -0.029294      0.004890     -0.012878
      2.44098      1.89237      2.83279         0.001528     -0.000761      0.007764
     11.64953      5.68621      0.88546         0.009890      0.036657      0.003499
      6.44743      5.71949      0.92597        -0.015352      0.019380     -0.011642
      7.82927      6.50651      2.83621         0.004545      0.001894      0.004123
      6.41922      4.13007      2.78290         0.001401     -0.020419     -0.008693
     10.37129      3.46829      7.04709         0.030800      0.019299      0.011703
     10.34410      3.45013      0.86804         0.002673     -0.033145     -0.028823
     10.37063      0.48410      4.87151        -0.021555     -0.007961     -0.001238
      9.04079      7.29017      4.93700         0.005998     -0.023395     -0.005731
      6.46265      7.29503      4.94074         0.016033      0.019252      0.017571
      5.04247      0.27633      4.88406        -0.021955      0.003149     -0.005762
    total drift:                                0.012871     -0.029710     -0.018910

  FREE ENERGIE OF THE ION-ELECTRON SYSTEM (eV)
  free  energy   TOTEN  =      -507.51133770 eV

  energy  without entropy=     -507.51133770  energy(sigma->0) =     -507.51133770

 total charge

[...]

 magnetization (x)

# of ion       s       p       d       tot
    1       -0.008  -0.011   0.296   0.278
    2       -0.008  -0.015   0.270   0.248
    3       -0.012  -0.019   0.322   0.291
    4       -0.002  -0.003   0.123   0.118
    5       -0.002  -0.008   0.222   0.212
    6        0.000  -0.004   0.159   0.155
    7       -0.001  -0.006   0.178   0.171
    8       -0.001  -0.008   0.244   0.235
    9       -0.002  -0.000   0.129   0.127
   10       -0.000  -0.005   0.267   0.261
   11        0.000  -0.004   0.144   0.141
   12       -0.000  -0.005   0.205   0.200
   13        0.001  -0.005   0.182   0.178
   14       -0.002  -0.007   0.206   0.198
   15       -0.003  -0.005   0.187   0.179
   16       -0.003  -0.005   0.192   0.184
   17       -0.002  -0.001   0.107   0.104
   18       -0.008  -0.010   0.196   0.178
   19       -0.011   0.001   0.210   0.200
   20       -0.022  -0.027   0.285   0.236
   21       -0.022  -0.049   0.366   0.295
   22       -0.016  -0.019   0.393   0.357
   23       -0.022  -0.044   0.317   0.250
   24       -0.019  -0.052   0.364   0.293
   25       -0.000  -0.004   0.156   0.152
   26       -0.007  -0.027   0.215   0.181
   27       -0.002  -0.005   0.188   0.181
   28       -0.011  -0.032   0.286   0.243
   29       -0.018  -0.030   0.412   0.364
   30       -0.010  -0.015   0.315   0.290
   31       -0.016  -0.034   0.283   0.234
   32       -0.012  -0.048   0.327   0.268
   33        0.011   0.008   3.055   3.075
   34        0.011  -0.014   2.899   2.896
   35        0.019  -0.007   2.951   2.963
   36        0.009  -0.020   2.892   2.881
   37        0.009  -0.006   2.835   2.837
   38       -0.000  -0.026   2.755   2.728
   39        0.010   0.002   3.027   3.039
   40        0.016  -0.007   2.963   2.972
   41        0.007  -0.011   2.841   2.837
   42        0.009  -0.006   2.849   2.852
   43        0.013   0.006   3.014   3.032
   44        0.011   0.009   3.038   3.059
   45        0.013  -0.009   2.959   2.962
   46        0.002  -0.021   1.851   1.832
   47       -0.001  -0.010   1.840   1.828
   48       -0.011  -0.029   1.716   1.676
   49       -0.001  -0.016   1.788   1.771
   50       -0.013  -0.038   1.772   1.721
   51       -0.007  -0.030   1.674   1.637
   52       -0.003  -0.013   1.916   1.900
   53       -0.005  -0.025   1.786   1.756
   54       -0.010  -0.033   1.788   1.745
   55       -0.003  -0.019   1.790   1.768
   56       -0.014  -0.030   0.094   0.050
   57       -0.018  -0.029   0.092   0.045
   58       -0.013  -0.025   0.093   0.056
   59       -0.011  -0.022   0.088   0.055
   60       -0.005  -0.004   0.063   0.053
[...]
   66       -0.022  -0.034   0.105   0.050
   67       -0.013  -0.022   0.074   0.039
   68       -0.007  -0.015   0.053   0.031
   69       -0.020  -0.041   0.693   0.632
   70       -0.016  -0.030   0.668   0.623
   71       -0.022  -0.048   0.749   0.679
   72       -0.021  -0.037   0.692   0.634
   73       -0.015  -0.035   0.652   0.602
   74       -0.014  -0.024   0.591   0.553
   75       -0.006  -0.009   0.637   0.622
   76       -0.012  -0.030   0.678   0.635
   77       -0.007  -0.018   0.528   0.503
   78       -0.011  -0.038   0.727   0.679
   79       -0.005  -0.015   0.593   0.573
   80       -0.010  -0.028   0.639   0.602
tot         -0.499  -1.480  72.788  70.809

 BZINTS: Fermi energy:  2.039643;777.000000 electrons
         Band energy:-685.274835;  BLOECHL correction: -0.274909