 vasp.5.4.4.18Apr17-6-g9f103f2a35 (build Nov 30 2020 22:55:02) complex

 executed on             LinuxIFC date 2021.10.26  12:34:10

 INCAR:
 POTCAR:    PAW_PBE Pt 04Feb2005
 POTCAR:    PAW_PBE H 15Jun2001
 POTCAR:    PAW_PBE Pt 04Feb2005
   VRHFIN =Pt: s1d9

   TITEL  = PAW_PBE Pt 04Feb2005
   POMASS =  195.080; ZVAL   =   10.000    mass and valenz
   ENMAX  =  230.283; ENMIN  =  172.712 eV

 POTCAR:    PAW_PBE H 15Jun2001
   VRHFIN =H: ultrasoft test

   TITEL  = PAW_PBE H 15Jun2001
   POMASS =    1.000; ZVAL   =    1.000    mass and valenz
   ENMAX  =  250.000; ENMIN  =  200.000 eV

 Optimization of the real space projectors (new method)

 maximal supplied QI-value         = 14.36
 optimisation between [QCUT,QGAM] = [ 11.92, 23.98] = [ 39.79,161.09] Ry
 Optimized for a Real-space Cutoff    1.49 Angstroem

   l    n(q)    QCUT    max X(q) W(low)/X(q) W(high)/X(q)  e(spline)
   2     10    11.920    66.195    0.79E-04    0.18E-03    0.24E-06
   2     10    11.920    64.643    0.81E-04    0.19E-03    0.24E-06
   0     11    11.920    95.520    0.28E-04    0.54E-04    0.18E-06
   0     11    11.920    63.403    0.27E-04    0.52E-04    0.17E-06
   1     10    11.920    19.961    0.18E-04    0.11E-03    0.23E-06
   1     10    11.920    13.289    0.25E-04    0.87E-04    0.19E-06
 Optimization of the real space projectors (new method)

 maximal supplied QI-value         = 34.20
 optimisation between [QCUT,QGAM] = [ 11.97, 23.94] = [ 40.13,160.53] Ry
 Optimized for a Real-space Cutoff    1.18 Angstroem

   l    n(q)    QCUT    max X(q) W(low)/X(q) W(high)/X(q)  e(spline)
   0      8    11.971    19.460    0.15E-03    0.31E-03    0.25E-06
   0      8    11.971    12.209    0.13E-03    0.29E-03    0.25E-06
   1      8    11.971     4.655    0.22E-03    0.24E-03    0.21E-06
  PAW_PBE Pt 04Feb2005                  :
  PAW_PBE H 15Jun2001                   :

 POSCAR: Pt111
  positions in direct lattice
  velocities in cartesian coordinates
 exchange correlation table for  LEXCH =        8
   RHO(1)=    0.500       N(1)  =     2000
   RHO(2)=  100.500       N(2)  =     4000

 ion  position               nearest neighbor table
   1  0.785  0.869  0.327-  71 2.74  20 2.74  55 2.74  27 2.79  35 2.79  34 2.79  43 2.81   3 2.81
                            73 2.81   2 2.81  56 2.81  72 2.81
   2  0.035  0.869  0.327-  55 2.73  65 2.74  68 2.74  39 2.77  29 2.78  27 2.80  23 2.80  72 2.81
                            47 2.81   1 2.81  57 2.81   3 2.81
   3  0.035  0.619  0.327-  55 2.74  12 2.74  76 2.74  39 2.77  28 2.79  35 2.80  15 2.80   9 2.80
                            56 2.80   1 2.81  57 2.81   2 2.81
   4  0.787  0.868  0.023-  21 2.78  78 2.78  19 2.79   6 2.80   5 2.80  58 2.80  75 2.80  74 2.80
                            44 2.81
   5  0.037  0.868  0.023-  49 2.78  70 2.79  78 2.79  48 2.80  74 2.80   4 2.80  24 2.81   6 2.81
                            59 2.81
   6  0.037  0.618  0.023-  46 2.78  70 2.79  21 2.79   4 2.80  10 2.80  58 2.80  18 2.80  59 2.81
                             5 2.81
   7  0.619  0.202  0.126-  71 2.73  79 2.74  80 2.75  42 2.78  44 2.79  74 2.79  53 2.80  11 2.80
                            78 2.80  19 2.80  22 2.81  61 2.81
   8  0.370  0.951  0.126-  69 2.74  66 2.74  26 2.74  16 2.78  24 2.79  75 2.79  25 2.80  19 2.80
                            60 2.81  49 2.81  54 2.81  53 2.81
   9  0.035  0.369  0.327-  12 2.74  77 2.74  62 2.74  28 2.78  30 2.79  33 2.79  13 2.80  47 2.80
                             3 2.80  15 2.81  56 2.81  63 2.81
  10  0.037  0.368  0.023-  54 2.77  46 2.79  45 2.79   6 2.80  58 2.80  64 2.81  18 2.81  48 2.81
                            16 2.81
  11  0.869  0.202  0.126-  77 2.74  65 2.74  79 2.75  64 2.78  74 2.78  48 2.79   7 2.80  78 2.80
                            22 2.81  45 2.81  54 2.81  49 2.81
  12  0.952  0.536  0.226-  21 2.73   9 2.74   3 2.74  45 2.74  56 2.74  46 2.74  77 2.81  62 2.81
                            20 2.81  55 2.81  67 2.81  76 2.81
  13  0.284  0.120  0.327-  62 2.74  26 2.74  69 2.74  31 2.78  36 2.78  33 2.79   9 2.80  47 2.80
                            73 2.81  43 2.81  15 2.81  23 2.81
  14  0.534  0.619  0.328-  51 2.74  66 2.75  67 2.76  52 2.79  41 2.80  57 2.80  63 2.80  23 2.80
                            56 2.81  38 2.81  73 2.81  37 2.82
  15  0.285  0.369  0.327-  76 2.74  80 2.74  62 2.75  50 2.77  36 2.79  28 2.79  41 2.80   3 2.80
                            57 2.80  43 2.80   9 2.81  13 2.81
  16  0.287  0.118  0.023-   8 2.78  54 2.78  53 2.79  75 2.80  44 2.80  18 2.81  24 2.81  48 2.81
                            10 2.81
  17  0.537  0.618  0.023-  22 2.78  25 2.79  60 2.79  24 2.80  59 2.80  64 2.80  42 2.81  58 2.81
                            75 2.81
  18  0.287  0.368  0.023-  53 2.78  61 2.79  46 2.79  59 2.80   6 2.80  42 2.81  10 2.81  16 2.81
                            44 2.81
  19  0.619  0.952  0.126-  20 2.74  71 2.74  69 2.74  44 2.78  75 2.78   4 2.79   8 2.80  53 2.80
                             7 2.80  25 2.81  21 2.81  78 2.81
  20  0.702  0.785  0.227-  56 2.74  25 2.74  19 2.74  73 2.74   1 2.74  21 2.74  67 2.81  66 2.81
                            12 2.81  69 2.81  55 2.81  71 2.81
  21  0.869  0.702  0.126-  12 2.73  55 2.74  20 2.74   4 2.78  58 2.79   6 2.79  46 2.80  45 2.80
                            70 2.80  19 2.81  25 2.81  78 2.81
  22  0.619  0.452  0.126-  79 2.73  67 2.74  51 2.75  17 2.78  42 2.78  64 2.80  61 2.80  60 2.80
                            11 2.81  45 2.81   7 2.81  25 2.81
  23  0.285  0.869  0.327-  68 2.74  66 2.74  26 2.75  37 2.77  31 2.79  29 2.79  73 2.80   2 2.80
                            14 2.80  57 2.80  47 2.81  13 2.81
  24  0.287  0.868  0.023-   8 2.79  60 2.79  49 2.79  17 2.80  59 2.80  48 2.81   5 2.81  16 2.81
                            75 2.81
  25  0.619  0.702  0.126-  20 2.74  67 2.74  66 2.74  75 2.78  17 2.79  58 2.79   8 2.80  45 2.80
                            19 2.81  21 2.81  60 2.81  22 2.81
  26  0.202  0.036  0.226-  49 2.73  13 2.74   8 2.74  54 2.74  47 2.74  23 2.75  77 2.80  69 2.80
                            62 2.80  65 2.81  66 2.81  68 2.81
  27  0.868  0.953  0.430-  39 2.77  40 2.78   1 2.79  72 2.79   2 2.80  29 2.80  32 2.80  34 2.81
                            35 2.81
  28  0.116  0.453  0.430-  50 2.77  30 2.78   9 2.78   3 2.79  15 2.79  33 2.80  35 2.80  39 2.81
                            36 2.82
  29  0.116  0.954  0.430-  37 2.77  32 2.78  47 2.78   2 2.78  23 2.79  27 2.80  33 2.80  39 2.81
                            31 2.82
  30  0.869  0.453  0.430-  38 2.77  28 2.78  56 2.79   9 2.79  63 2.79  33 2.80  35 2.80  52 2.81
                            32 2.82
  31  0.367  0.954  0.430-  37 2.77  36 2.78  13 2.78  23 2.79  73 2.79  33 2.80  34 2.80  52 2.81
                            29 2.82
  32  0.869  0.202  0.430-  38 2.77  29 2.78  72 2.79  47 2.79  63 2.79  33 2.80  27 2.80  40 2.81
                            30 2.82
  33  0.117  0.203  0.430-   9 2.79  47 2.79  13 2.79  30 2.80  31 2.80  36 2.80  32 2.80  28 2.80
                            29 2.80
  34  0.618  0.953  0.430-  40 2.77  52 2.78   1 2.79  73 2.79  43 2.79  36 2.80  35 2.80  31 2.80
                            27 2.81
  35  0.867  0.703  0.430-  52 2.77  39 2.77   1 2.79  56 2.79   3 2.80  30 2.80  28 2.80  34 2.80
                            27 2.81
  36  0.368  0.202  0.430-  50 2.77  31 2.78  13 2.78  15 2.79  43 2.79  33 2.80  34 2.80  40 2.81
                            28 2.82
  37  0.364  0.709  0.431-  31 2.77  29 2.77  23 2.77  57 2.81  14 2.82  52 2.84  39 2.84  50 2.91
                            38 2.91
  38  0.623  0.450  0.431-  32 2.77  30 2.77  63 2.78  41 2.81  14 2.81  40 2.84  52 2.84  50 2.91
                            37 2.91
  39  0.114  0.705  0.430-   3 2.77  27 2.77  35 2.77   2 2.77  57 2.79  28 2.81  29 2.81  50 2.84
                            37 2.84
  40  0.619  0.199  0.430-  43 2.77  34 2.77  27 2.78  72 2.78  41 2.79  36 2.81  32 2.81  38 2.84
                            50 2.84
  41  0.534  0.370  0.328-  51 2.74  80 2.75  79 2.76  40 2.79  14 2.80  57 2.80  15 2.80  63 2.80
                            38 2.81  72 2.81  43 2.81  50 2.82
  42  0.537  0.368  0.023-   7 2.78  22 2.78  61 2.79  64 2.80  74 2.80  44 2.80  17 2.81  18 2.81
                            59 2.81
  43  0.534  0.119  0.327-  69 2.74  80 2.74  71 2.74  40 2.77  36 2.79  34 2.79  73 2.80  15 2.80
                            13 2.81   1 2.81  41 2.81  72 2.81
  44  0.537  0.118  0.023-  19 2.78   7 2.79  53 2.79  16 2.80  75 2.80  74 2.80  42 2.80   4 2.81
                            18 2.81
  45  0.869  0.452  0.126-  77 2.73  12 2.74  67 2.75  58 2.78  64 2.78  10 2.79  25 2.80  21 2.80
                            22 2.81  11 2.81  54 2.81  46 2.81
  46  0.119  0.452  0.126-  62 2.73  76 2.74  12 2.74   6 2.78  10 2.79  18 2.79  70 2.80  21 2.80
                            61 2.81  53 2.81  54 2.81  45 2.81
  47  0.035  0.119  0.327-  65 2.74  77 2.74  26 2.74  29 2.78  32 2.79  33 2.79  13 2.80   9 2.80
                            72 2.81   2 2.81  23 2.81  63 2.81
  48  0.037  0.118  0.023-  54 2.78  49 2.78  11 2.79   5 2.80  74 2.80  24 2.81  64 2.81  10 2.81
                            16 2.81
  49  0.119  0.952  0.126-  26 2.73  68 2.74  65 2.74   5 2.78  48 2.78  24 2.79  70 2.80  78 2.80
                            60 2.81   8 2.81  54 2.81  11 2.81
  50  0.364  0.450  0.432-  28 2.77  36 2.77  15 2.77  57 2.81  41 2.82  39 2.84  40 2.84  38 2.91
                            37 2.91
  51  0.452  0.536  0.227-  60 2.74  61 2.74  41 2.74  14 2.74  22 2.75  57 2.75  76 2.80  68 2.80
                            67 2.80  66 2.80  80 2.80  79 2.80
  52  0.619  0.705  0.430-  73 2.77  35 2.77  34 2.78  56 2.78  14 2.79  31 2.81  30 2.81  37 2.84
                            38 2.84
  53  0.370  0.202  0.126-  69 2.74  80 2.74  62 2.74  18 2.78  16 2.79  44 2.79   7 2.80  19 2.80
                            61 2.81  46 2.81  54 2.81   8 2.81
  54  0.119  0.202  0.125-  26 2.74  62 2.74  77 2.75  10 2.77  48 2.78  16 2.78  11 2.81  49 2.81
                            46 2.81   8 2.81  53 2.81  45 2.81
  55  0.952  0.786  0.227-   2 2.73   3 2.74  78 2.74  21 2.74  70 2.74   1 2.74  12 2.81  68 2.81
                            65 2.81  76 2.81  71 2.81  20 2.81
  56  0.785  0.619  0.327-  20 2.74  67 2.74  12 2.74  52 2.78  30 2.79  35 2.79  63 2.80   3 2.80
                             9 2.81   1 2.81  14 2.81  73 2.81
  57  0.285  0.619  0.328-  51 2.75  68 2.75  76 2.75  39 2.79  14 2.80  41 2.80  23 2.80  15 2.80
                             2 2.81   3 2.81  37 2.81  50 2.81
  58  0.787  0.618  0.023-  45 2.78  21 2.79  25 2.79   4 2.80  75 2.80  10 2.80   6 2.80  64 2.81
                            17 2.81
  59  0.287  0.618  0.023-  61 2.78  60 2.79  70 2.79  18 2.80  24 2.80  17 2.80   6 2.81  42 2.81
                             5 2.81
  60  0.369  0.702  0.126-  66 2.74  68 2.74  51 2.74  59 2.79  24 2.79  17 2.79  61 2.80  22 2.80
                            49 2.81  70 2.81   8 2.81  25 2.81
  61  0.369  0.452  0.126-  80 2.73  76 2.74  51 2.74  59 2.78  18 2.79  42 2.79  22 2.80  60 2.80
[...]

 FORCES acting on ions
    electron-ion (+dipol)            ewald-force                    non-local-force                 convergence-correction
   -.577E+00 -.171E+00 -.131E+04   0.573E+00 0.169E+00 0.131E+04   0.575E-02 -.185E-02 0.739E+00   0.747E-03 0.260E-02 -.574E-02
   0.519E+00 -.150E+00 -.131E+04   -.549E+00 0.151E+00 0.131E+04   0.206E-01 -.207E-01 0.704E+00   0.225E-01 0.516E-02 -.197E-01
   -.113E-01 -.193E+00 -.131E+04   -.882E-02 0.221E+00 0.131E+04   0.273E-01 -.109E-01 0.702E+00   0.952E-02 -.204E-01 -.211E-01
   -.409E-03 0.551E-01 0.260E+04   0.695E-02 -.510E-01 -.260E+04   -.107E-01 0.390E-02 -.144E+01   0.116E-02 -.513E-02 0.499E-02
   0.221E+00 0.154E+00 0.260E+04   -.193E+00 -.149E+00 -.260E+04   -.158E-01 0.137E-02 -.144E+01   -.178E-01 -.561E-02 0.364E-02
   -.692E-01 -.367E+00 0.260E+04   0.800E-01 0.334E+00 -.260E+04   -.393E-02 0.224E-01 -.145E+01   -.705E-02 0.175E-01 0.571E-02
   -.120E+00 0.665E+00 0.132E+04   0.122E+00 -.660E+00 -.132E+04   -.310E-02 -.125E-01 -.711E+00   -.225E-03 -.153E-02 0.528E-02
   -.867E-02 -.876E+00 0.132E+04   0.451E-02 0.875E+00 -.132E+04   -.174E-02 0.211E-01 -.716E+00   0.455E-02 -.286E-02 0.136E-01
   -.182E+00 0.682E+00 -.131E+04   0.187E+00 -.672E+00 0.131E+04   -.334E-02 0.219E-02 0.733E+00   0.632E-03 -.172E-01 -.229E-01
   0.263E+00 -.512E+00 0.260E+04   -.255E+00 0.485E+00 -.260E+04   -.157E-01 0.254E-01 -.143E+01   0.129E-02 0.115E-01 0.207E-02
   -.546E+00 0.552E+00 0.132E+04   0.535E+00 -.548E+00 -.132E+04   0.187E-01 -.109E-01 -.714E+00   0.307E-02 -.103E-02 0.135E-01
   -.279E+00 0.334E+00 0.628E+01   0.278E+00 -.308E+00 -.628E+01   0.147E-02 -.103E-01 0.672E-02   -.383E-04 -.213E-01 -.112E-01
   0.425E+00 -.478E+00 -.131E+04   -.415E+00 0.485E+00 0.131E+04   0.333E-02 -.149E-01 0.733E+00   -.144E-01 0.733E-02 -.219E-01
   -.246E+00 -.233E+00 -.131E+04   0.260E+00 0.242E+00 0.131E+04   -.206E-01 -.212E-01 0.709E+00   -.611E-02 -.746E-03 -.116E-01
   0.763E+00 0.511E+00 -.131E+04   -.771E+00 -.512E+00 0.131E+04   0.279E-01 0.103E-01 0.705E+00   -.130E-01 -.751E-02 -.230E-01
   -.402E+00 0.204E+00 0.260E+04   0.386E+00 -.198E+00 -.260E+04   0.935E-02 0.101E-02 -.143E+01   0.110E-01 -.776E-02 0.177E-02
   0.452E-01 -.166E+00 0.260E+04   -.505E-01 0.154E+00 -.260E+04   -.960E-02 0.992E-02 -.144E+01   0.119E-01 0.550E-02 0.743E-02
   -.428E+00 -.273E+00 0.260E+04   0.424E+00 0.259E+00 -.260E+04   0.720E-02 0.213E-01 -.144E+01   0.127E-02 0.119E-02 0.576E-02
   -.171E+00 -.343E-01 0.132E+04   0.173E+00 0.359E-01 -.132E+04   -.987E-03 0.334E-02 -.704E+00   -.432E-03 -.506E-02 -.953E-02
   -.183E+00 -.207E+00 0.627E+01   0.196E+00 0.216E+00 -.626E+01   0.192E-02 -.224E-02 0.124E-03   -.160E-01 -.858E-02 -.179E-01
   0.447E-01 -.574E-01 0.132E+04   -.444E-01 0.595E-01 -.132E+04   -.941E-03 0.231E-02 -.700E+00   -.117E-02 -.145E-02 -.860E-02
   -.563E+00 0.400E+00 0.132E+04   0.553E+00 -.400E+00 -.132E+04   0.191E-01 -.920E-02 -.731E+00   0.223E-02 0.357E-02 0.185E-01
   0.507E+00 -.155E+01 -.131E+04   -.500E+00 0.156E+01 0.131E+04   -.261E-02 -.320E-01 0.702E+00   -.182E-02 0.167E-01 -.232E-01
   0.510E-01 0.279E+00 0.260E+04   -.478E-01 -.270E+00 -.260E+04   -.101E-01 -.897E-02 -.143E+01   0.291E-02 -.433E-02 0.617E-02
   -.632E+00 -.193E+00 0.132E+04   0.628E+00 0.191E+00 -.132E+04   0.934E-02 0.698E-02 -.714E+00   0.217E-02 -.265E-04 0.393E-02
   0.277E+00 -.110E+01 0.611E+01   -.281E+00 0.109E+01 -.612E+01   0.211E-02 0.253E-01 0.631E-02   0.554E-03 -.176E-03 0.534E-02
   0.505E+00 0.373E+00 -.259E+04   -.509E+00 -.371E+00 0.259E+04   0.302E-02 -.112E-01 0.145E+01   0.389E-02 0.428E-02 -.478E-02
   0.359E+01 0.111E+01 -.259E+04   -.355E+01 -.110E+01 0.259E+04   -.358E-01 0.179E-02 0.143E+01   -.164E-01 -.152E-01 -.113E-01
   0.241E+01 -.494E+01 -.259E+04   -.242E+01 0.491E+01 0.259E+04   -.513E-02 0.130E-01 0.143E+01   0.166E-02 0.232E-01 -.151E-01
   -.708E+01 0.242E+01 -.259E+04   0.704E+01 -.239E+01 0.259E+04   0.527E-01 -.129E-01 0.143E+01   0.166E-01 -.165E-01 -.109E-01
   -.143E+01 -.747E+01 -.259E+04   0.143E+01 0.743E+01 0.259E+04   0.241E-01 0.386E-01 0.143E+01   -.744E-02 0.261E-01 -.136E-01
   -.309E+01 0.474E+01 -.259E+04   0.307E+01 -.472E+01 0.259E+04   0.186E-01 -.284E-01 0.143E+01   0.199E-01 -.892E-02 -.148E-01
   -.693E+00 -.189E+00 -.259E+04   0.687E+00 0.192E+00 0.259E+04   0.104E-01 -.446E-02 0.144E+01   -.406E-04 -.117E-02 -.151E-01
   -.178E+01 -.103E+01 -.259E+04   0.177E+01 0.104E+01 0.259E+04   0.182E-01 -.161E-01 0.144E+01   -.558E-02 0.532E-02 -.316E-02
   -.170E+01 -.920E+00 -.259E+04   0.170E+01 0.914E+00 0.259E+04   -.421E-02 0.112E-01 0.144E+01   -.155E-02 -.174E-02 -.103E-02
   0.293E+01 0.288E+01 -.259E+04   -.289E+01 -.284E+01 0.259E+04   -.125E-01 -.553E-01 0.143E+01   -.229E-01 -.770E-02 -.134E-01
   0.404E+01 -.805E+01 -.257E+04   -.412E+01 0.815E+01 0.257E+04   0.929E-01 -.114E+00 0.167E+01   -.356E-02 0.177E-02 -.169E-02
   -.513E+01 0.753E+01 -.257E+04   0.518E+01 -.765E+01 0.257E+04   -.436E-01 0.121E+00 0.167E+01   -.432E-02 -.130E-02 -.103E-02
   0.609E+01 -.254E+01 -.259E+04   -.609E+01 0.254E+01 0.259E+04   -.615E-03 0.704E-02 0.141E+01   -.858E-03 0.165E-02 -.879E-02
   0.725E+00 0.677E+01 -.259E+04   -.732E+00 -.676E+01 0.259E+04   0.149E-01 -.175E-01 0.141E+01   -.316E-02 0.617E-03 -.998E-02
   0.551E+00 0.124E+01 -.131E+04   -.566E+00 -.125E+01 0.131E+04   0.213E-01 0.225E-01 0.739E+00   -.156E-02 0.388E-02 -.895E-02
   0.259E+00 0.189E+00 0.260E+04   -.251E+00 -.183E+00 -.260E+04   -.144E-01 0.581E-02 -.143E+01   0.233E-02 -.105E-01 0.476E-02
   -.295E-01 -.371E-01 -.131E+04   0.423E-01 0.111E-01 0.131E+04   0.935E-02 0.194E-01 0.703E+00   -.154E-01 0.183E-01 -.191E-01
   -.159E+00 -.214E+00 0.260E+04   0.143E+00 0.229E+00 -.260E+04   0.206E-02 0.945E-02 -.145E+01   0.135E-01 -.193E-01 0.252E-02
   -.657E+00 0.254E+00 0.132E+04   0.650E+00 -.258E+00 -.132E+04   0.149E-01 -.922E-02 -.713E+00   0.360E-02 0.532E-02 0.133E-01
   0.634E+00 0.334E+00 0.132E+04   -.623E+00 -.332E+00 -.132E+04   -.252E-01 -.142E-01 -.725E+00   -.215E-02 0.404E-02 0.139E-01
   -.373E+00 -.286E+00 -.131E+04   0.361E+00 0.284E+00 0.131E+04   0.527E-02 -.506E-02 0.737E+00   0.133E-01 0.628E-02 -.212E-01
   0.604E+00 0.148E+00 0.260E+04   -.575E+00 -.137E+00 -.260E+04   -.352E-01 -.587E-02 -.144E+01   -.536E-02 -.741E-02 -.148E-02
   0.843E-01 -.875E+00 0.132E+04   -.845E-01 0.866E+00 -.132E+04   -.204E-02 0.298E-01 -.716E+00   0.888E-03 -.185E-02 0.142E-01
   0.817E+01 0.456E+01 -.258E+04   -.819E+01 -.457E+01 0.258E+04   0.201E-01 0.818E-02 0.139E+01   -.121E-02 0.377E-03 -.216E-02
   0.100E+00 0.208E+00 0.404E+01   -.101E+00 -.209E+00 -.403E+01   0.146E-02 -.244E-02 -.219E-01   -.110E-03 0.226E-02 0.113E-01
   -.835E+01 -.463E+01 -.258E+04   0.838E+01 0.465E+01 0.258E+04   -.952E-02 -.186E-01 0.141E+01   -.309E-02 0.317E-02 -.553E-02
   0.681E+00 0.412E+00 0.132E+04   -.671E+00 -.408E+00 -.132E+04   -.281E-01 -.860E-02 -.723E+00   0.255E-03 -.296E-02 0.145E-01
   -.406E-01 0.127E+00 0.132E+04   0.371E-01 -.129E+00 -.132E+04   0.121E-02 0.223E-02 -.741E+00   0.218E-02 0.914E-03 0.260E-01
   -.856E-01 -.406E-01 0.583E+01   0.743E-01 0.503E-01 -.582E+01   0.182E-02 -.209E-02 -.228E-02   0.140E-01 -.903E-02 -.164E-01
   -.106E+01 -.580E-01 -.131E+04   0.108E+01 0.744E-01 0.131E+04   -.195E-01 -.164E-02 0.704E+00   -.103E-01 -.194E-01 -.227E-01
   0.131E+01 -.237E+00 -.131E+04   -.132E+01 0.227E+00 0.131E+04   0.315E-01 0.874E-03 0.738E+00   0.176E-02 0.195E-02 -.995E-02
   0.512E-01 -.258E+00 0.260E+04   -.538E-01 0.226E+00 -.260E+04   -.128E-01 0.200E-01 -.144E+01   0.945E-02 0.182E-01 0.682E-02
   0.262E+00 -.345E-01 0.260E+04   -.247E+00 0.272E-01 -.260E+04   -.120E-01 0.647E-02 -.144E+01   -.783E-02 0.484E-02 0.699E-02
   0.181E+00 -.580E+00 0.132E+04   -.182E+00 0.570E+00 -.132E+04   -.291E-02 0.259E-01 -.728E+00   0.196E-02 -.486E-03 0.196E-01
[...]
   0.238E-01 -.157E+00 0.633E+01   -.231E-03 0.147E+00 -.634E+01   -.588E-02 0.240E-02 0.687E-02   -.209E-01 0.962E-02 -.722E-02
   0.360E+00 -.212E+00 0.132E+04   -.353E+00 0.211E+00 -.132E+04   -.138E-01 0.830E-02 -.712E+00   -.120E-02 -.953E-03 0.381E-02
   -.713E-01 0.202E-01 0.598E+01   0.712E-01 -.309E-01 -.597E+01   0.175E-02 -.282E-02 -.601E-03   -.112E-02 0.153E-01 -.132E-01
   -.634E-01 0.577E+00 -.131E+04   0.479E-01 -.598E+00 0.131E+04   -.299E-03 0.156E-01 0.704E+00   0.136E-01 0.174E-01 -.190E-01
   -.484E+00 -.764E+00 -.131E+04   0.509E+00 0.774E+00 0.131E+04   -.743E-02 -.295E-01 0.712E+00   -.256E-01 0.589E-02 -.206E-01
   0.338E+00 -.180E+00 0.260E+04   -.313E+00 0.189E+00 -.260E+04   -.259E-01 0.128E-01 -.144E+01   -.928E-02 -.184E-01 0.180E-02
   0.394E-01 0.231E-01 0.260E+04   -.573E-01 -.189E-01 -.260E+04   -.802E-02 0.322E-02 -.144E+01   0.223E-01 -.665E-02 0.522E-02
   0.344E+00 -.292E+00 0.488E+01   -.361E+00 0.300E+00 -.486E+01   0.814E-02 0.657E-02 -.103E-01   0.192E-01 -.870E-03 0.340E-02
   -.919E+00 0.742E+00 0.617E+01   0.908E+00 -.737E+00 -.618E+01   0.253E-01 -.154E-01 0.659E-02   0.145E-02 0.447E-03 0.390E-02
   0.855E-01 -.119E+00 0.132E+04   -.829E-01 0.124E+00 -.132E+04   -.601E-02 0.824E-04 -.700E+00   -.621E-03 -.504E-02 -.846E-02
   0.218E+00 0.383E+00 0.500E+01   -.211E+00 -.405E+00 -.500E+01   -.143E-01 0.329E-03 -.956E-03   -.760E-02 0.195E-01 0.536E-02
   -.184E+00 0.404E+00 0.482E+01   0.183E+00 -.421E+00 -.481E+01   0.129E-01 -.211E-02 -.143E-01   0.654E-02 0.196E-01 0.557E-02
   0.176E+02 0.102E+02 -.222E+03   -.219E+02 -.127E+02 0.222E+03   0.435E+01 0.252E+01 0.129E+00   0.783E-04 0.685E-04 0.309E-03
   -.177E+02 -.102E+02 -.222E+03   0.220E+02 0.127E+02 0.222E+03   -.434E+01 -.251E+01 -.141E+00   -.237E-03 -.101E-03 0.401E-03
   0.568E-02 -.775E-02 -.837E-01   -.373E-12 0.572E-12 0.310E-11   0.371E-01 -.270E-02 0.269E+00   -.484E-03 0.197E-02 -.230E+00

 POSITION                                       TOTAL-FORCE (eV/Angst)
     13.68462      8.44799      7.19202         0.002540     -0.000959      0.016031
      5.26694      8.44906      7.19544         0.011746     -0.013740     -0.006891
      3.86380      6.01857      7.19507         0.016111     -0.004438     -0.008471
     13.69830      8.43740      0.50641        -0.003753      0.003261      0.000736
      5.28199      8.43745      0.50732        -0.006638      0.001305      0.000070
      3.87838      6.00662      0.50769        -0.000832      0.005827     -0.000238
      8.08146      1.96325      2.77522        -0.001925     -0.007735      0.001866
      9.48454      9.24989      2.77455        -0.001895      0.016826     -0.006923
      2.46291      3.58876      7.19160         0.001970     -0.004578      0.012848
      2.47642      3.57651      0.50705        -0.006982      0.009527      0.007971
     10.88606      1.96299      2.77453         0.010279     -0.006758     -0.004316
     13.68842      5.20667      4.98357        -0.000441     -0.005002     -0.003498
      3.86559      1.15929      7.19191        -0.001860     -0.000944      0.015317
      9.47858      6.01935      7.19278        -0.013502     -0.013306      0.012988
      5.26668      3.58781      7.19540         0.006357      0.001448     -0.027584
      3.87756      1.14829      0.50745         0.002368     -0.000246      0.007733
      9.48955      6.00702      0.50881        -0.003837      0.003090     -0.001854
      5.28069      3.57706      0.50797         0.002589      0.008406      0.003675
     12.29024      9.25117      2.77368        -0.000118      0.000084      0.005102
     12.28584      7.63483      4.98390        -0.001210     -0.002166     -0.006230
     13.69311      6.82195      2.77329        -0.002218      0.003080      0.006797
      9.48281      4.39263      2.77734         0.009384     -0.004805     -0.013807
      8.07385      8.44936      7.19585         0.002171     -0.007181     -0.025396
      8.08690      8.43763      0.50770        -0.004834     -0.004349      0.003966
     10.88599      6.82138      2.77502         0.005885      0.004801     -0.000730
      2.46642      0.34431      4.98375        -0.001660      0.016304      0.004553
     15.08381      9.26034      9.46002         0.002563     -0.005052      0.014607
      3.86346      4.40027      9.46037        -0.013921     -0.000799      0.006178
      6.66728      9.26036      9.46045        -0.005493      0.010424      0.004889
     12.27703      4.40103      9.46074         0.022537     -0.002358      0.004607
      9.47221      9.25897      9.46087         0.014693      0.013518      0.002737
     10.87581      1.97182      9.46055         0.012072     -0.017920      0.006233
      2.45870      1.97131      9.45826         0.003724     -0.002595      0.002308
     12.27822      9.26093      9.45957         0.006414     -0.004768      0.014215
     13.68246      6.83030      9.45984         0.001509      0.003802      0.014851
      5.26546      1.97361      9.46066        -0.003699     -0.022442      0.006243
      8.06752      6.83226      9.45864         0.007123     -0.008926     -0.019906
      9.47273      4.39794      9.45814        -0.001032      0.002415     -0.017228
      5.26389      6.83028      9.46468         0.001990      0.000754     -0.020823
      8.06946      1.97074      9.46492         0.005064     -0.005079     -0.021273
      8.07298      3.58622      7.19367         0.004821      0.017251      0.017239
      8.08726      3.57795      0.50894        -0.004756      0.001859     -0.001114
      6.67077      1.15705      7.19501         0.006116      0.011430     -0.008195
      6.68384      1.14768      0.50740        -0.000909      0.005690      0.001705
     12.28894      4.39250      2.77420         0.011431     -0.007826     -0.004999
      3.87442      4.39286      2.77503        -0.017125     -0.008224     -0.006451
      1.05942      1.15851      7.19126         0.006564     -0.000880      0.015250
      1.07442      1.14849      0.50759        -0.011755     -0.001566      0.007355
      6.67869      9.24962      2.77477        -0.001898      0.018371     -0.004868
      6.66688      4.40013      9.46339         0.009122      0.002711     -0.020160
      8.07710      5.20586      4.98770         0.000310     -0.000205     -0.004811
     10.87698      6.83178      9.46104         0.008215     -0.000325     -0.018675
      5.27775      1.96261      2.77477        -0.017846     -0.006939     -0.006568
      2.47002      1.96232      2.77575        -0.000901      0.000638     -0.001434
     15.09176      7.63544      4.98402         0.003824     -0.001083     -0.006970
     12.28381      6.01851      7.19501        -0.010233     -0.004743     -0.009926
      6.66845      6.01840      7.19405         0.016449     -0.007086      0.018369
     12.29542      6.00657      0.50765        -0.006692      0.006650      0.000558
      6.68437      6.00715      0.50945        -0.005308      0.004176     -0.002612
      8.08168      6.82014      2.77712        -0.002803      0.014939     -0.013177
[...]
      6.67456      7.63639      4.98566        -0.007407     -0.016950      0.002943
      5.27230      0.34588      4.98351        -0.003835      0.001763     -0.004215
      5.27658      6.82126      2.77546        -0.008367      0.005614      0.001236
      8.07758      0.34609      4.98409         0.000239      0.001586     -0.006330
      9.47658      1.15754      7.19573        -0.002489      0.011312     -0.005104
     10.88035      8.44993      7.19410        -0.008452     -0.012491     -0.006325
      9.49084      1.14752      0.50763        -0.010951      0.003715     -0.000586
     10.89253      8.43725      0.50726        -0.004591      0.001111      0.001217
      5.27099      5.20502      4.98567         0.009220      0.013144      0.006480
     12.28450      2.77692      4.98345         0.014556     -0.009297      0.004345
     15.09586      9.25115      2.77326        -0.004513      0.000301      0.007695
      9.48121      2.77495      4.98542        -0.014251     -0.002623      0.004087
      6.67364      2.77545      4.98570         0.018138      0.001046      0.003617
      8.44083      5.42668     12.29257        -0.014430     -0.007895      0.036976
      9.09237      5.80380     12.31294         0.014748      0.009090      0.040394
    total drift:                                0.042311     -0.008479     -0.045211

  FREE ENERGIE OF THE ION-ELECTRON SYSTEM (eV)
  free  energy   TOTEN  =      -519.99999781 eV

  energy  without entropy=     -520.15608851  energy(sigma->0) =     -520.05202805

 d Force = 0.5357445E-03[-0.184E-03, 0.126E-02]  d Energy = 0.5207858E-03 0.150E-04
 d Force =-0.4297337E+02[-0.430E+02,-0.430E+02]  d Ewald  =-0.4297337E+02 0.395E-05

 reached required accuracy - stopping structural energy minimisation