 vasp.5.4.4.18Apr17-6-g9f103f2a35 (build Nov 06 2019 15:09:28) complex

 executed on             LinuxIFC date 2022.03.05  12:31:50

 INCAR:
 POTCAR:    PAW_PBE Pt 04Feb2005
 POTCAR:    PAW_PBE Fe 06Sep2000
 POTCAR:    PAW_PBE Co 02Aug2007
 POTCAR:    PAW_PBE Cu 22Jun2005
 POTCAR:    PAW_PBE Ni 02Aug2007
 POTCAR:    PAW_PBE O 08Apr2002
 POTCAR:    PAW_PBE Pt 04Feb2005
   VRHFIN =Pt: s1d9

   TITEL  = PAW_PBE Pt 04Feb2005
   POMASS =  195.080; ZVAL   =   10.000    mass and valenz
   ENMAX  =  230.283; ENMIN  =  172.712 eV

 POTCAR:    PAW_PBE Fe 06Sep2000
   VRHFIN =Fe:  d7 s1

   TITEL  = PAW_PBE Fe 06Sep2000
   POMASS =   55.847; ZVAL   =    8.000    mass and valenz
   ENMAX  =  267.882; ENMIN  =  200.911 eV

 POTCAR:    PAW_PBE Co 02Aug2007
   VRHFIN =Co: d8 s1

   TITEL  = PAW_PBE Co 02Aug2007
   POMASS =   58.933; ZVAL   =    9.000    mass and valenz
   ENMAX  =  267.968; ENMIN  =  200.976 eV

 POTCAR:    PAW_PBE Cu 22Jun2005
   VRHFIN =Cu: d10 p1

   TITEL  = PAW_PBE Cu 22Jun2005
   POMASS =   63.546; ZVAL   =   11.000    mass and valenz
   ENMAX  =  295.446; ENMIN  =  221.585 eV

 POTCAR:    PAW_PBE Ni 02Aug2007
   VRHFIN =Ni:

   TITEL  = PAW_PBE Ni 02Aug2007
   POMASS =   58.690; ZVAL   =   10.000    mass and valenz
   ENMAX  =  269.532; ENMIN  =  202.149 eV

 POTCAR:    PAW_PBE O 08Apr2002
   VRHFIN =O: s2p4

   TITEL  = PAW_PBE O 08Apr2002
   POMASS =   16.000; ZVAL   =    6.000    mass and valenz
   ENMAX  =  400.000; ENMIN  =  300.000 eV

 Optimization of the real space projectors (new method)

 maximal supplied QI-value         = 14.36
 optimisation between [QCUT,QGAM] = [ 11.92, 23.98] = [ 39.79,161.09] Ry
 Optimized for a Real-space Cutoff    1.49 Angstroem

   l    n(q)    QCUT    max X(q) W(low)/X(q) W(high)/X(q)  e(spline)
   2     10    11.920    66.195    0.79E-04    0.18E-03    0.24E-06
   2     10    11.920    64.643    0.81E-04    0.19E-03    0.24E-06
   0     11    11.920    95.520    0.28E-04    0.54E-04    0.18E-06
   0     11    11.920    63.403    0.27E-04    0.52E-04    0.17E-06
   1     10    11.920    19.961    0.18E-04    0.11E-03    0.23E-06
   1     10    11.920    13.289    0.25E-04    0.87E-04    0.19E-06
 Optimization of the real space projectors (new method)

[...]

   l    n(q)    QCUT    max X(q) W(low)/X(q) W(high)/X(q)  e(spline)
   2      9    11.864    60.317    0.21E-03    0.51E-03    0.25E-06
   2      9    11.864    55.921    0.21E-03    0.51E-03    0.26E-06
   0      9    11.864    51.690    0.22E-03    0.30E-04    0.17E-06
   0      9    11.864    30.015    0.20E-03    0.28E-04    0.15E-06
   1      9    11.864    18.849    0.76E-04    0.33E-03    0.17E-06
   1      9    11.864    14.624    0.60E-04    0.28E-03    0.15E-06
 Optimization of the real space projectors (new method)

 maximal supplied QI-value         = 24.76
 optimisation between [QCUT,QGAM] = [ 11.88, 24.01] = [ 39.54,161.47] Ry
 Optimized for a Real-space Cutoff    1.18 Angstroem

   l    n(q)    QCUT    max X(q) W(low)/X(q) W(high)/X(q)  e(spline)
   0      8    11.883    20.381    0.86E-04    0.11E-03    0.31E-06
   0      8    11.883    15.268    0.94E-04    0.12E-03    0.33E-06
   1      8    11.883     5.964    0.19E-03    0.18E-04    0.33E-06
   1      8    11.883     5.382    0.17E-03    0.20E-04    0.29E-06
  PAW_PBE Pt 04Feb2005                  :
  PAW_PBE Fe 06Sep2000                  :
  PAW_PBE Co 02Aug2007                  :
  PAW_PBE Cu 22Jun2005                  :
  PAW_PBE Ni 02Aug2007                  :
  PAW_PBE O 08Apr2002                   :

 POSCAR: Pt   Fe   Co   Cu   Ni   O
  positions in direct lattice
 exchange correlation table for  LEXCH =        8
   RHO(1)=    0.500       N(1)  =     2000
   RHO(2)=  100.500       N(2)  =     4000

 VTST: version 3.2, (02/03/18)

 CHAIN: initializing optimizer

 OPT: Using VASP QUASI-newton optimizer
 CHAIN: Read ICHAIN            0
 CHAIN: Running the NEB
 NEB:          SPRING     -5.000000
 NEB:          LCLIMB      T
 NEB:     LTANGENTOLD      F
 NEB:           LDNEB      F
 NEB:        LDNEBORG      F
 NEB:        LNEBCELL      F
 NEB:          EFIRST      0.000000
 NEB:           ELAST      0.000000

 POSCAR: Pt   Fe   Co   Cu   Ni   O
  positions in direct lattice

 POSCAR: Pt   Fe   Co   Cu   Ni   O
  positions in direct lattice

 ion  position               nearest neighbor table
   1  0.786  0.878  0.319-  19 2.62  49 2.65  61 2.65  33 2.66  29 2.66  28 2.66  60 2.69  59 2.69
                             2 2.72  11 2.74   4 2.79  12 2.82
   2  0.042  0.882  0.315-  79 2.54  77 2.59  60 2.62  28 2.64  30 2.65  52 2.67  33 2.68  22 2.69
                             1 2.72   6 2.75   4 2.82  16 2.90
   3  0.281  0.377  0.322-  39 2.56  33 2.61  64 2.64  31 2.66  19 2.68  43 2.70  30 2.73  13 2.73
                            68 2.75   5 2.77  18 2.82  25 2.83
   4  0.877  0.962  0.423-   6 2.61   9 2.62  11 2.62  16 2.64  17 2.65  12 2.67   1 2.79  60 2.79
                             2 2.82
   5  0.120  0.465  0.428-  12 2.58   7 2.62  16 2.63  13 2.64  10 2.65  25 2.69  33 2.72  39 2.75
                             3 2.77
   6  0.124  0.961  0.421-   8 2.61   4 2.61  16 2.64  14 2.64   9 2.65  10 2.65   2 2.75  52 2.76
                            22 2.85
   7  0.874  0.460  0.427-  15 2.61   5 2.62  10 2.62   9 2.63  27 2.64  12 2.64  39 2.70  75 2.78
                            29 2.80
   8  0.372  0.959  0.420-  81 2.54  14 2.59   6 2.61  43 2.61  27 2.64  10 2.66  52 2.67  13 2.71
                            11 2.72  61 2.73
   9  0.874  0.212  0.421-  17 2.60   4 2.62  10 2.62   7 2.63  15 2.64   6 2.65  75 2.69  60 2.73
                            22 2.81
  10  0.122  0.213  0.421-   7 2.62   9 2.62  13 2.64  39 2.65   6 2.65   5 2.65   8 2.66  43 2.73
                            22 2.76
  11  0.630  0.958  0.426-  81 1.94  12 2.61   4 2.62  27 2.66  17 2.69   8 2.72  13 2.74   1 2.74
                            19 2.88  61 2.89
  12  0.876  0.710  0.427-   5 2.58  11 2.61  16 2.63   7 2.64  27 2.66   4 2.67  33 2.69   1 2.82
                            29 2.83
  13  0.370  0.216  0.427-  81 1.92   5 2.64  25 2.64  10 2.64  17 2.70   8 2.71   3 2.73  11 2.74
                            43 2.84  19 2.89
  14  0.375  0.712  0.423-   8 2.59  27 2.61  25 2.62  15 2.64   6 2.64  16 2.65  44 2.69  52 2.74
                            30 2.77
  15  0.626  0.462  0.423-  27 2.60   7 2.61  17 2.61   9 2.64  14 2.64  25 2.65  44 2.70  75 2.73
                            18 2.76
  16  0.125  0.711  0.427-  25 2.62   5 2.63  12 2.63   4 2.64   6 2.64  14 2.65  33 2.69  30 2.83
                             2 2.90
  17  0.627  0.214  0.425-   9 2.60  15 2.61   4 2.65  25 2.65  11 2.69  13 2.70  18 2.77  60 2.81
                            19 2.94
  18  0.549  0.374  0.318-  67 2.57  60 2.58  75 2.60  44 2.65  68 2.66  26 2.68  30 2.71  19 2.72
                            15 2.76  17 2.77   3 2.82  25 2.88
  19  0.535  0.123  0.315-  80 2.54  43 2.57  68 2.57  59 2.59   1 2.62  61 2.63   3 2.68  18 2.72
                            60 2.75  11 2.88  13 2.89  17 2.94
  20  0.547  0.124  0.040-  37 2.55  57 2.56  48 2.58  62 2.64  63 2.68  47 2.68  45 2.68  56 2.70
                            34 2.71
  21  0.121  0.460  0.128-  40 2.52  36 2.53  47 2.53  42 2.60  69 2.61  64 2.62  70 2.64  50 2.64
                            58 2.67  31 2.70  57 2.71  74 2.72
  22  0.043  0.136  0.314-  65 2.51  55 2.53  77 2.56  43 2.58  39 2.58  75 2.61  60 2.68   2 2.69
                            52 2.73  10 2.76   9 2.81   6 2.85  31 3.39
  23  0.042  0.130  0.033-  70 2.58  40 2.60  41 2.61  45 2.62  62 2.64  76 2.64  24 2.69  35 2.73
                            53 2.78
  24  0.130  0.958  0.132-  79 2.51  77 2.54  35 2.57  53 2.57  55 2.58  70 2.62  38 2.64  58 2.64
                            73 2.65  23 2.69  66 2.70  41 2.72
  25  0.374  0.464  0.427-  14 2.62  16 2.62  13 2.64  15 2.65  17 2.65   5 2.69  30 2.83   3 2.83
                            18 2.88
  26  0.455  0.546  0.219-  73 2.50  74 2.54  51 2.56  79 2.61  64 2.63  30 2.64  68 2.67  78 2.67
                            32 2.68  18 2.68  67 2.72  44 2.74
  27  0.624  0.710  0.423-  15 2.60  14 2.61   7 2.64   8 2.64  11 2.66  12 2.66  44 2.68  61 2.76
                            29 2.77
  28  0.956  0.790  0.221-  58 2.57  66 2.57  50 2.58  42 2.59  49 2.61  64 2.63   2 2.64   1 2.66
                            59 2.70  33 2.73  79 2.76  77 2.77
  29  0.794  0.622  0.319-  39 2.54  42 2.55  75 2.58  32 2.61  44 2.64  33 2.65   1 2.66  61 2.68
                            49 2.68  27 2.77   7 2.80  12 2.83
  30  0.291  0.630  0.318-  79 2.57  64 2.59  52 2.62  44 2.63  26 2.64   2 2.65  33 2.65  18 2.71
                             3 2.73  14 2.77  25 2.83  16 2.83
  31  0.203  0.281  0.225-  70 2.52  55 2.56  65 2.57  43 2.59  57 2.60   3 2.66  39 2.66  80 2.70
                            21 2.70  42 2.71  68 2.75  64 2.79  22 3.39
  32  0.706  0.549  0.221-  54 2.53  69 2.56  51 2.58  49 2.59  42 2.60  29 2.61  78 2.62  65 2.63
                            26 2.68  75 2.68  44 2.69  67 2.70
  33  0.041  0.630  0.325-   3 2.61  39 2.63  29 2.65  30 2.65   1 2.66   2 2.68  16 2.69  12 2.69
                            64 2.70   5 2.72  42 2.72  28 2.73
  34  0.797  0.862  0.042-  50 2.38  66 2.51  48 2.53  36 2.55  71 2.56  63 2.61  20 2.71  35 2.76
                            62 2.76
  35  0.056  0.866  0.038-  58 2.54  72 2.55  36 2.56  24 2.57  66 2.62  53 2.65  23 2.73  62 2.73
                            34 2.76
  36  0.046  0.628  0.037-  21 2.53  34 2.55  35 2.56  58 2.58  50 2.61  47 2.63  72 2.64  40 2.69
                            71 2.72
  37  0.627  0.222  0.129-  51 2.51  74 2.51  67 2.52  56 2.53  41 2.55  20 2.55  68 2.56  59 2.56
                            62 2.59  66 2.66  57 2.73  48 2.89
  38  0.382  0.955  0.130-  53 2.47  80 2.48  45 2.49  78 2.53  48 2.54  73 2.55  63 2.55  54 2.56
                            55 2.59  57 2.62  24 2.64  70 2.67
  39  0.036  0.383  0.324-  29 2.54   3 2.56  22 2.58  75 2.59  33 2.63  10 2.65  42 2.65  31 2.66
                             7 2.70   5 2.75  65 2.75  43 2.81
  40  0.031  0.382  0.038-  69 2.44  21 2.52  71 2.53  76 2.56  70 2.57  23 2.60  36 2.69  45 2.78
                            47 2.78
  41  0.872  0.215  0.128-  76 2.45  65 2.52  77 2.53  67 2.54  37 2.55  69 2.57  62 2.57  51 2.59
                            23 2.61  70 2.65  66 2.66  24 2.72
  42  0.955  0.545  0.224-  29 2.55  50 2.56  28 2.59  21 2.60  32 2.60  69 2.61  49 2.63  65 2.64
                            39 2.65  64 2.65  31 2.71  33 2.72
  43  0.297  0.114  0.321-  55 2.51  52 2.52  61 2.55  19 2.57  22 2.58  31 2.59   8 2.61  80 2.65
                             3 2.70  10 2.73  39 2.81  13 2.84
  44  0.540  0.629  0.322-  61 2.56  52 2.58  78 2.63  30 2.63  29 2.64  75 2.65  18 2.65  27 2.68
                            32 2.69  14 2.69  15 2.70  26 2.74
  45  0.295  0.119  0.039-  70 2.49  38 2.49  57 2.57  53 2.60  23 2.62  63 2.64  20 2.68  47 2.75
                            40 2.78
  46  0.548  0.625  0.044-  51 2.38  73 2.39  54 2.41  71 2.56  53 2.56  63 2.58  76 2.59  56 2.62
                            72 2.64
[...]
   0.163E+02 -.720E+02 -.565E+02   -.172E+02 0.715E+02 0.564E+02   0.116E+01 0.628E+00 -.117E+00   -.321E-01 -.283E-01 0.370E+00
   -.240E+02 -.218E+02 0.269E+02   0.247E+02 0.225E+02 -.280E+02   -.812E+00 -.738E+00 0.692E+00   0.101E-01 -.446E-01 0.420E+00
   0.152E+02 0.163E+02 -.123E+04   -.153E+02 -.166E+02 0.123E+04   0.127E+00 0.406E+00 0.536E+00   -.134E-01 -.194E-01 0.165E+00
   -.599E+02 -.256E+01 0.244E+04   0.603E+02 0.125E+01 -.244E+04   -.446E+00 0.134E+01 -.268E+01   0.252E-01 0.207E-01 -.368E-02
   0.307E+02 -.138E+02 0.248E+04   -.306E+02 0.125E+02 -.247E+04   -.326E-01 0.139E+01 -.237E+01   -.146E-01 0.403E-01 0.314E-01
   0.228E+02 -.403E+01 0.248E+04   -.230E+02 0.456E+01 -.247E+04   0.183E+00 -.577E+00 -.292E+01   -.164E-01 0.101E-01 0.169E-01
   0.725E+01 0.519E+02 0.130E+04   -.639E+01 -.512E+02 -.130E+04   -.918E+00 -.708E+00 -.128E+00   0.220E-01 -.169E-01 0.190E+00
   0.337E+02 -.543E+02 0.129E+04   -.335E+02 0.540E+02 -.129E+04   -.111E+00 0.240E+00 -.400E+00   -.403E-01 0.393E-01 0.221E+00
   -.525E+02 -.274E+02 -.121E+04   0.526E+02 0.276E+02 0.121E+04   -.105E+00 -.240E+00 0.796E+00   -.328E-01 -.190E-01 0.152E+00
   -.934E+02 0.203E+02 0.248E+04   0.932E+02 -.201E+02 -.248E+04   0.255E+00 -.233E+00 -.263E+01   -.814E-02 -.206E-01 0.189E-01
   -.336E+02 0.463E+02 0.131E+04   0.327E+02 -.457E+02 -.131E+04   0.799E+00 -.540E+00 -.415E+00   0.133E-01 -.441E-01 0.214E+00
   -.462E+02 0.131E+01 -.282E+02   0.462E+02 -.877E+00 0.279E+02   0.961E-01 -.438E+00 -.115E+00   -.845E-02 -.333E-01 0.294E+00
   0.181E+02 -.868E+02 -.121E+04   -.182E+02 0.866E+02 0.121E+04   0.880E-01 0.245E+00 0.115E+01   -.325E-01 0.783E-02 0.149E+00
   0.159E+02 0.344E+02 -.121E+04   -.160E+02 -.344E+02 0.121E+04   0.825E-01 -.268E-01 0.465E+00   0.372E-01 -.198E-01 0.150E+00
   0.146E+02 -.466E+02 0.246E+04   -.153E+02 0.460E+02 -.245E+04   0.650E+00 0.656E+00 -.274E+01   -.139E-01 -.300E-02 0.263E-01
   0.442E+01 -.196E+02 0.276E+04   -.453E+01 0.198E+02 -.276E+04   0.992E-01 -.217E+00 -.231E+01   0.737E-02 -.511E-02 0.392E-02
   0.119E+03 0.289E+02 0.280E+04   -.120E+03 -.282E+02 -.279E+04   0.446E+00 -.726E+00 -.237E+01   -.121E-01 -.272E-01 0.244E-01
   -.374E+02 -.272E+02 0.144E+04   0.369E+02 0.262E+02 -.144E+04   0.427E+00 0.108E+01 -.454E+00   0.673E-02 0.324E-01 0.225E+00
   -.667E+02 0.667E+02 0.408E+02   0.668E+02 -.665E+02 -.420E+02   -.791E-01 -.175E+00 0.876E+00   -.593E-02 -.205E-01 0.351E+00
   -.893E+02 0.190E+02 0.142E+04   0.889E+02 -.185E+02 -.142E+04   0.485E+00 -.503E+00 -.139E+00   0.465E-01 -.208E-01 0.229E+00
   -.206E+02 0.948E+01 0.140E+04   0.208E+02 -.965E+01 -.140E+04   -.144E+00 0.284E+00 -.102E+00   0.109E-01 -.535E-01 0.252E+00
   0.558E+02 0.112E+02 -.137E+04   -.555E+02 -.114E+02 0.137E+04   -.416E+00 0.147E+00 0.131E+01   0.442E-01 0.543E-01 0.185E+00
   0.530E+02 -.806E+02 0.277E+04   -.528E+02 0.804E+02 -.277E+04   -.293E+00 0.241E+00 -.243E+01   -.148E-01 0.620E-01 0.262E-01
   -.144E+02 0.214E+01 0.139E+04   0.145E+02 -.192E+01 -.139E+04   -.105E+00 -.244E+00 -.428E+00   -.221E-03 -.451E-02 0.256E+00
   0.206E+02 -.665E+02 0.540E+01   -.198E+02 0.658E+02 -.548E+01   -.734E+00 0.622E+00 -.369E+00   -.508E-02 0.313E-01 0.329E+00
   0.309E+02 0.339E+02 0.345E+04   -.311E+02 -.331E+02 -.344E+04   0.118E+00 -.827E+00 -.358E+01   0.149E-01 -.763E-01 -.911E-02
   0.629E+02 0.705E+01 0.176E+04   -.630E+02 -.773E+01 -.176E+04   0.138E+00 0.689E+00 -.153E+00   -.322E-01 0.548E-02 0.302E+00
   0.103E+03 -.309E+02 0.173E+04   -.103E+03 0.308E+02 -.173E+04   -.306E+00 0.297E-01 0.296E+00   -.312E-01 0.330E-01 0.299E+00
   0.139E+02 0.775E+02 0.106E+03   -.145E+02 -.776E+02 -.107E+03   0.464E+00 -.153E+00 0.846E+00   0.578E-01 0.224E-01 0.378E+00
   0.499E+01 0.551E+02 -.167E+04   -.475E+01 -.548E+02 0.167E+04   -.336E+00 -.423E+00 0.157E+01   0.870E-01 0.591E-01 0.203E+00
[...]
   0.615E+02 -.422E+02 0.248E+02   -.609E+02 0.419E+02 -.256E+02   -.678E+00 0.313E+00 0.528E+00   -.142E-01 -.127E-01 0.371E+00
   -.742E+02 0.812E+00 0.156E+04   0.737E+02 -.633E+00 -.156E+04   0.407E+00 -.652E-01 -.878E-01   0.240E-01 -.485E-01 0.274E+00
   -.128E+02 0.188E+02 0.163E+04   0.131E+02 -.189E+02 -.163E+04   -.364E+00 0.203E+00 -.447E+00   -.190E-01 -.201E-01 0.267E+00
   -.101E+03 -.424E+01 0.309E+04   0.101E+03 0.434E+01 -.309E+04   -.549E+00 -.544E-01 -.136E+01   0.392E-01 -.927E-02 -.748E-03
   0.705E+02 -.525E+02 0.309E+04   -.708E+02 0.530E+02 -.309E+04   0.322E+00 -.517E+00 -.854E+00   -.261E-01 0.141E-01 0.256E-01
   0.156E+02 -.400E+02 0.156E+04   -.152E+02 0.398E+02 -.156E+04   -.390E+00 0.251E+00 -.268E-01   -.266E-01 0.454E-01 0.294E+00
   0.522E+02 0.192E+01 0.160E+04   -.517E+02 -.188E+01 -.161E+04   -.488E+00 0.356E-01 -.942E-01   -.168E-01 -.256E-01 0.276E+00
   -.413E+02 -.720E+02 -.153E+04   0.412E+02 0.721E+02 0.153E+04   0.925E-01 -.572E-01 0.874E+00   0.494E-01 0.179E-02 0.197E+00
   -.541E+02 0.295E+02 0.307E+04   0.545E+02 -.289E+02 -.307E+04   -.411E+00 -.576E+00 -.195E+01   0.165E-01 -.681E-01 0.155E-01
   -.458E+02 0.754E+02 0.982E+02   0.462E+02 -.752E+02 -.987E+02   -.372E+00 -.322E+00 0.769E-01   0.220E-01 0.297E-01 0.324E+00
   0.136E+01 0.631E+02 0.225E+02   -.148E+01 -.624E+02 -.231E+02   0.126E+00 -.775E+00 0.617E-03   -.672E-02 0.274E-01 0.381E+00
   0.480E+02 0.681E+01 -.110E+02   -.477E+02 -.621E+01 0.106E+02   -.419E+00 -.682E+00 -.293E-01   0.347E-03 0.566E-01 0.335E+00
   0.223E+02 -.500E+02 0.618E+02   -.226E+02 0.495E+02 -.624E+02   0.284E+00 0.473E+00 0.131E+00   -.645E-01 0.272E-01 0.381E+00
   0.187E+02 0.813E+01 -.199E+04   -.215E+02 -.102E+02 0.202E+04   0.263E+01 0.194E+01 -.302E+02   -.300E-01 -.173E-01 -.112E+00
   -.633E+01 -.398E+01 0.104E+02   0.252E-12 -.274E-12 0.227E-11   0.583E+01 0.374E+01 -.228E+02   0.485E+00 0.221E+00 0.124E+02

 POSITION                                       TOTAL-FORCE (eV/Angst)
     12.94151      8.03663      7.04248         0.005573      0.000121      0.001391
      5.10255      8.07133      6.94292         0.001399      0.001193      0.000429
      4.95748      3.44302      7.09581         0.006351     -0.000185     -0.000254
     14.36217      8.81565      9.31968         0.007814      0.006964     -0.002287
      3.73443      4.25762      9.42321         0.009005      0.001192     -0.005627
      6.41321      8.80285      9.27643         0.004483     -0.002041     -0.002330
     11.67746      4.22375      9.39462         0.009918      0.001979      0.007829
      9.02385      8.77872      9.17027         0.013504      0.003570      0.007892
     10.37586      1.94961      9.27327         0.008036      0.003414      0.003285
      2.43866      1.95132      9.26679         0.001582      0.003373      0.010586
     11.73784      8.79019      9.42845         0.016033      0.012618      0.000900
     13.00913      6.50616      9.39161         0.006963      0.001024     -0.003905
      5.09091      1.98818      9.42718         0.014812     -0.001182     -0.010558
      7.73755      6.52414      9.32343         0.005521      0.003586     -0.001178
      9.06471      4.24171      9.30949         0.009865      0.000791     -0.000279
      5.09041      6.51868      9.38748         0.010989      0.003126     -0.001689
      7.78337      1.96888      9.23895         0.016230      0.005615     -0.012007
      7.76797      3.43465      6.96798         0.001374      0.005193     -0.006606
      6.29985      1.12686      6.92716         0.004913      0.000179     -0.000123
      6.42858      1.12974      0.87872        -0.023409     -0.013102      0.001872
      3.70548      4.20844      2.81687         0.017548      0.031772     -0.011279
      1.17281      1.25376      6.90639         0.003435      0.000809     -0.001057
      1.13569      1.19080      0.72557        -0.000256      0.015868      0.003168
      6.43607      8.76100      2.90031         0.008633     -0.005884     -0.004015
      6.42954      4.25682      9.38601         0.010675     -0.002861     -0.000255
      7.68135      4.99073      4.81474        -0.042841     -0.007762     -0.015758
     10.34909      6.50437      9.30136         0.008547     -0.001021      0.008248
     14.26424      7.22593      4.86299        -0.000656     -0.027026      0.014328
     11.67434      5.69435      7.01477         0.001872      0.002334      0.001010
      6.40004      5.76492      6.99723         0.003799      0.003906      0.001357
      3.62119      2.56589      4.96023         0.170031      0.151564      0.119283
     10.36091      5.02430      4.85652        -0.000046     -0.019528     -0.039856
      3.75794      5.76630      7.16505         0.006624      0.000729     -0.000642
     12.96907      7.87977      0.92567        -0.003869      0.014706      0.007310
      5.16340      7.91719      0.83030         0.005034      0.024928      0.025457
      3.80701      5.74502      0.81381         0.000242     -0.007532     -0.017733
      7.79852      2.03245      2.83251        -0.018344     -0.014909     -0.009201
      9.07755      8.73373      2.85743         0.008756      0.007876      0.010520
      2.40174      3.51557      7.12927         0.003460     -0.001172      0.003596
      2.34409      3.49051      0.82510         0.013167      0.009303     -0.014138
     10.34814      1.96983      2.82249        -0.021400      0.001136      0.002944
     12.96035      4.98587      4.92559         0.024394     -0.009991     -0.022179
      3.74294      1.05873      7.04016         0.004764      0.004304      0.008745
      9.03317      5.76111      7.07750         0.006150      0.002197      0.001506
      3.74824      1.09182      0.86700        -0.010712      0.005163     -0.007587
      9.09121      5.71867      0.96043        -0.017504      0.020406     -0.016420
      5.12448      3.47045      0.85563        -0.007199      0.027584     -0.003167
     11.62092      8.68758      2.90590        -0.001172     -0.003976      0.012851
     11.65313      7.26450      4.84229         0.028693      0.027706      0.016969
     12.86756      6.45280      2.83379         0.011593     -0.007676      0.020316
      9.04201      4.20780      2.79628         0.015838      0.026659     -0.018123
      7.76785      7.99712      6.99343         0.008294      0.001933      0.008679
      7.81315      7.93922      0.88653        -0.005046      0.010753      0.000861
     10.39144      6.53566      2.82198         0.017077     -0.018421      0.024128
      2.51347      0.25826      5.00083         0.001709     -0.021047     -0.029245
      7.74264      3.48454      0.76157        -0.000855     -0.003062      0.004136
      5.07835      1.87760      2.91701         0.005207     -0.018272     -0.015902
      5.16037      6.44715      2.89923        -0.004548     -0.001626     -0.045998
      7.70892      0.45986      4.84799         0.001782     -0.068572      0.086755
      9.05811      1.18562      6.96459         0.004065      0.000876      0.002108
[...]
      9.07350      2.65252      4.91360         0.020186     -0.030062     -0.052644
      6.37169      2.66558      4.85827        -0.061640      0.008599      0.050932
     11.65891      4.17486      2.81483        -0.019510      0.002086     -0.024058
      2.44098      1.89237      2.83279        -0.011791      0.025295      0.005494
     11.64953      5.68621      0.88546         0.009017      0.032353     -0.003511
      6.44743      5.71949      0.92597         0.011961      0.008611      0.012530
      7.82927      6.50651      2.83621        -0.008084      0.024955     -0.012587
      6.41922      4.13007      2.78290        -0.026444      0.002715      0.005760
     10.37222      3.47151      7.04587         0.000243     -0.001325     -0.001183
     10.34410      3.45013      0.86804         0.008323     -0.018245     -0.015467
     10.37063      0.48410      4.87151        -0.008130     -0.018073     -0.019819
      9.04079      7.29017      4.93700        -0.022083     -0.010233     -0.035674
      6.46265      7.29503      4.94074         0.008829      0.003387     -0.036795
      5.04247      0.27633      4.88406        -0.018573     -0.001095     -0.017582
      5.53133      0.68969     10.86739        -0.209625     -0.121324     -0.004674
    total drift:                               -0.016645     -0.019956     -0.036650

  FREE ENERGIE OF THE ION-ELECTRON SYSTEM (eV)
  free  energy   TOTEN  =      -512.81300488 eV

  energy  without entropy=     -512.83865852  energy(sigma->0) =     -512.82155609

 d Force =-0.4620699E-03[-0.511E-03,-0.414E-03]  d Energy =-0.4761155E-03 0.140E-04
 d Force = 0.1680553E+02[ 0.168E+02, 0.168E+02]  d Ewald  = 0.1680553E+02-0.289E-06

 NEB: the previous image is higher in energy: T
 NEB: the next image is higher in energy    : F
 NEB: only prev energy greater

 NEB: Tangent
      0.00938      0.00737      0.01035
      0.00107      0.00379      0.00002
      0.00963      0.00143     -0.00157
     -0.00051      0.00730     -0.00170
      0.01418     -0.00327     -0.00774
      0.00574     -0.00426     -0.00334
      0.01608      0.00637      0.04040
      0.01880      0.00302      0.00570
      0.01617     -0.00147      0.02453
     -0.01911      0.00484      0.02531
      0.04488      0.02902     -0.00768
      0.00480     -0.00019      0.00054
      0.03496      0.00139     -0.05365
      0.00647     -0.00109      0.00372
      0.00927     -0.00591      0.00658
      0.01297     -0.00376     -0.00945
      0.04169     -0.00050     -0.06752
     -0.00368      0.01785     -0.02977
      0.00919      0.00286     -0.00336
      0.00000      0.00000      0.00000
      0.00000      0.00000      0.00000
      0.00432      0.00661      0.00081
      0.00000      0.00000      0.00000
      0.00000      0.00000      0.00000
      0.01777     -0.02389     -0.00256
      0.00000      0.00000      0.00000
      0.00963     -0.02328      0.02091
      0.00000      0.00000      0.00000
      0.00202      0.00373      0.00717
      0.00539      0.00871      0.00355
      0.00000      0.00000      0.00000
      0.00000      0.00000      0.00000
      0.00343     -0.00005     -0.00146
      0.00000      0.00000      0.00000
      0.00000      0.00000      0.00000
      0.00000      0.00000      0.00000
      0.00000      0.00000      0.00000
      0.00000      0.00000      0.00000
      0.00628     -0.00256      0.01671
      0.00000      0.00000      0.00000
      0.00000      0.00000      0.00000
      0.00000      0.00000      0.00000
      0.00308      0.01188      0.01140
      0.01117      0.01108      0.00873
      0.00000      0.00000      0.00000
      0.00000      0.00000      0.00000
      0.00000      0.00000      0.00000
      0.00000      0.00000      0.00000
      0.00000      0.00000      0.00000
      0.00000      0.00000      0.00000
      0.00000      0.00000      0.00000
      0.01337      0.01187      0.02172
      0.00000      0.00000      0.00000
      0.00000      0.00000      0.00000
      0.00000      0.00000      0.00000
      0.00000      0.00000      0.00000
      0.00000      0.00000      0.00000
      0.00000      0.00000      0.00000
      0.00000      0.00000      0.00000
      0.01397      0.00743     -0.01756
[...]
      0.00000      0.00000      0.00000
      0.00000      0.00000      0.00000
      0.00000      0.00000      0.00000
      0.00000      0.00000      0.00000
      0.00000      0.00000      0.00000
      0.00000      0.00000      0.00000
      0.00000      0.00000      0.00000
      0.00000      0.00000      0.00000
     -0.00153      0.00064      0.00953
      0.00000      0.00000      0.00000
      0.00000      0.00000      0.00000
      0.00000      0.00000      0.00000
      0.00000      0.00000      0.00000
      0.00000      0.00000      0.00000
     -0.86240     -0.48107     -0.00434

 NEB: forces: par spring, perp REAL, dneb     0.000273    0.036138    0.000000
 NEB: distance to prev, next image, angle between     0.580586    0.580641  150.195095
 NEB: projections on to tangent (spring, REAL)     0.000273    0.246498

 stress matrix after NEB project (eV)
    -28.67494      0.16350     -0.03496
      0.16350    -29.92411     -1.02810
     -0.03496     -1.02810     -0.60112
  FORCES: max atom, RMS     0.011352    0.004015
  FORCE total and by dimension    0.036139    0.008876
  Stress total and by dimension   41.475725   29.924107
 Quasi-Newton relaxation of ions (Broydens 2nd method)
  g(Force)  = 0.139E-03   g(Stress)= 0.000E+00

 retain information from N=  2 steps
 eigenvalues of (default step * inverse Hessian matrix)
  average eigenvalue of G=   5.2531
 eigenvalue spectrum of G is  5.2531  5.2531

 reached required accuracy - stopping structural energy minimisation