 vasp.5.4.4.18Apr17-6-g9f103f2a35 (build Oct 25 2019 11:13:22) complex

 executed on             LinuxIFC date 2021.11.08  09:22:38

 INCAR:
 POTCAR:    PAW_PBE Pt 04Feb2005
 POTCAR:    PAW_PBE Fe 06Sep2000
 POTCAR:    PAW_PBE Co 02Aug2007
 POTCAR:    PAW_PBE Cu 22Jun2005
 POTCAR:    PAW_PBE Ni 02Aug2007
 POTCAR:    PAW_PBE H 15Jun2001

 POTCAR:    PAW_PBE Pt 04Feb2005
   VRHFIN =Pt: s1d9

   TITEL  = PAW_PBE Pt 04Feb2005
   POMASS =  195.080; ZVAL   =   10.000    mass and valenz
   ENMAX  =  230.283; ENMIN  =  172.712 eV

 POTCAR:    PAW_PBE Fe 06Sep2000
   VRHFIN =Fe:  d7 s1

   TITEL  = PAW_PBE Fe 06Sep2000
   POMASS =   55.847; ZVAL   =    8.000    mass and valenz
   ENMAX  =  267.882; ENMIN  =  200.911 eV

 POTCAR:    PAW_PBE Co 02Aug2007
   VRHFIN =Co: d8 s1

   TITEL  = PAW_PBE Co 02Aug2007
   POMASS =   58.933; ZVAL   =    9.000    mass and valenz
   ENMAX  =  267.968; ENMIN  =  200.976 eV

 POTCAR:    PAW_PBE Cu 22Jun2005
   VRHFIN =Cu: d10 p1

   TITEL  = PAW_PBE Cu 22Jun2005
   POMASS =   63.546; ZVAL   =   11.000    mass and valenz
   ENMAX  =  295.446; ENMIN  =  221.585 eV

 POTCAR:    PAW_PBE Ni 02Aug2007
   VRHFIN =Ni:

   TITEL  = PAW_PBE Ni 02Aug2007
   POMASS =   58.690; ZVAL   =   10.000    mass and valenz
   ENMAX  =  269.532; ENMIN  =  202.149 eV

 POTCAR:    PAW_PBE H 15Jun2001
   VRHFIN =H: ultrasoft test

   TITEL  = PAW_PBE H 15Jun2001
   POMASS =    1.000; ZVAL   =    1.000    mass and valenz
   ENMAX  =  250.000; ENMIN  =  200.000 eV

 Optimization of the real space projectors (new method)

 maximal supplied QI-value         = 14.36
 optimisation between [QCUT,QGAM] = [ 11.92, 23.98] = [ 39.79,161.09] Ry
 Optimized for a Real-space Cutoff    1.49 Angstroem

   l    n(q)    QCUT    max X(q) W(low)/X(q) W(high)/X(q)  e(spline)
   2     10    11.920    66.195    0.79E-04    0.18E-03    0.24E-06
   2     10    11.920    64.643    0.81E-04    0.19E-03    0.24E-06
   0     11    11.920    95.520    0.28E-04    0.54E-04    0.18E-06
   0     11    11.920    63.403    0.27E-04    0.52E-04    0.17E-06
   1     10    11.920    19.961    0.18E-04    0.11E-03    0.23E-06
   1     10    11.920    13.289    0.25E-04    0.87E-04    0.19E-06
 Optimization of the real space projectors (new method)

[...]

   l    n(q)    QCUT    max X(q) W(low)/X(q) W(high)/X(q)  e(spline)
   2      9    11.864    60.317    0.21E-03    0.51E-03    0.25E-06
   2      9    11.864    55.921    0.21E-03    0.51E-03    0.26E-06
   0      9    11.864    51.690    0.22E-03    0.30E-04    0.17E-06
   0      9    11.864    30.015    0.20E-03    0.28E-04    0.15E-06
   1      9    11.864    18.849    0.76E-04    0.33E-03    0.17E-06
   1      9    11.864    14.624    0.60E-04    0.28E-03    0.15E-06
 Optimization of the real space projectors (new method)

 maximal supplied QI-value         = 34.20
 optimisation between [QCUT,QGAM] = [ 11.97, 23.94] = [ 40.13,160.53] Ry
 Optimized for a Real-space Cutoff    1.18 Angstroem

   l    n(q)    QCUT    max X(q) W(low)/X(q) W(high)/X(q)  e(spline)
   0      8    11.971    19.460    0.15E-03    0.31E-03    0.25E-06
   0      8    11.971    12.209    0.13E-03    0.29E-03    0.25E-06
   1      8    11.971     4.655    0.22E-03    0.24E-03    0.21E-06
  PAW_PBE Pt 04Feb2005                  :
  PAW_PBE Fe 06Sep2000                  :
  PAW_PBE Co 02Aug2007                  :
  PAW_PBE Cu 22Jun2005                  :
  PAW_PBE Ni 02Aug2007                  :
  PAW_PBE H 15Jun2001                   :

 POSCAR: 10.46-high
  positions in cartesian coordinates
 exchange correlation table for  LEXCH =        8
   RHO(1)=    0.500       N(1)  =     2000
   RHO(2)=  100.500       N(2)  =     4000

 ion  position               nearest neighbor table
   1  0.778  0.868  0.323-  23 2.59  65 2.60  33 2.62   3 2.64  32 2.68  56 2.69  41 2.70   2 2.73
                            15 2.75  40 2.85   8 2.90  16 2.95
   2  0.039  0.869  0.325-  26 2.59  34 2.60  58 2.62   3 2.64  41 2.66  38 2.67   1 2.73  32 2.74
                            10 2.75  79 2.76   8 2.82  20 2.99
   3  0.034  0.619  0.326-   6 2.62   2 2.64   1 2.64   4 2.65  50 2.68  32 2.70  33 2.72  34 2.72
                            68 2.74   9 2.80  16 2.87  20 2.97
   4  0.030  0.368  0.326-  77 2.58  26 2.60   3 2.65  33 2.65  50 2.67   6 2.70   5 2.70  36 2.73
                            11 2.78  42 2.82   9 2.84  14 2.94
   5  0.288  0.110  0.324-  58 2.53  65 2.56  61 2.60  26 2.61  23 2.62   4 2.70  12 2.72  36 2.73
                             6 2.73  39 2.74  17 2.86  14 2.97
   6  0.286  0.371  0.324-  23 2.61   3 2.62  22 2.65  34 2.68  68 2.68   4 2.70  71 2.71   5 2.73
                            36 2.73   9 2.83  17 2.84  29 3.00
   7  0.865  0.705  0.122-  43 2.51  74 2.52  60 2.55  55 2.56  45 2.63  56 2.63  69 2.65  64 2.66
                            72 2.66  32 2.67  25 2.69  50 2.75
   8  0.871  0.950  0.433-  20 2.60  16 2.61  21 2.61  15 2.62  10 2.63  13 2.63   2 2.82   1 2.90
                            41 2.95
   9  0.121  0.451  0.433-  11 2.62  16 2.62  20 2.62  29 2.63  17 2.63  14 2.63   3 2.80   6 2.83
                             4 2.84
  10  0.122  0.950  0.430-  12 2.60  14 2.61  18 2.61  13 2.62   8 2.63  20 2.63   2 2.75  58 2.84
                            26 2.85
  11  0.871  0.450  0.434-  19 2.59  13 2.60  31 2.61   9 2.62  16 2.62  14 2.63   4 2.78  33 2.89
                            77 2.90
  12  0.373  0.947  0.428-  18 2.58  31 2.60  10 2.60  15 2.62  17 2.64  14 2.64   5 2.72  65 2.73
                            58 2.77
  13  0.871  0.201  0.428-  19 2.60  11 2.60  21 2.62  10 2.62  14 2.62   8 2.63  26 2.80  41 2.82
                            77 2.82
  14  0.122  0.199  0.440-  10 2.61  17 2.62  13 2.62  11 2.63   9 2.63  12 2.64   4 2.94   5 2.97
                            26 3.05
  15  0.622  0.949  0.430-  16 2.60  31 2.61  17 2.61  12 2.62   8 2.62  21 2.63   1 2.75  23 2.85
                            65 2.87
  16  0.870  0.701  0.438-  15 2.60  20 2.61  31 2.61   8 2.61   9 2.62  11 2.62   3 2.87   1 2.95
                            33 3.00
  17  0.372  0.199  0.432-  15 2.61  21 2.62  29 2.62  14 2.62   9 2.63  12 2.64   6 2.84  23 2.84
                             5 2.86
  18  0.372  0.703  0.440-  81 1.82  12 2.58  31 2.60  10 2.61  19 2.65  20 2.65  29 2.65  34 2.87
                            51 2.89  58 3.02
  19  0.624  0.451  0.427-  11 2.59  31 2.60  13 2.60  21 2.63  18 2.65  29 2.66  51 2.70  22 2.73
                            77 2.73
  20  0.119  0.703  0.442-   8 2.60  16 2.61   9 2.62  10 2.63  18 2.65  29 2.66   3 2.97  34 2.98
                             2 2.99
  21  0.622  0.200  0.433-   8 2.61  29 2.61  13 2.62  17 2.62  15 2.63  19 2.63  41 2.89  22 2.89
                            23 2.90
  22  0.538  0.375  0.323-  77 2.53  51 2.57  34 2.59  41 2.61   6 2.65  30 2.65  70 2.69  23 2.70
                            19 2.73  71 2.76  21 2.89  29 3.04
  23  0.534  0.119  0.321-   1 2.59   6 2.61   5 2.62  41 2.64  65 2.69  71 2.69  22 2.70  40 2.76
                            39 2.78  17 2.84  15 2.85  21 2.90
  24  0.539  0.118  0.032-  63 2.57  46 2.57  55 2.58  66 2.61  43 2.64  52 2.64  54 2.65  62 2.68
                            67 2.68
  25  0.123  0.448  0.123-  54 2.50  48 2.52  73 2.58  63 2.59  45 2.60  76 2.63  64 2.63  36 2.65
                            68 2.66  72 2.67   7 2.69  50 2.77
  26  0.034  0.118  0.320-  61 2.58   2 2.59   4 2.60  41 2.60   5 2.61  58 2.66  79 2.66  77 2.66
                            42 2.68  13 2.80  10 2.85  14 3.05
  27  0.033  0.126  0.027-  48 2.58  78 2.61  52 2.61  73 2.61  66 2.61  49 2.62  28 2.64  59 2.70
                            44 2.70
  28  0.114  0.959  0.126-  79 2.57  73 2.59  44 2.60  69 2.61  59 2.62  49 2.63  47 2.63  38 2.64
                            27 2.64  61 2.66  64 2.67  35 2.74
  29  0.372  0.449  0.443-  81 1.71  21 2.61  17 2.62   9 2.63  18 2.65  20 2.66  19 2.66   6 3.00
                            34 3.00  22 3.04
  30  0.454  0.529  0.220-  71 2.56  70 2.57  76 2.60  68 2.61  57 2.62  35 2.65  37 2.65  22 2.65
                            80 2.66  38 2.69  34 2.77  51 2.82
  31  0.621  0.700  0.435-  12 2.60  18 2.60  19 2.60  15 2.61  16 2.61  11 2.61  51 2.81  33 2.82
                            65 2.89
  32  0.949  0.783  0.224-  50 2.58  56 2.60  68 2.62  64 2.65  79 2.66   7 2.67   1 2.68  40 2.69
                            38 2.70   3 2.70   2 2.74  69 2.74
  33  0.774  0.620  0.323-  51 2.50  65 2.54  77 2.55   1 2.62  50 2.64   4 2.65  37 2.66  56 2.71
                             3 2.72  31 2.82  11 2.89  16 3.00
  34  0.292  0.625  0.327-  51 2.52  58 2.53  22 2.59   2 2.60   6 2.68   3 2.72  38 2.73  30 2.77
                            68 2.81  18 2.87  20 2.98  29 3.00
  35  0.378  0.700  0.123-  53 2.48  59 2.53  75 2.54  60 2.57  57 2.59  47 2.60  30 2.65  64 2.68
                            76 2.68  80 2.70  38 2.73  28 2.74
  36  0.199  0.285  0.223-  73 2.61  71 2.61  61 2.62  50 2.63  63 2.63  68 2.63  25 2.65  42 2.65
                            39 2.69   5 2.73   6 2.73   4 2.73
  37  0.699  0.545  0.219-  56 2.52  80 2.54  60 2.55  50 2.57  72 2.60  57 2.61  30 2.65  33 2.66
                            42 2.68  70 2.69  77 2.73  51 2.80
  38  0.202  0.792  0.224-  61 2.52  80 2.58  58 2.59  79 2.62  28 2.64  64 2.66   2 2.67  68 2.69
                            30 2.69  32 2.70  34 2.73  35 2.73
  39  0.451  0.023  0.219-  80 2.50  61 2.53  47 2.53  56 2.54  55 2.55  63 2.60  40 2.68  65 2.69
                            36 2.69   5 2.74  71 2.75  23 2.78
  40  0.696  0.043  0.215-  46 2.54  69 2.56  70 2.57  71 2.59  55 2.59  79 2.61  56 2.68  39 2.68
                            32 2.69  41 2.75  23 2.76   1 2.85
  41  0.784  0.123  0.320-  26 2.60  77 2.60  22 2.61  70 2.63  23 2.64  79 2.64   2 2.66   1 2.70
                            40 2.75  13 2.82  21 2.89   8 2.95
  42  0.947  0.281  0.218-  49 2.52  79 2.55  70 2.55  72 2.57  73 2.62  36 2.65  61 2.67  26 2.68
                            50 2.68  37 2.68  77 2.72   4 2.82
  43  0.789  0.864  0.029-   7 2.51  69 2.56  45 2.62  67 2.63  24 2.64  55 2.64  74 2.65  66 2.67
                            44 2.67
  44  0.045  0.863  0.030-  75 2.54  45 2.58  64 2.58  28 2.60  59 2.60  69 2.61  43 2.67  66 2.70
                            27 2.70
  45  0.042  0.618  0.028-  75 2.52  54 2.57  44 2.58  25 2.60  64 2.61  43 2.62  48 2.62   7 2.63
                            74 2.72
  46  0.618  0.214  0.124-  76 2.47  57 2.50  40 2.54  49 2.54  62 2.55  70 2.55  24 2.57  71 2.62
                            66 2.63  69 2.64  63 2.64  55 2.85
  47  0.369  0.952  0.123-  52 2.46  59 2.49  55 2.52  39 2.53  67 2.56  73 2.60  35 2.60  60 2.60
                            63 2.62  28 2.63  61 2.71  80 2.74
  48  0.025  0.377  0.032-  72 2.47  74 2.50  25 2.52  78 2.55  73 2.57  27 2.58  45 2.62  52 2.75
                            54 2.76
  49  0.863  0.211  0.123-  78 2.46  57 2.51  72 2.52  42 2.52  46 2.54  66 2.59  70 2.60  27 2.62
                            28 2.63  69 2.63  79 2.65  73 2.68
  50  0.948  0.537  0.226-  37 2.57  32 2.58  56 2.61  36 2.63  33 2.64  68 2.65   4 2.67  42 2.68
[...]
      6.318192  5.657273  7.196885            0           0           0
      7.608368  6.338105  2.701617            0           0           0
      3.570795  2.579196  4.901762            0           0           0
     10.156428  4.936169  4.822298            0           0           0
      6.255588  7.172819  4.925673            0           0           0
      4.835716  0.206390  4.815478            0           0           0
      7.507131  0.386266  4.739423            0           0           0
      8.839690  1.112535  7.033450            0           0           0
     11.380678  2.548167  4.803738            0           0           0
     12.770488  7.830531  0.633320            0           0           0
      4.982628  7.814221  0.650337            0           0           0
      3.669646  5.596209  0.612247            0           0           0
      7.579688  1.938875  2.735304            0           0           0
      8.838755  8.623691  2.695591            0           0           0
      2.230602  3.411877  0.708775            0           0           0
     10.123894  1.908403  2.712351            0           0           0
     12.719051  4.860790  4.977551            0           0           0
      8.836503  5.640678  7.192076            0           0           0
      3.611159  1.030107  0.715746            0           0           0
      8.962440  5.550174  0.783586            0           0           0
      4.990107  3.393744  0.709460            0           0           0
     11.356853  8.542558  2.741032            0           0           0
     11.419743  7.116638  4.853119            0           0           0
      8.870541  4.077644  2.725148            0           0           0
      7.568315  7.849770  7.058294            0           0           0
      7.583454  7.864267  0.687861            0           0           0
     10.179788  6.397321  2.731078            0           0           0
[...]
     10.141670  7.810971  0.645866            0           0           0
      4.909237  4.847227  4.901839            0           0           0
     14.056726  8.675881  2.684563            0           0           0
      8.832903  2.589890  4.859003            0           0           0
      6.184535  2.605925  4.851696            0           0           0
     11.424000  4.064340  2.728447            0           0           0
      2.342315  1.830083  2.729215            0           0           0
     11.414307  5.560394  0.710474            0           0           0
      6.189591  5.580463  0.740954            0           0           0
      6.258266  4.024923  2.703874            0           0           0
     10.118760  3.380308  7.066411            0           0           0
     10.136941  3.379254  0.738921            0           0           0
     10.112477  0.340119  4.852238            0           0           0
      8.831820  7.102214  4.978755            0           0           0
      6.714072  5.271597 10.859305     0.062970    0.304762    0.950345

   2 f  =   21.226583 THz   133.370557 2PiTHz  708.042586 cm-1    87.786124 meV
             X         Y         Z           dx          dy          dz
     12.676400  7.862584  7.109386            0           0           0
      4.947369  7.869718  7.148534            0           0           0
      3.594700  5.608322  7.178504            0           0           0
      2.238879  3.335624  7.163125            0           0           0
      3.584149  0.992318  7.119232            0           0           0
      4.937797  3.361928  7.132103            0           0           0
     12.731512  6.386202  2.690597            0           0           0
     14.083550  8.605485  9.530269            0           0           0
      3.625449  4.089348  9.526822            0           0           0
      6.247613  8.609698  9.450228            0           0           0
     11.466607  4.077720  9.541509            0           0           0
      8.850521  8.578831  9.405429            0           0           0
     10.168248  1.823027  9.417545            0           0           0
      2.319390  1.806130  9.676189            0           0           0
     11.465939  8.598929  9.463607            0           0           0
     12.769413  6.352972  9.636737            0           0           0
      4.937512  1.806328  9.505632            0           0           0
      7.565788  6.364730  9.685122            0           0           0
      8.883567  4.085388  9.401294            0           0           0
      4.914865  6.363738  9.734086            0           0           0
      7.555275  1.814734  9.522526            0           0           0
      7.586037  3.395875  7.097824            0           0           0
      6.204728  1.077069  7.067616            0           0           0
      6.252151  1.069120  0.712476            0           0           0
      3.629947  4.060530  2.703952            0           0           0
      0.976741  1.070911  7.035832            0           0           0
      1.009994  1.144150  0.595390            0           0           0
      6.209486  8.689384  2.763651            0           0           0
      6.243070  4.064853  9.743266            0           0           0
      7.513452  4.796155  4.848780            0           0           0
     10.161309  6.342829  9.563629            0           0           0
     14.020167  7.090550  4.919448            0           0           0
     11.339089  5.614855  7.102964            0           0           0
      6.318192  5.657273  7.196885            0           0           0
      7.608368  6.338105  2.701617            0           0           0
      3.570795  2.579196  4.901762            0           0           0
     10.156428  4.936169  4.822298            0           0           0
      6.255588  7.172819  4.925673            0           0           0
      4.835716  0.206390  4.815478            0           0           0
      7.507131  0.386266  4.739423            0           0           0
      8.839690  1.112535  7.033450            0           0           0
     11.380678  2.548167  4.803738            0           0           0
     12.770488  7.830531  0.633320            0           0           0
      4.982628  7.814221  0.650337            0           0           0
      3.669646  5.596209  0.612247            0           0           0
      7.579688  1.938875  2.735304            0           0           0
      8.838755  8.623691  2.695591            0           0           0
      2.230602  3.411877  0.708775            0           0           0
     10.123894  1.908403  2.712351            0           0           0
     12.719051  4.860790  4.977551            0           0           0
      8.836503  5.640678  7.192076            0           0           0
      3.611159  1.030107  0.715746            0           0           0
      8.962440  5.550174  0.783586            0           0           0
      4.990107  3.393744  0.709460            0           0           0
     11.356853  8.542558  2.741032            0           0           0
     11.419743  7.116638  4.853119            0           0           0
      8.870541  4.077644  2.725148            0           0           0
      7.568315  7.849770  7.058294            0           0           0
      7.583454  7.864267  0.687861            0           0           0
     10.179788  6.397321  2.731078            0           0           0
[...]
     10.141670  7.810971  0.645866            0           0           0
      4.909237  4.847227  4.901839            0           0           0
     14.056726  8.675881  2.684563            0           0           0
      8.832903  2.589890  4.859003            0           0           0
      6.184535  2.605925  4.851696            0           0           0
     11.424000  4.064340  2.728447            0           0           0
      2.342315  1.830083  2.729215            0           0           0
     11.414307  5.560394  0.710474            0           0           0
      6.189591  5.580463  0.740954            0           0           0
      6.258266  4.024923  2.703874            0           0           0
     10.118760  3.380308  7.066411            0           0           0
     10.136941  3.379254  0.738921            0           0           0
     10.112477  0.340119  4.852238            0           0           0
      8.831820  7.102214  4.978755            0           0           0
      6.714072  5.271597 10.859305     0.472544    0.829626   -0.297360

   3 f/i=    0.811774 THz     5.100528 2PiTHz   27.077873 cm-1     3.357230 meV
             X         Y         Z           dx          dy          dz
     12.676400  7.862584  7.109386            0           0           0
      4.947369  7.869718  7.148534            0           0           0
      3.594700  5.608322  7.178504            0           0           0
      2.238879  3.335624  7.163125            0           0           0
      3.584149  0.992318  7.119232            0           0           0
      4.937797  3.361928  7.132103            0           0           0
     12.731512  6.386202  2.690597            0           0           0
     14.083550  8.605485  9.530269            0           0           0
      3.625449  4.089348  9.526822            0           0           0
      6.247613  8.609698  9.450228            0           0           0
     11.466607  4.077720  9.541509            0           0           0
      8.850521  8.578831  9.405429            0           0           0
     10.168248  1.823027  9.417545            0           0           0
      2.319390  1.806130  9.676189            0           0           0
     11.465939  8.598929  9.463607            0           0           0
     12.769413  6.352972  9.636737            0           0           0
      4.937512  1.806328  9.505632            0           0           0
      7.565788  6.364730  9.685122            0           0           0
      8.883567  4.085388  9.401294            0           0           0
      4.914865  6.363738  9.734086            0           0           0
      7.555275  1.814734  9.522526            0           0           0
      7.586037  3.395875  7.097824            0           0           0
      6.204728  1.077069  7.067616            0           0           0
      6.252151  1.069120  0.712476            0           0           0
      3.629947  4.060530  2.703952            0           0           0
      0.976741  1.070911  7.035832            0           0           0
      1.009994  1.144150  0.595390            0           0           0
      6.209486  8.689384  2.763651            0           0           0
      6.243070  4.064853  9.743266            0           0           0
      7.513452  4.796155  4.848780            0           0           0
     10.161309  6.342829  9.563629            0           0           0
     14.020167  7.090550  4.919448            0           0           0
     11.339089  5.614855  7.102964            0           0           0
      6.318192  5.657273  7.196885            0           0           0
      7.608368  6.338105  2.701617            0           0           0
      3.570795  2.579196  4.901762            0           0           0
     10.156428  4.936169  4.822298            0           0           0
      6.255588  7.172819  4.925673            0           0           0
      4.835716  0.206390  4.815478            0           0           0
      7.507131  0.386266  4.739423            0           0           0
      8.839690  1.112535  7.033450            0           0           0
     11.380678  2.548167  4.803738            0           0           0
     12.770488  7.830531  0.633320            0           0           0
      4.982628  7.814221  0.650337            0           0           0
      3.669646  5.596209  0.612247            0           0           0
      7.579688  1.938875  2.735304            0           0           0
      8.838755  8.623691  2.695591            0           0           0
      2.230602  3.411877  0.708775            0           0           0
     10.123894  1.908403  2.712351            0           0           0
     12.719051  4.860790  4.977551            0           0           0
      8.836503  5.640678  7.192076            0           0           0
      3.611159  1.030107  0.715746            0           0           0
      8.962440  5.550174  0.783586            0           0           0
      4.990107  3.393744  0.709460            0           0           0
     11.356853  8.542558  2.741032            0           0           0
     11.419743  7.116638  4.853119            0           0           0
      8.870541  4.077644  2.725148            0           0           0
      7.568315  7.849770  7.058294            0           0           0
      7.583454  7.864267  0.687861            0           0           0
     10.179788  6.397321  2.731078            0           0           0
[...]
     10.141670  7.810971  0.645866            0           0           0
      4.909237  4.847227  4.901839            0           0           0
     14.056726  8.675881  2.684563            0           0           0
      8.832903  2.589890  4.859003            0           0           0
      6.184535  2.605925  4.851696            0           0           0
     11.424000  4.064340  2.728447            0           0           0
      2.342315  1.830083  2.729215            0           0           0
     11.414307  5.560394  0.710474            0           0           0
      6.189591  5.580463  0.740954            0           0           0
      6.258266  4.024923  2.703874            0           0           0
     10.118760  3.380308  7.066411            0           0           0
     10.136941  3.379254  0.738921            0           0           0
     10.112477  0.340119  4.852238            0           0           0
      8.831820  7.102214  4.978755            0           0           0
      6.714072  5.271597 10.859305     0.879054   -0.467805    0.091772

 Finite differences POTIM=  1.500000000000000E-002
  LATTYP: Found a hexagonal cell.
 ALAT       =    10.4600000381
 C/A-ratio  =     2.1032504704

  Lattice vectors:

 A1 = (   5.2300000190,  -9.0586257566,   0.0000000000)
 A2 = ( -10.4600000381,   0.0000000000,   0.0000000000)
 A3 = (   0.0000000000,   0.0000000000, -22.0000000000)

Analysis of symmetry for initial positions (statically):
 Subroutine PRICEL returns:
 Original cell was already a primitive cell.

[...]

The static configuration has the point symmetry C_1 .

Analysis of symmetry for dynamics (positions and initial velocities):
 Subroutine PRICEL returns:
 Original cell was already a primitive cell.

[...]

The dynamic configuration has the point symmetry C_1 .

Analysis of constrained symmetry for selective dynamics:
 Subroutine PRICEL returns:
 Original cell was already a primitive cell.

[...]

The constrained configuration has the point symmetry C_1 .

Analysis of structural, dynamic, and magnetic symmetry:
 Subroutine PRICEL returns:
 Original cell was already a primitive cell.

 Routine SETGRP: Setting up the symmetry group for a
 hexagonal supercell.

 Subroutine GETGRP returns: Found  1 space group operations
 (whereof  1 operations were pure point group operations)
 out of a pool of 24 trial point group operations.

The magnetic configuration has the point symmetry C_1 .

 Subroutine INISYM returns: Found  1 space group operations
 (whereof  1 operations are pure point group operations),
 and found     1 'primitive' translations

 KPOINTS: mesh auto

Automatic generation of k-mesh.
Space group operators:
 irot       det(A)        alpha          n_x          n_y          n_z        tau_x        tau_y        tau_z
    1     1.000000     0.000000     1.000000     0.000000     0.000000     0.000000     0.000000     0.000000

 Subroutine IBZKPT returns following result:

 Found      4 irreducible k-points:

 Following reciprocal coordinates:
            Coordinates               Weight
  0.000000  0.000000  0.000000      1.000000
  0.500000 -0.000000  0.000000      1.000000
  0.000000  0.500000  0.000000      1.000000
  0.500000  0.500000  0.000000      1.000000

 Following cartesian coordinates:
            Coordinates               Weight
  0.000000  0.000000  0.000000      1.000000
  0.047801 -0.027598  0.000000      1.000000
  0.000000  0.055196  0.000000      1.000000
  0.047801  0.027598  0.000000      1.000000

 TETIRR: Found     12 inequivalent tetrahedra from       24
 BZINTS: Fermi energy:  2.595571;782.000000 electrons
         Band energy:-398.074421;  BLOECHL correction: -0.142180