 vasp.5.4.4.18Apr17-6-g9f103f2a35 (build Nov 30 2020 22:55:02) complex

 executed on             LinuxIFC date 2021.10.21  21:24:44

 INCAR:
 POTCAR:    PAW_PBE Pt 04Feb2005
 POTCAR:    PAW_PBE Pt 04Feb2005
   VRHFIN =Pt: s1d9

   TITEL  = PAW_PBE Pt 04Feb2005
   POMASS =  195.080; ZVAL   =   10.000    mass and valenz
   ENMAX  =  230.283; ENMIN  =  172.712 eV

 Optimization of the real space projectors (new method)

 maximal supplied QI-value         = 14.36
 optimisation between [QCUT,QGAM] = [ 11.92, 23.98] = [ 39.79,161.09] Ry
 Optimized for a Real-space Cutoff    1.49 Angstroem

   l    n(q)    QCUT    max X(q) W(low)/X(q) W(high)/X(q)  e(spline)
   2     10    11.920    66.195    0.79E-04    0.18E-03    0.24E-06
   2     10    11.920    64.643    0.81E-04    0.19E-03    0.24E-06
   0     11    11.920    95.520    0.28E-04    0.54E-04    0.18E-06
   0     11    11.920    63.403    0.27E-04    0.52E-04    0.17E-06
   1     10    11.920    19.961    0.18E-04    0.11E-03    0.23E-06
   1     10    11.920    13.289    0.25E-04    0.87E-04    0.19E-06
  PAW_PBE Pt 04Feb2005                  :

 POSCAR: Pt111
  positions in direct lattice
  velocities in cartesian coordinates
 exchange correlation table for  LEXCH =        8
   RHO(1)=    0.500       N(1)  =     2000
   RHO(2)=  100.500       N(2)  =     4000

 ion  position               nearest neighbor table
   1  0.783  0.870  0.326-  20 2.73  71 2.73  55 2.73  27 2.78  35 2.79  34 2.79  43 2.79  56 2.80
                            73 2.80   3 2.81  72 2.81   2 2.81
   2  0.033  0.871  0.327-  65 2.73  55 2.73  68 2.74  27 2.78  39 2.78  29 2.79  72 2.79   3 2.81
                            47 2.81  23 2.81   1 2.81  57 2.82
   3  0.034  0.620  0.327-  76 2.73  12 2.73  55 2.73  35 2.78  28 2.78  39 2.78   9 2.80  57 2.80
                             2 2.81   1 2.81  56 2.81  15 2.82
   4  0.788  0.867  0.024-  21 2.78  78 2.78  19 2.78  44 2.80   6 2.80  74 2.81  75 2.81  58 2.82
                             5 2.82
   5  0.039  0.866  0.024-  70 2.78  49 2.78  59 2.78  78 2.79  24 2.80   6 2.81  74 2.81   4 2.82
                            48 2.82
   6  0.037  0.617  0.024-  70 2.78  46 2.78  21 2.78  10 2.79   4 2.80   5 2.81  59 2.81  58 2.81
                            18 2.81
   7  0.620  0.202  0.126-  71 2.72  79 2.73  80 2.74  42 2.78  44 2.78  74 2.79  22 2.80  53 2.80
                            11 2.81  78 2.81  61 2.81  19 2.82
   8  0.370  0.952  0.126-  69 2.73  66 2.73  26 2.74  16 2.78  24 2.78  75 2.79  25 2.80  49 2.80
                            19 2.80  54 2.81  53 2.81  60 2.81
   9  0.035  0.370  0.327-  12 2.73  77 2.73  62 2.74  28 2.77  33 2.78  30 2.78   3 2.80  47 2.81
                            63 2.81  13 2.81  15 2.81  56 2.81
  10  0.038  0.368  0.024-  54 2.78  46 2.78  45 2.79   6 2.79  18 2.80  58 2.80  48 2.80  16 2.80
                            64 2.82
  11  0.870  0.202  0.127-  65 2.72  77 2.73  79 2.74  64 2.77  74 2.78  48 2.78  45 2.80  49 2.81
                             7 2.81  54 2.81  78 2.81  22 2.82
  12  0.951  0.536  0.227-   9 2.73  21 2.73   3 2.73  56 2.73  45 2.73  46 2.74  77 2.80  55 2.80
                            20 2.80  67 2.81  76 2.81  62 2.82
  13  0.285  0.119  0.327-  62 2.73  26 2.73  69 2.74  36 2.78  33 2.78  31 2.78  73 2.80  43 2.80
                            47 2.81   9 2.81  23 2.81  15 2.81
  14  0.534  0.619  0.327-  51 2.73  66 2.73  67 2.74  38 2.78  52 2.78  37 2.79  41 2.80  57 2.80
                            73 2.80  56 2.81  23 2.81  63 2.81
  15  0.285  0.370  0.327-  76 2.73  62 2.73  80 2.74  36 2.77  50 2.78  28 2.78  57 2.80  41 2.80
                            43 2.81   9 2.81  13 2.81   3 2.82
  16  0.288  0.118  0.024-   8 2.78  53 2.78  54 2.79  18 2.79  48 2.80  10 2.80  24 2.81  44 2.81
                            75 2.81
  17  0.537  0.617  0.023-  25 2.78  22 2.78  60 2.80  42 2.80  58 2.80  75 2.80  64 2.80  59 2.81
                            24 2.81
  18  0.288  0.367  0.024-  53 2.77  61 2.78  42 2.79  16 2.79  46 2.79  10 2.80  59 2.81  44 2.81
                             6 2.81
  19  0.620  0.951  0.126-  71 2.73  20 2.73  69 2.74  44 2.77  75 2.78   4 2.78  21 2.80  53 2.80
                             8 2.80  25 2.81  78 2.81   7 2.82
  20  0.700  0.786  0.226-   1 2.73  19 2.73  25 2.73  56 2.73  73 2.74  21 2.74  69 2.79  67 2.80
                            66 2.80  12 2.80  55 2.81  71 2.81
  21  0.869  0.701  0.127-  12 2.73  55 2.73  20 2.74   4 2.78  58 2.78   6 2.78  19 2.80  45 2.80
                            46 2.81  25 2.81  70 2.81  78 2.81
  22  0.619  0.452  0.126-  79 2.73  67 2.73  51 2.74  42 2.78  17 2.78  64 2.79   7 2.80  25 2.80
                            61 2.80  60 2.80  45 2.81  11 2.82
  23  0.283  0.870  0.327-  26 2.73  68 2.73  66 2.74  29 2.78  31 2.79  37 2.79  47 2.80  57 2.80
                            73 2.80   2 2.81  14 2.81  13 2.81
  24  0.288  0.868  0.023-   8 2.78  60 2.78  49 2.79  75 2.80   5 2.80  48 2.80  16 2.81  17 2.81
                            59 2.82
  25  0.618  0.702  0.126-  67 2.73  20 2.73  66 2.75  75 2.77  17 2.78  58 2.79   8 2.80  60 2.80
                            22 2.80  45 2.81  21 2.81  19 2.81
  26  0.203  0.036  0.227-  54 2.72  23 2.73  49 2.73  47 2.73  13 2.73   8 2.74  66 2.80  69 2.80
                            65 2.81  68 2.81  77 2.81  62 2.81
  27  0.865  0.953  0.429-   1 2.78   2 2.78  72 2.78  40 2.79  35 2.79  39 2.80  34 2.80  32 2.81
                            29 2.83
  28  0.117  0.453  0.429-   9 2.77   3 2.78  15 2.78  36 2.80  35 2.80  33 2.81  30 2.81  39 2.81
                            50 2.82
  29  0.117  0.954  0.429-  23 2.78  47 2.78   2 2.79  32 2.79  33 2.80  39 2.80  37 2.80  31 2.81
                            27 2.83
  30  0.867  0.453  0.429-  56 2.78  63 2.78   9 2.78  38 2.80  35 2.80  52 2.80  33 2.81  28 2.81
                            32 2.82
  31  0.368  0.953  0.430-  13 2.78  73 2.78  23 2.79  34 2.79  52 2.80  37 2.81  29 2.81  33 2.81
                            36 2.82
  32  0.867  0.202  0.429-  72 2.77  63 2.78  47 2.78  29 2.79  40 2.80  38 2.81  27 2.81  33 2.81
                            30 2.82
  33  0.117  0.203  0.429-   9 2.78  47 2.78  13 2.78  29 2.80  28 2.81  30 2.81  32 2.81  31 2.81
                            36 2.81
  34  0.616  0.952  0.430-  73 2.78  43 2.78  31 2.79   1 2.79  52 2.80  27 2.80  36 2.81  35 2.81
                            40 2.81
  35  0.867  0.703  0.429-   3 2.78  56 2.78   1 2.79  27 2.79  39 2.80  30 2.80  28 2.80  34 2.81
                            52 2.82
  36  0.367  0.204  0.430-  15 2.77  13 2.78  43 2.79  40 2.80  28 2.80  50 2.80  34 2.81  33 2.81
                            31 2.82
  37  0.366  0.703  0.430-  57 2.78  23 2.79  14 2.79  50 2.80  39 2.80  29 2.80  31 2.81  52 2.81
                            38 2.82
  38  0.618  0.453  0.430-  14 2.78  41 2.78  63 2.79  30 2.80  50 2.80  52 2.80  32 2.81  40 2.81
                            37 2.82
  39  0.116  0.705  0.430-   3 2.78  57 2.78   2 2.78  37 2.80  35 2.80  27 2.80  29 2.80  28 2.81
                            50 2.83
  40  0.618  0.202  0.429-  43 2.78  41 2.78  72 2.79  27 2.79  36 2.80  32 2.80  50 2.80  38 2.81
                            34 2.81
  41  0.535  0.369  0.327-  80 2.73  51 2.73  79 2.74  40 2.78  38 2.78  50 2.78  14 2.80  72 2.80
                            63 2.80  15 2.80  43 2.81  57 2.82
  42  0.536  0.368  0.024-   7 2.78  22 2.78  18 2.79  61 2.79  59 2.80  17 2.80  44 2.81  64 2.81
                            74 2.83
  43  0.535  0.119  0.327-  80 2.73  69 2.73  71 2.74  40 2.78  34 2.78  36 2.79   1 2.79  13 2.80
                            72 2.80  15 2.81  73 2.81  41 2.81
  44  0.539  0.117  0.024-  19 2.77   7 2.78  53 2.79   4 2.80  42 2.81  74 2.81  16 2.81  18 2.81
                            75 2.81
  45  0.869  0.452  0.127-  77 2.72  12 2.73  67 2.74  58 2.77  64 2.78  10 2.79  11 2.80  21 2.80
                            25 2.81  22 2.81  54 2.81  46 2.81
  46  0.120  0.452  0.127-  62 2.73  76 2.73  12 2.74  10 2.78   6 2.78  18 2.79  54 2.80  70 2.80
                            61 2.80  21 2.81  45 2.81  53 2.82
  47  0.035  0.120  0.326-  77 2.73  26 2.73  65 2.73  32 2.78  33 2.78  29 2.78  23 2.80  63 2.80
                             2 2.81   9 2.81  13 2.81  72 2.81
  48  0.038  0.118  0.024-  49 2.77  11 2.78  54 2.78  16 2.80  10 2.80  24 2.80  64 2.81  74 2.81
                             5 2.82
  49  0.120  0.952  0.127-  68 2.73  26 2.73  65 2.74  48 2.77   5 2.78  24 2.79  60 2.80   8 2.80
                            11 2.81  78 2.81  54 2.81  70 2.82
  50  0.369  0.453  0.430-  15 2.78  57 2.78  41 2.78  37 2.80  38 2.80  36 2.80  40 2.80  28 2.82
                            39 2.83
  51  0.451  0.536  0.227-  61 2.73  14 2.73  41 2.73  60 2.73  57 2.74  22 2.74  66 2.80  76 2.80
                            67 2.80  80 2.80  68 2.80  79 2.81
  52  0.616  0.703  0.430-  14 2.78  73 2.79  56 2.79  34 2.80  38 2.80  31 2.80  30 2.80  37 2.81
                            35 2.82
  53  0.371  0.201  0.127-  69 2.72  80 2.73  62 2.74  18 2.77  16 2.78  44 2.79  19 2.80   7 2.80
                            61 2.80  54 2.80   8 2.81  46 2.82
  54  0.121  0.202  0.127-  26 2.72  62 2.73  77 2.73  10 2.78  48 2.78  16 2.79  46 2.80  53 2.80
                             8 2.81  11 2.81  45 2.81  49 2.81
  55  0.951  0.786  0.227-  78 2.73  21 2.73   2 2.73   1 2.73   3 2.73  70 2.74  71 2.80  12 2.80
                            20 2.81  76 2.81  68 2.81  65 2.81
  56  0.784  0.620  0.327-  12 2.73  20 2.73  67 2.74  30 2.78  35 2.78  52 2.79  63 2.80   1 2.80
                            73 2.80  14 2.81   9 2.81   3 2.81
  57  0.284  0.620  0.327-  76 2.73  68 2.73  51 2.74  37 2.78  50 2.78  39 2.78  23 2.80  14 2.80
                            15 2.80   3 2.80   2 2.82  41 2.82
  58  0.787  0.616  0.024-  45 2.77  21 2.78  25 2.79  10 2.80  17 2.80  64 2.80  75 2.80   6 2.81
                             4 2.82
  59  0.287  0.618  0.024-  60 2.77  61 2.78   5 2.78  70 2.79  42 2.80   6 2.81  17 2.81  18 2.81
                            24 2.82
  60  0.369  0.702  0.126-  66 2.73  51 2.73  68 2.75  59 2.77  24 2.78  49 2.80  25 2.80  17 2.80
                            22 2.80  61 2.81  70 2.81   8 2.81
  61  0.369  0.452  0.127-  80 2.73  51 2.73  76 2.74  18 2.78  59 2.78  42 2.79  46 2.80  22 2.80
                            53 2.80  70 2.80  60 2.81   7 2.81
  62  0.203  0.286  0.227-  15 2.73  13 2.73  46 2.73  54 2.73   9 2.74  53 2.74  80 2.80  76 2.80
                            69 2.80  26 2.81  77 2.81  12 2.82
  63  0.785  0.370  0.326-  79 2.73  67 2.73  77 2.73  32 2.78  30 2.78  38 2.79  56 2.80  41 2.80
                            47 2.80   9 2.81  14 2.81  72 2.81
  64  0.787  0.367  0.024-  11 2.77  45 2.78  22 2.79  74 2.80  58 2.80  17 2.80  48 2.81  42 2.81
                            10 2.82
  65  0.952  0.036  0.226-  11 2.72   2 2.73  78 2.73  47 2.73  72 2.74  49 2.74  68 2.80  79 2.80
                            71 2.81  26 2.81  77 2.81  55 2.81
[...]
     0.000000000  0.000000000 22.000000000     0.000000000  0.000000000  0.045454545

  length of vectors
    11.222700119 11.222700119 22.000000000     0.102889726  0.102889726  0.045454545

 FORCES acting on ions
    electron-ion (+dipol)            ewald-force                    non-local-force                 convergence-correction
   -.102E+01 0.984E+00 -.132E+04   0.982E+00 -.979E+00 0.132E+04   0.721E-01 -.235E-01 0.784E+00   0.150E-03 0.721E-03 0.447E-02
   -.386E+00 0.150E+01 -.132E+04   0.356E+00 -.145E+01 0.132E+04   0.675E-01 -.113E+00 0.756E+00   0.480E-04 -.308E-05 0.548E-02
   0.192E+00 0.100E+00 -.133E+04   -.195E+00 -.743E-01 0.133E+04   -.679E-02 -.217E-01 0.708E+00   0.315E-03 -.612E-03 0.509E-02
   -.231E+01 0.728E+00 0.261E+04   0.230E+01 -.689E+00 -.261E+04   0.149E-01 -.526E-01 -.149E+01   -.523E-03 -.301E-03 -.321E-02
   0.226E+01 -.401E+01 0.261E+04   -.219E+01 0.389E+01 -.261E+04   -.127E+00 0.195E+00 -.148E+01   -.128E-02 -.726E-03 -.360E-02
   -.609E+00 0.332E+00 0.260E+04   0.576E+00 -.328E+00 -.260E+04   0.506E-01 0.102E-02 -.146E+01   -.994E-03 0.138E-03 -.320E-02
   -.654E+00 0.940E+00 0.133E+04   0.669E+00 -.928E+00 -.133E+04   -.374E-01 -.222E-01 -.731E+00   -.816E-03 0.975E-04 -.378E-02
   0.595E+00 -.113E+01 0.133E+04   -.595E+00 0.113E+01 -.133E+04   -.195E-01 0.118E-01 -.724E+00   0.128E-02 -.160E-03 -.329E-02
   0.199E-01 0.124E+00 -.133E+04   -.280E-01 -.119E+00 0.133E+04   0.348E-02 -.164E-01 0.713E+00   0.196E-03 -.834E-03 0.606E-02
   0.193E+01 0.122E+01 0.260E+04   -.186E+01 -.118E+01 -.260E+04   -.126E+00 -.583E-01 -.146E+01   -.192E-03 0.142E-02 -.354E-02
   0.911E-01 0.398E+00 0.133E+04   -.691E-01 -.396E+00 -.133E+04   -.477E-01 0.939E-02 -.723E+00   -.814E-03 0.115E-02 -.355E-02
   -.705E+00 0.823E+00 -.322E+01   0.684E+00 -.813E+00 0.324E+01   0.495E-01 -.279E-01 -.355E-01   -.410E-04 -.153E-03 0.177E-03
   0.113E+01 -.124E+01 -.133E+04   -.112E+01 0.124E+01 0.133E+04   -.255E-01 0.579E-02 0.704E+00   0.234E-03 0.118E-02 0.580E-02
   -.740E+00 0.334E+00 -.133E+04   0.718E+00 -.330E+00 0.133E+04   0.526E-01 0.161E-02 0.734E+00   -.172E-03 -.129E-02 0.543E-02
   0.891E+00 -.706E-01 -.133E+04   -.871E+00 0.787E-01 0.133E+04   -.335E-01 -.267E-01 0.697E+00   -.181E-03 -.932E-03 0.539E-02
   -.147E+00 -.710E+00 0.261E+04   0.136E+00 0.730E+00 -.260E+04   0.136E-01 -.480E-01 -.145E+01   0.975E-03 0.485E-03 -.356E-02
   0.142E+01 0.814E+00 0.261E+04   -.138E+01 -.840E+00 -.261E+04   -.648E-01 0.373E-01 -.142E+01   0.692E-03 -.903E-03 -.324E-02
   0.182E+01 -.138E+01 0.260E+04   -.176E+01 0.130E+01 -.260E+04   -.835E-01 0.115E+00 -.145E+01   0.269E-03 0.827E-04 -.331E-02
   -.122E+01 -.183E-01 0.133E+04   0.122E+01 0.772E-02 -.133E+04   -.194E-02 0.141E-01 -.701E+00   0.483E-03 -.146E-03 -.372E-02
   -.126E+01 0.565E+00 0.367E+01   0.124E+01 -.564E+00 -.368E+01   0.529E-01 -.138E-01 -.585E-02   0.393E-03 0.239E-03 -.378E-03
   -.431E+00 -.118E+00 0.133E+04   0.401E+00 0.112E+00 -.133E+04   0.385E-01 0.184E-01 -.720E+00   -.290E-03 0.824E-04 -.413E-02
   -.876E+00 0.939E+00 0.133E+04   0.850E+00 -.924E+00 -.133E+04   0.435E-01 -.905E-02 -.731E+00   -.570E-04 0.593E-03 -.394E-02
   0.170E+00 -.201E-01 -.133E+04   -.197E+00 0.257E-01 0.133E+04   0.628E-01 -.227E-01 0.738E+00   -.334E-03 0.399E-03 0.594E-02
   0.236E+01 -.957E+00 0.261E+04   -.231E+01 0.984E+00 -.261E+04   -.779E-01 -.402E-01 -.145E+01   0.521E-03 -.101E-02 -.375E-02
   -.164E+01 0.335E+00 0.133E+04   0.162E+01 -.341E+00 -.133E+04   0.485E-01 0.875E-02 -.705E+00   0.686E-03 -.724E-03 -.408E-02
   0.823E+00 -.128E+01 -.103E+01   -.820E+00 0.128E+01 0.103E+01   -.148E-01 0.201E-01 -.158E-01   0.664E-03 0.679E-03 0.147E-02
   -.337E+01 -.971E+00 -.260E+04   0.325E+01 0.952E+00 0.260E+04   0.190E+00 0.242E-01 0.146E+01   0.632E-03 0.460E-03 0.414E-02
   -.488E+00 -.518E+00 -.261E+04   0.453E+00 0.488E+00 0.261E+04   0.550E-01 0.433E-01 0.151E+01   -.363E-03 -.129E-02 0.395E-02
   0.310E+01 -.983E+00 -.261E+04   -.303E+01 0.101E+01 0.261E+04   -.102E+00 -.584E-01 0.146E+01   0.307E-03 0.590E-03 0.439E-02
   -.157E+01 0.267E+01 -.261E+04   0.153E+01 -.261E+01 0.261E+04   0.624E-01 -.945E-01 0.148E+01   0.726E-04 -.136E-02 0.400E-02
   0.262E+01 -.336E+01 -.261E+04   -.256E+01 0.331E+01 0.261E+04   -.108E+00 0.791E-01 0.145E+01   -.731E-03 0.114E-02 0.425E-02
   -.842E+00 -.103E+01 -.260E+04   0.819E+00 0.968E+00 0.260E+04   0.377E-01 0.925E-01 0.148E+01   0.742E-03 0.605E-03 0.412E-02
   0.221E+00 -.149E+01 -.261E+04   -.243E+00 0.148E+01 0.261E+04   0.358E-01 0.203E-01 0.149E+01   0.114E-03 0.376E-03 0.388E-02
   -.321E+01 -.108E+01 -.261E+04   0.310E+01 0.105E+01 0.261E+04   0.167E+00 0.507E-01 0.142E+01   -.213E-03 0.107E-02 0.398E-02
   0.132E+01 0.126E+01 -.261E+04   -.123E+01 -.127E+01 0.261E+04   -.134E+00 0.290E-02 0.146E+01   0.294E-03 -.711E-03 0.426E-02
   0.201E+01 0.316E+00 -.261E+04   -.198E+01 -.238E+00 0.261E+04   -.543E-01 -.118E+00 0.149E+01   -.753E-03 0.323E-03 0.346E-02
   -.106E+01 0.609E+00 -.261E+04   0.953E+00 -.600E+00 0.261E+04   0.164E+00 -.104E-01 0.145E+01   -.188E-03 -.209E-03 0.438E-02
   -.351E+00 0.212E+01 -.261E+04   0.388E+00 -.210E+01 0.261E+04   -.568E-01 -.305E-01 0.146E+01   0.181E-03 -.376E-03 0.388E-02
   0.727E+00 0.219E+01 -.261E+04   -.727E+00 -.211E+01 0.261E+04   0.523E-02 -.139E+00 0.147E+01   0.542E-03 -.101E-04 0.419E-02
   -.108E+01 -.509E+00 -.261E+04   0.108E+01 0.474E+00 0.260E+04   -.209E-02 0.564E-01 0.145E+01   -.977E-04 0.597E-03 0.373E-02
   0.696E+00 -.177E+00 -.133E+04   -.661E+00 0.160E+00 0.133E+04   -.634E-01 0.320E-01 0.727E+00   0.167E-04 -.214E-03 0.534E-02
   -.999E+00 0.352E+01 0.261E+04   0.952E+00 -.346E+01 -.261E+04   0.874E-01 -.106E+00 -.146E+01   0.430E-03 -.127E-04 -.340E-02
   -.115E+00 -.885E+00 -.132E+04   0.112E+00 0.874E+00 0.132E+04   0.163E-01 0.203E-01 0.730E+00   -.386E-03 0.773E-03 0.491E-02
   0.311E+00 -.165E+01 0.261E+04   -.261E+00 0.159E+01 -.261E+04   -.853E-01 0.952E-01 -.148E+01   0.739E-03 -.211E-03 -.329E-02
   -.419E+00 0.580E+00 0.133E+04   0.425E+00 -.578E+00 -.132E+04   -.421E-02 0.603E-02 -.723E+00   -.929E-04 0.125E-02 -.398E-02
   0.101E+01 0.372E+00 0.132E+04   -.998E+00 -.366E+00 -.132E+04   -.236E-01 -.129E-01 -.794E+00   -.186E-03 0.461E-03 -.359E-02
   -.126E-01 -.682E+00 -.132E+04   0.204E-01 0.689E+00 0.132E+04   -.155E-01 -.174E-01 0.733E+00   0.578E-03 0.785E-03 0.636E-02
   0.197E+01 -.284E+00 0.260E+04   -.193E+01 0.302E+00 -.260E+04   -.783E-01 -.359E-01 -.148E+01   -.241E-03 0.750E-03 -.415E-02
   0.923E+00 -.623E+00 0.133E+04   -.898E+00 0.615E+00 -.133E+04   -.442E-01 0.548E-02 -.733E+00   -.248E-03 -.931E-03 -.318E-02
   0.296E+01 -.827E+00 -.261E+04   -.289E+01 0.803E+00 0.261E+04   -.135E+00 0.411E-01 0.149E+01   0.118E-03 -.348E-03 0.380E-02
   0.316E+00 0.756E+00 -.261E+01   -.325E+00 -.744E+00 0.262E+01   0.177E-01 -.328E-01 -.186E-01   0.228E-03 -.728E-03 0.527E-03
   -.216E+01 0.189E+01 -.261E+04   0.213E+01 -.189E+01 0.261E+04   0.687E-01 -.105E-01 0.143E+01   -.637E-03 -.852E-03 0.439E-02
   0.912E+00 -.388E+00 0.132E+04   -.888E+00 0.373E+00 -.132E+04   -.691E-01 0.391E-01 -.755E+00   0.757E-03 0.391E-04 -.309E-02
   0.117E+01 0.204E+00 0.132E+04   -.113E+01 -.187E+00 -.132E+04   -.768E-01 -.362E-01 -.797E+00   0.863E-03 0.121E-02 -.312E-02
   -.679E+00 0.221E+00 0.134E+01   0.653E+00 -.208E+00 -.135E+01   0.654E-01 -.208E-01 0.277E-01   -.307E-03 -.893E-04 0.137E-03
   -.784E+00 0.787E+00 -.133E+04   0.764E+00 -.769E+00 0.133E+04   0.270E-01 -.176E-01 0.724E+00   -.215E-03 -.113E-02 0.492E-02
   0.736E+00 0.118E+00 -.133E+04   -.748E+00 -.944E-01 0.133E+04   0.281E-01 -.287E-01 0.689E+00   0.773E-04 -.527E-03 0.537E-02
   -.277E+01 0.137E+00 0.261E+04   0.276E+01 -.196E+00 -.261E+04   0.314E-01 0.101E+00 -.146E+01   0.946E-04 0.539E-04 -.318E-02
   0.155E+01 0.846E+00 0.261E+04   -.154E+01 -.827E+00 -.260E+04   -.351E-02 -.281E-01 -.144E+01   0.196E-03 -.677E-03 -.330E-02
   0.100E+01 -.124E+00 0.133E+04   -.100E+01 0.133E+00 -.133E+04   -.108E-01 -.936E-02 -.719E+00   0.365E-03 -.125E-02 -.364E-02
[...]
   -.179E+01 0.922E+00 0.192E+01   0.177E+01 -.912E+00 -.194E+01   0.707E-01 -.271E-01 0.459E-01   -.152E-03 -.377E-03 0.210E-03
   0.987E+00 -.508E+00 -.125E+01   -.101E+01 0.522E+00 0.125E+01   0.254E-01 -.129E-01 -.980E-02   -.559E-03 -.690E-03 0.695E-03
   0.381E+00 -.419E+00 0.945E+00   -.375E+00 0.419E+00 -.960E+00   -.217E-01 0.833E-02 0.328E-01   0.822E-03 0.832E-03 0.848E-03
   -.304E-01 -.697E+00 0.132E+04   0.204E-01 0.681E+00 -.132E+04   0.324E-01 0.252E-01 -.768E+00   -.757E-03 -.549E-03 -.342E-02
   -.824E+00 0.235E+00 0.771E+01   0.832E+00 -.226E+00 -.774E+01   0.202E-02 -.169E-01 0.644E-01   -.851E-03 0.503E-04 0.514E-03
   -.346E+00 -.607E+00 -.132E+04   0.337E+00 0.595E+00 0.132E+04   0.110E-01 0.338E-01 0.748E+00   -.435E-03 0.574E-03 0.533E-02
   -.539E+00 0.517E+00 -.132E+04   0.509E+00 -.523E+00 0.132E+04   0.687E-01 -.354E-02 0.743E+00   0.138E-03 0.975E-03 0.497E-02
   -.290E+00 -.100E+00 0.261E+04   0.345E+00 0.624E-01 -.261E+04   -.817E-01 0.558E-01 -.152E+01   -.147E-02 0.175E-03 -.394E-02
   -.178E+01 -.316E+01 0.261E+04   0.175E+01 0.309E+01 -.261E+04   0.492E-01 0.125E+00 -.145E+01   0.128E-02 -.702E-03 -.328E-02
   0.112E+01 0.135E+00 -.797E+01   -.113E+01 -.118E+00 0.801E+01   0.371E-02 -.284E-01 -.750E-01   -.333E-04 -.340E-03 0.446E-03
   -.490E+00 0.344E+00 0.171E+00   0.514E+00 -.321E+00 -.176E+00   -.280E-01 -.375E-01 0.107E-01   0.281E-03 0.978E-03 0.155E-02
   0.937E-01 -.556E+00 0.133E+04   -.715E-01 0.540E+00 -.133E+04   -.533E-01 0.347E-01 -.691E+00   -.151E-02 -.896E-03 -.369E-02
   -.488E+00 0.823E+00 0.363E+01   0.492E+00 -.811E+00 -.364E+01   -.144E-01 -.384E-01 0.156E-01   -.664E-03 0.818E-03 0.110E-02
   0.214E+00 -.974E-01 -.275E+01   -.194E+00 0.968E-01 0.276E+01   -.295E-01 -.215E-02 -.106E-01   -.974E-04 -.372E-03 0.107E-02
   0.129E-01 -.179E-01 -.356E-01   0.247E-12 0.402E-12 0.109E-11   -.611E-02 0.142E-01 -.665E-01   0.126E-04 -.194E-04 0.495E-01

 POSITION                                       TOTAL-FORCE (eV/Angst)
     13.66524      8.45158      7.17906         0.039074     -0.017351      0.053160
      5.25347      8.46315      7.18411         0.038295     -0.063922      0.037876
      3.86006      6.02746      7.19161        -0.008981      0.002411      0.012669
     13.70647      8.42861      0.52128         0.004327     -0.012655     -0.034293
      5.30176      8.41812      0.52607        -0.049978      0.074357     -0.037210
      3.88048      5.99917      0.53209         0.014762      0.004935     -0.047496
      8.09326      1.96190      2.78158        -0.024812     -0.009553     -0.032497
      9.49243      9.24801      2.78266        -0.019125      0.009986     -0.021315
      2.46642      3.59497      7.19056        -0.006472     -0.013229      0.014433
      2.49195      3.57720      0.53522        -0.046025     -0.019180     -0.049731
     10.90096      1.96183      2.78600        -0.026970      0.012131     -0.030803
     13.68078      5.21156      4.99258         0.028038     -0.018213     -0.016243
      3.86860      1.16017      7.19427        -0.011880      0.000949      0.011926
      9.46412      6.02038      7.19288         0.030234      0.004498      0.030666
      5.27698      3.59486      7.19577        -0.014377     -0.019092      0.008497
      3.89248      1.14758      0.52844         0.002410     -0.024736     -0.035832
      9.49305      5.99707      0.50870        -0.020263      0.010147      0.016699
      5.29288      3.56551      0.53681        -0.025940      0.036844     -0.064253
     12.29384      9.24475      2.77762        -0.005711      0.003312     -0.012989
     12.26982      7.63557      4.98184         0.032026     -0.013217     -0.007878
     13.68589      6.81711      2.78384         0.008016      0.012641     -0.019034
      9.47902      4.39320      2.78214         0.017541      0.006567     -0.031255
      8.06067      8.45349      7.19149         0.036720     -0.016036      0.026408
      8.10220      8.43636      0.51635        -0.027448     -0.011541     -0.006668
     10.87761      6.81811      2.77672         0.025375      0.001926     -0.004257
      2.47267      0.34653      4.98931        -0.011035      0.020465     -0.010172
     15.05861      9.26142      9.44089         0.068850      0.004960      0.053852
      3.86099      4.40518      9.44640         0.017395      0.011477      0.065148
      6.66378      9.27146      9.44778        -0.030131     -0.024890      0.036715
     12.27310      4.40714      9.44675         0.018217     -0.029974      0.037972
      9.47055      9.25878      9.45485        -0.042775      0.029932      0.028662
     10.86797      1.96543      9.43338         0.016576      0.032354      0.091457
      2.45451      1.97476      9.44640         0.014094      0.006415      0.044761
     12.25609      9.25548      9.44925         0.064925      0.016346      0.033820
     13.67962      6.83331      9.44745        -0.041739     -0.000593      0.037371
      5.26726      1.98154      9.45107        -0.026365     -0.037484      0.041465
      8.05445      6.83699      9.46012         0.050922     -0.001353      0.007168
      9.47605      4.40118      9.45158        -0.018308     -0.004157      0.024133
      5.25759      6.84802      9.45131         0.004353     -0.052803      0.026118
      8.06616      1.96558      9.44524        -0.000191      0.020583      0.040525
      8.08094      3.58796      7.18912        -0.027784      0.013924      0.021482
      8.08378      3.57670      0.52390         0.039269     -0.036980     -0.031143
      6.66791      1.15572      7.18646         0.013268      0.009685      0.020241
      6.70095      1.13334      0.52270        -0.033527      0.031282     -0.034277
     12.28992      4.39101      2.78648         0.002590      0.009323     -0.019864
      3.87900      4.39226      2.80112        -0.012154     -0.005405     -0.059398
      1.06107      1.16509      7.18125        -0.006626     -0.010002      0.028754
      1.09396      1.14783      0.53352        -0.035031     -0.015929     -0.060496
      6.69114      9.25047      2.78510        -0.019931     -0.003238     -0.030520
      6.67846      4.40319      9.45176        -0.054753      0.015022      0.046847
      8.07027      5.21178      4.99119         0.010601     -0.021699     -0.007837
     10.86235      6.83118      9.45550         0.028348     -0.010699      0.012353
      5.29260      1.95616      2.79210        -0.046122      0.023775     -0.044597
      2.48951      1.96556      2.79750        -0.039687     -0.017029     -0.059529
     15.07828      7.64019      4.98416         0.040639     -0.007987      0.016050
     12.27069      6.02297      7.18889         0.007150     -0.000766      0.020520
      6.66419      6.02712      7.19718         0.015493     -0.005413      0.006364
     12.29467      5.99163      0.51976         0.019396      0.039681     -0.025805
      6.68649      6.00202      0.52771         0.004513     -0.007904     -0.039964
      8.07922      6.82143      2.78082        -0.011393     -0.001707     -0.017655
[...]
      9.46622      7.63443      4.98568         0.030122      0.011791      0.002628
     10.87125      5.21138      4.98271         0.050239     -0.017727      0.024663
      6.66595      7.63983      4.98933         0.002797      0.000795     -0.004238
      5.27426      0.34322      4.98486        -0.015535      0.010231      0.019674
      5.27247      6.81808      2.79372         0.021219      0.009416     -0.045334
      8.07685      0.34759      4.97462         0.008541     -0.008521      0.038872
      9.47188      1.15866      7.17588         0.002921      0.021215      0.036300
     10.86167      8.44690      7.18621         0.041157     -0.008195      0.027156
      9.50866      1.13558      0.52722        -0.027244      0.017869     -0.052611
     10.89752      8.42185      0.51416         0.018837      0.045812     -0.020595
      5.26960      5.21183      5.00050        -0.005565     -0.011742     -0.035674
     12.29460      2.78332      4.98655        -0.005496     -0.013838      0.007548
     15.10564      9.24503      2.77854        -0.033014      0.018598     -0.008022
      9.48571      2.78191      4.98121        -0.012802     -0.025973      0.006514
      6.68394      2.77652      4.99095        -0.011053     -0.003561      0.003284
    total drift:                                0.006783     -0.003723     -0.052588

  FREE ENERGIE OF THE ION-ELECTRON SYSTEM (eV)
  free  energy   TOTEN  =      -513.16065633 eV

  energy  without entropy=     -513.15784191  energy(sigma->0) =     -513.15971819