 vasp.5.4.4.18Apr17-6-g9f103f2a35 (build Nov 06 2019 15:09:28) complex

 executed on             LinuxIFC date 2021.11.22  18:01:19

 INCAR:
 POTCAR:    PAW_PBE Pt 04Feb2005
 POTCAR:    PAW_PBE Fe 06Sep2000
 POTCAR:    PAW_PBE Co 02Aug2007
 POTCAR:    PAW_PBE Cu 22Jun2005
 POTCAR:    PAW_PBE Ni 02Aug2007
 POTCAR:    PAW_PBE H 15Jun2001
 POTCAR:    PAW_PBE Pt 04Feb2005
   VRHFIN =Pt: s1d9

   TITEL  = PAW_PBE Pt 04Feb2005
   POMASS =  195.080; ZVAL   =   10.000    mass and valenz
   ENMAX  =  230.283; ENMIN  =  172.712 eV

 POTCAR:    PAW_PBE Fe 06Sep2000
   VRHFIN =Fe:  d7 s1

   TITEL  = PAW_PBE Fe 06Sep2000
   POMASS =   55.847; ZVAL   =    8.000    mass and valenz
   ENMAX  =  267.882; ENMIN  =  200.911 eV

 POTCAR:    PAW_PBE Co 02Aug2007
   VRHFIN =Co: d8 s1

   TITEL  = PAW_PBE Co 02Aug2007
   POMASS =   58.933; ZVAL   =    9.000    mass and valenz
   ENMAX  =  267.968; ENMIN  =  200.976 eV

 POTCAR:    PAW_PBE Cu 22Jun2005
   VRHFIN =Cu: d10 p1

   TITEL  = PAW_PBE Cu 22Jun2005
   POMASS =   63.546; ZVAL   =   11.000    mass and valenz
   ENMAX  =  295.446; ENMIN  =  221.585 eV

 POTCAR:    PAW_PBE Ni 02Aug2007
   VRHFIN =Ni:

   TITEL  = PAW_PBE Ni 02Aug2007
   POMASS =   58.690; ZVAL   =   10.000    mass and valenz
   ENMAX  =  269.532; ENMIN  =  202.149 eV

 POTCAR:    PAW_PBE H 15Jun2001
   VRHFIN =H: ultrasoft test

   TITEL  = PAW_PBE H 15Jun2001
   POMASS =    1.000; ZVAL   =    1.000    mass and valenz
   ENMAX  =  250.000; ENMIN  =  200.000 eV

 Optimization of the real space projectors (new method)

 maximal supplied QI-value         = 14.36
 optimisation between [QCUT,QGAM] = [ 11.92, 23.98] = [ 39.79,161.09] Ry
 Optimized for a Real-space Cutoff    1.49 Angstroem

   l    n(q)    QCUT    max X(q) W(low)/X(q) W(high)/X(q)  e(spline)
   2     10    11.920    66.195    0.79E-04    0.18E-03    0.24E-06
   2     10    11.920    64.643    0.81E-04    0.19E-03    0.24E-06
   0     11    11.920    95.520    0.28E-04    0.54E-04    0.18E-06
   0     11    11.920    63.403    0.27E-04    0.52E-04    0.17E-06
   1     10    11.920    19.961    0.18E-04    0.11E-03    0.23E-06
   1     10    11.920    13.289    0.25E-04    0.87E-04    0.19E-06
 Optimization of the real space projectors (new method)

[...]

   l    n(q)    QCUT    max X(q) W(low)/X(q) W(high)/X(q)  e(spline)
   2      9    11.864    60.317    0.21E-03    0.51E-03    0.25E-06
   2      9    11.864    55.921    0.21E-03    0.51E-03    0.26E-06
   0      9    11.864    51.690    0.22E-03    0.30E-04    0.17E-06
   0      9    11.864    30.015    0.20E-03    0.28E-04    0.15E-06
   1      9    11.864    18.849    0.76E-04    0.33E-03    0.17E-06
   1      9    11.864    14.624    0.60E-04    0.28E-03    0.15E-06
 Optimization of the real space projectors (new method)

 maximal supplied QI-value         = 34.20
 optimisation between [QCUT,QGAM] = [ 11.97, 23.94] = [ 40.13,160.53] Ry
 Optimized for a Real-space Cutoff    1.18 Angstroem

   l    n(q)    QCUT    max X(q) W(low)/X(q) W(high)/X(q)  e(spline)
   0      8    11.971    19.460    0.15E-03    0.31E-03    0.25E-06
   0      8    11.971    12.209    0.13E-03    0.29E-03    0.25E-06
   1      8    11.971     4.655    0.22E-03    0.24E-03    0.21E-06
  PAW_PBE Pt 04Feb2005                  :
  PAW_PBE Fe 06Sep2000                  :
  PAW_PBE Co 02Aug2007                  :
  PAW_PBE Cu 22Jun2005                  :
  PAW_PBE Ni 02Aug2007                  :
  PAW_PBE H 15Jun2001                   :

 POSCAR: Pt   Fe   Co   Cu   Ni   H
  positions in direct lattice
 exchange correlation table for  LEXCH =        8
   RHO(1)=    0.500       N(1)  =     2000
   RHO(2)=  100.500       N(2)  =     4000

 VTST: version 3.2, (02/03/18)

 CHAIN: initializing optimizer

 OPT: Using VASP QUASI-newton optimizer
 CHAIN: Read ICHAIN            0
 CHAIN: Running the NEB
 NEB:          SPRING     -5.000000
 NEB:          LCLIMB      T
 NEB:     LTANGENTOLD      F
 NEB:           LDNEB      F
 NEB:        LDNEBORG      F
 NEB:        LNEBCELL      F
 NEB:          EFIRST      0.000000
 NEB:           ELAST      0.000000

 POSCAR: Pt   Fe   Co   Cu   Ni   H
  positions in direct lattice

 POSCAR: Pt   Fe   Co   Cu   Ni   H
  positions in direct lattice

 ion  position               nearest neighbor table
   1  0.786  0.879  0.317-  49 2.62  28 2.62  19 2.64  59 2.65  61 2.65  33 2.66  29 2.67  60 2.68
                             2 2.72  11 2.77   4 2.81  12 2.85
   2  0.042  0.883  0.316-  79 2.54  77 2.59  60 2.62  30 2.65  28 2.65  52 2.66  33 2.68  22 2.69
                             1 2.72   6 2.75   4 2.83  16 2.90
   3  0.278  0.381  0.320-  39 2.54  33 2.58  64 2.58  31 2.64  19 2.70  43 2.71  30 2.72  68 2.74
                            18 2.82   5 2.83  13 2.83  25 2.84
   4  0.874  0.962  0.424-   9 2.63  17 2.63   6 2.64  11 2.64  16 2.65  12 2.65  60 2.81   1 2.81
                             2 2.83
   5  0.122  0.464  0.431-  81 1.74  16 2.62  12 2.62   7 2.66  25 2.67  10 2.69  13 2.71  39 2.78
                            33 2.78   3 2.83
   6  0.125  0.961  0.421-  10 2.62  14 2.64   8 2.64   4 2.64  16 2.64   9 2.65   2 2.75  52 2.78
                            22 2.86
   7  0.872  0.461  0.428-  15 2.61   9 2.64  27 2.64  12 2.65   5 2.66  10 2.66  39 2.69  75 2.78
                            29 2.81
   8  0.375  0.958  0.420-  43 2.60  14 2.60  27 2.61   6 2.64  11 2.65  13 2.65  10 2.65  52 2.68
                            61 2.71
   9  0.873  0.211  0.420-  17 2.62   4 2.63  15 2.63   7 2.64  10 2.64   6 2.65  75 2.69  60 2.71
                            22 2.80
  10  0.124  0.209  0.425-  81 1.71   6 2.62   9 2.64   8 2.65   7 2.66  13 2.67   5 2.69  39 2.70
                            43 2.76  22 2.80
  11  0.625  0.960  0.424-  13 2.62  12 2.62  27 2.64   4 2.64   8 2.65  17 2.65   1 2.77  19 2.83
                            61 2.85
  12  0.873  0.712  0.427-   5 2.62  11 2.62  16 2.64   4 2.65  27 2.65   7 2.65  33 2.70  29 2.83
                             1 2.85
  13  0.377  0.208  0.427-  11 2.62  17 2.63   8 2.65  10 2.67  25 2.67   5 2.71  43 2.81   3 2.83
                            19 2.83
  14  0.375  0.712  0.424-   8 2.60  27 2.61   6 2.64  25 2.64  15 2.64  16 2.66  44 2.71  30 2.77
                            52 2.78
  15  0.625  0.461  0.423-   7 2.61  27 2.63   9 2.63  25 2.64  14 2.64  17 2.65  44 2.70  75 2.72
                            18 2.76
  16  0.124  0.711  0.426-   5 2.62  25 2.64   6 2.64  12 2.64   4 2.65  14 2.66  33 2.68  30 2.82
                             2 2.90
  17  0.625  0.211  0.422-   9 2.62   4 2.63  13 2.63  11 2.65  15 2.65  25 2.65  18 2.76  60 2.78
                            19 2.85
  18  0.548  0.375  0.317-  67 2.56  60 2.59  75 2.61  68 2.65  44 2.65  26 2.66  30 2.70  19 2.72
                            17 2.76  15 2.76   3 2.82  25 2.87
  19  0.533  0.125  0.316-  43 2.56  80 2.56  68 2.58  59 2.62   1 2.64  61 2.64   3 2.70  18 2.72
                            60 2.76  11 2.83  13 2.83  17 2.85
  20  0.547  0.124  0.040-  37 2.55  57 2.56  48 2.58  62 2.64  63 2.68  47 2.68  45 2.68  56 2.70
                            34 2.71
  21  0.121  0.460  0.128-  40 2.52  36 2.53  47 2.53  42 2.60  69 2.61  64 2.62  70 2.64  50 2.64
                            58 2.67  31 2.70  57 2.71  74 2.72
  22  0.043  0.138  0.314-  65 2.52  55 2.54  39 2.57  43 2.57  77 2.58  75 2.60  60 2.69   2 2.69
                            52 2.73  10 2.80   9 2.80   6 2.86  31 3.39
  23  0.042  0.130  0.033-  70 2.58  40 2.60  41 2.61  45 2.62  62 2.64  76 2.64  24 2.69  35 2.73
                            53 2.78
  24  0.130  0.958  0.132-  79 2.51  77 2.54  35 2.57  53 2.57  55 2.58  70 2.62  38 2.64  58 2.64
                            73 2.65  23 2.69  66 2.70  41 2.72
  25  0.375  0.462  0.426-  15 2.64  16 2.64  14 2.64  17 2.65   5 2.67  13 2.67  30 2.83   3 2.84
                            18 2.87
  26  0.455  0.546  0.219-  73 2.50  74 2.54  51 2.56  79 2.61  64 2.63  30 2.65  18 2.66  68 2.67
                            78 2.67  32 2.68  67 2.72  44 2.75
  27  0.623  0.711  0.424-  14 2.61   8 2.61  15 2.63  11 2.64   7 2.64  12 2.65  44 2.70  61 2.78
                            29 2.79
  28  0.956  0.790  0.221-  58 2.57  66 2.57  50 2.58  42 2.59  49 2.61   1 2.62  64 2.63   2 2.65
                            59 2.70  33 2.72  79 2.76  77 2.77
  29  0.795  0.622  0.319-  39 2.54  42 2.55  75 2.57  32 2.62  33 2.64  44 2.65   1 2.67  61 2.68
                            49 2.69  27 2.79   7 2.81  12 2.83
  30  0.291  0.631  0.318-  79 2.56  64 2.60  52 2.62  44 2.62  26 2.65   2 2.65  33 2.66  18 2.70
                             3 2.72  14 2.77  16 2.82  25 2.83
  31  0.203  0.281  0.225-  70 2.52  55 2.56  65 2.57  43 2.60  57 2.60   3 2.64  39 2.69  80 2.70
                            21 2.70  42 2.71  68 2.75  64 2.79  22 3.39
  32  0.706  0.549  0.221-  54 2.53  69 2.56  51 2.58  49 2.59  42 2.60  29 2.62  78 2.62  65 2.63
                            26 2.68  75 2.69  44 2.70  67 2.70
  33  0.040  0.631  0.325-   3 2.58  39 2.63  29 2.64   1 2.66  30 2.66  16 2.68   2 2.68  12 2.70
                            64 2.70  28 2.72  42 2.73   5 2.78
  34  0.797  0.862  0.042-  50 2.38  66 2.51  48 2.53  36 2.55  71 2.56  63 2.61  20 2.71  35 2.76
                            62 2.76
  35  0.056  0.866  0.038-  58 2.54  72 2.55  36 2.56  24 2.57  66 2.62  53 2.65  23 2.73  62 2.73
                            34 2.76
  36  0.046  0.628  0.037-  21 2.53  34 2.55  35 2.56  58 2.58  50 2.61  47 2.63  72 2.64  40 2.69
                            71 2.72
  37  0.627  0.222  0.129-  51 2.51  74 2.51  67 2.52  56 2.53  41 2.55  20 2.55  68 2.56  59 2.56
                            62 2.59  66 2.66  57 2.73  48 2.89
  38  0.382  0.955  0.130-  53 2.47  80 2.48  45 2.49  78 2.53  48 2.54  73 2.55  63 2.55  54 2.56
                            55 2.59  57 2.62  24 2.64  70 2.67
  39  0.036  0.383  0.326-  29 2.54   3 2.54  22 2.57  75 2.59  33 2.63  42 2.69  31 2.69   7 2.69
                            10 2.70   5 2.78  65 2.78  43 2.79
  40  0.031  0.382  0.038-  69 2.44  21 2.52  71 2.53  76 2.56  70 2.57  23 2.60  36 2.69  45 2.78
                            47 2.78
  41  0.872  0.215  0.128-  76 2.45  65 2.52  77 2.53  67 2.54  37 2.55  69 2.57  62 2.57  51 2.59
                            23 2.61  70 2.65  66 2.66  24 2.72
  42  0.955  0.545  0.224-  29 2.55  50 2.56  28 2.59  21 2.60  32 2.60  69 2.61  49 2.63  65 2.64
                            64 2.65  39 2.69  31 2.71  33 2.73
  43  0.296  0.116  0.321-  52 2.53  55 2.54  19 2.56  61 2.57  22 2.57  31 2.60   8 2.60  80 2.66
                             3 2.71  10 2.76  39 2.79  13 2.81
  44  0.540  0.630  0.322-  61 2.56  52 2.58  30 2.62  78 2.64  29 2.65  18 2.65  75 2.66  32 2.70
                            15 2.70  27 2.70  14 2.71  26 2.75
  45  0.295  0.119  0.039-  70 2.49  38 2.49  57 2.57  53 2.60  23 2.62  63 2.64  20 2.68  47 2.75
                            40 2.78
  46  0.548  0.625  0.044-  51 2.38  73 2.39  54 2.41  71 2.56  53 2.56  63 2.58  76 2.59  56 2.62
                            72 2.64
[...]
   0.212E+02 -.654E+02 -.827E+02   -.221E+02 0.648E+02 0.830E+02   0.978E+00 0.538E+00 -.170E+00   -.441E-02 -.252E-02 0.134E-01
   -.236E+02 -.217E+02 0.532E+01   0.243E+02 0.223E+02 -.606E+01   -.837E+00 -.729E+00 0.678E+00   0.311E-01 0.421E-02 0.303E-01
   0.197E+02 0.219E+02 -.125E+04   -.198E+02 -.223E+02 0.125E+04   0.119E+00 0.454E+00 0.615E+00   -.127E-01 -.203E-02 0.133E-01
   -.598E+02 -.267E+01 0.244E+04   0.601E+02 0.139E+01 -.244E+04   -.395E+00 0.132E+01 -.268E+01   0.857E-02 -.548E-02 0.142E-01
   0.305E+02 -.141E+02 0.247E+04   -.304E+02 0.127E+02 -.247E+04   -.733E-01 0.148E+01 -.230E+01   -.687E-02 -.234E-02 0.147E-02
   0.229E+02 -.383E+01 0.247E+04   -.230E+02 0.442E+01 -.247E+04   0.129E+00 -.628E+00 -.286E+01   -.534E-03 0.154E-02 0.879E-02
   0.729E+01 0.518E+02 0.129E+04   -.639E+01 -.511E+02 -.129E+04   -.946E+00 -.699E+00 -.113E+00   -.582E-02 -.224E-01 0.735E-02
   0.337E+02 -.549E+02 0.128E+04   -.336E+02 0.546E+02 -.128E+04   -.124E+00 0.243E+00 -.427E+00   0.855E-02 0.307E-01 0.108E-01
   -.599E+02 -.213E+02 -.126E+04   0.601E+02 0.214E+02 0.126E+04   -.135E+00 -.189E+00 0.889E+00   0.336E-03 0.479E-02 0.164E-01
   -.934E+02 0.206E+02 0.248E+04   0.931E+02 -.203E+02 -.248E+04   0.274E+00 -.246E+00 -.263E+01   0.115E-01 -.194E-02 0.532E-02
   -.341E+02 0.461E+02 0.130E+04   0.333E+02 -.456E+02 -.130E+04   0.814E+00 -.535E+00 -.418E+00   0.104E-01 -.164E-01 0.119E-01
   -.439E+02 0.646E+01 -.462E+02   0.437E+02 -.606E+01 0.462E+02   0.203E+00 -.471E+00 -.813E-01   -.228E-03 0.886E-02 0.705E-02
   0.183E+02 -.882E+02 -.125E+04   -.185E+02 0.880E+02 0.125E+04   0.197E+00 0.195E+00 0.120E+01   -.637E-02 0.112E-01 -.223E-02
   0.120E+02 0.298E+02 -.124E+04   -.122E+02 -.298E+02 0.124E+04   0.120E+00 -.341E-01 0.442E+00   0.119E-01 0.747E-03 0.152E-01
   0.146E+02 -.466E+02 0.245E+04   -.153E+02 0.459E+02 -.245E+04   0.686E+00 0.701E+00 -.275E+01   0.754E-03 0.864E-02 0.130E-02
   0.439E+01 -.196E+02 0.276E+04   -.447E+01 0.198E+02 -.275E+04   0.912E-01 -.232E+00 -.234E+01   -.750E-03 0.233E-02 -.252E-01
   0.119E+03 0.292E+02 0.279E+04   -.120E+03 -.285E+02 -.279E+04   0.446E+00 -.703E+00 -.236E+01   -.122E-01 -.208E-02 -.239E-02
   -.361E+02 -.279E+02 0.142E+04   0.356E+02 0.269E+02 -.142E+04   0.437E+00 0.111E+01 -.467E+00   0.128E-01 -.343E-04 0.248E-01
   -.597E+02 0.674E+02 0.241E+02   0.597E+02 -.673E+02 -.250E+02   -.573E-01 -.244E+00 0.805E+00   0.195E-01 0.931E-02 0.979E-02
   -.886E+02 0.195E+02 0.141E+04   0.881E+02 -.191E+02 -.141E+04   0.521E+00 -.494E+00 -.104E+00   0.156E-01 0.481E-02 0.180E-01
   -.209E+02 0.960E+01 0.139E+04   0.211E+02 -.980E+01 -.139E+04   -.149E+00 0.284E+00 -.960E-01   0.873E-02 -.287E-01 0.177E-01
   0.465E+02 0.631E+01 -.140E+04   -.463E+02 -.650E+01 0.139E+04   -.285E+00 0.229E+00 0.147E+01   -.495E-02 0.660E-02 0.982E-02
   0.529E+02 -.808E+02 0.277E+04   -.526E+02 0.806E+02 -.276E+04   -.350E+00 0.189E+00 -.241E+01   -.151E-01 0.282E-01 -.127E-01
   -.138E+02 0.200E+01 0.138E+04   0.139E+02 -.180E+01 -.138E+04   -.109E+00 -.252E+00 -.442E+00   0.494E-01 0.201E-01 0.286E-01
   0.185E+02 -.706E+02 -.173E+02   -.177E+02 0.701E+02 0.176E+02   -.774E+00 0.607E+00 -.330E+00   -.246E-03 0.157E-01 0.556E-02
   0.309E+02 0.340E+02 0.344E+04   -.310E+02 -.332E+02 -.344E+04   0.134E+00 -.845E+00 -.358E+01   -.250E-01 -.228E-01 -.174E-01
   0.636E+02 0.805E+01 0.174E+04   -.638E+02 -.870E+01 -.174E+04   0.132E+00 0.694E+00 -.179E+00   -.929E-02 -.108E-01 0.800E-02
   0.102E+03 -.311E+02 0.172E+04   -.102E+03 0.310E+02 -.172E+04   -.207E+00 0.993E-02 0.429E-01   -.359E-01 0.819E-02 0.229E-02
   0.165E+02 0.696E+02 0.849E+02   -.171E+02 -.695E+02 -.856E+02   0.584E+00 -.182E+00 0.681E+00   -.527E-02 -.247E-01 0.259E-02
   0.130E+02 0.539E+02 -.171E+04   -.126E+02 -.534E+02 0.170E+04   -.461E+00 -.456E+00 0.152E+01   0.125E-01 -.186E-01 -.119E-02
[...]
   0.601E+02 -.386E+02 0.473E+00   -.594E+02 0.381E+02 -.829E+00   -.709E+00 0.498E+00 0.423E+00   -.165E-01 -.189E-01 0.960E-02
   -.741E+02 0.167E+01 0.155E+04   0.736E+02 -.154E+01 -.155E+04   0.404E+00 -.616E-01 -.134E+00   0.353E-01 -.279E-02 0.150E-01
   -.128E+02 0.191E+02 0.162E+04   0.131E+02 -.193E+02 -.162E+04   -.346E+00 0.230E+00 -.441E+00   0.414E-02 0.306E-02 0.539E-02
   -.101E+03 -.416E+01 0.309E+04   0.101E+03 0.421E+01 -.308E+04   -.539E+00 -.230E-01 -.133E+01   0.433E-01 0.481E-03 0.631E-02
   0.702E+02 -.524E+02 0.309E+04   -.705E+02 0.529E+02 -.309E+04   0.414E+00 -.566E+00 -.847E+00   -.390E-01 0.167E-02 -.163E-01
   0.149E+02 -.404E+02 0.155E+04   -.145E+02 0.402E+02 -.155E+04   -.403E+00 0.221E+00 0.154E-01   -.303E-01 0.218E-01 0.154E-01
   0.517E+02 0.247E+01 0.159E+04   -.512E+02 -.245E+01 -.159E+04   -.478E+00 0.384E-01 -.145E+00   -.327E-01 -.115E-01 -.133E-03
   -.408E+02 -.720E+02 -.155E+04   0.407E+02 0.721E+02 0.154E+04   0.944E-01 -.555E-01 0.792E+00   0.254E-01 0.234E-02 0.194E-01
   -.541E+02 0.296E+02 0.307E+04   0.546E+02 -.290E+02 -.307E+04   -.432E+00 -.576E+00 -.189E+01   0.221E-01 -.245E-01 -.608E-02
   -.497E+02 0.709E+02 0.747E+02   0.500E+02 -.707E+02 -.749E+02   -.316E+00 -.305E+00 0.115E+00   -.132E-02 -.478E-02 0.949E-02
   -.641E-01 0.615E+02 -.949E+00   -.133E-01 -.607E+02 0.811E+00   0.898E-01 -.862E+00 -.195E-01   0.228E-01 0.215E-01 0.263E-01
   0.458E+02 0.514E+01 -.309E+02   -.454E+02 -.452E+01 0.308E+02   -.386E+00 -.641E+00 0.418E-01   -.257E-01 0.147E-01 0.128E-01
   0.250E+02 -.515E+02 0.340E+02   -.254E+02 0.511E+02 -.342E+02   0.303E+00 0.460E+00 0.161E+00   0.113E-01 -.190E-02 0.642E-02
   -.363E+01 0.415E+01 -.348E+03   0.403E+01 -.429E+01 0.350E+03   -.383E+00 0.123E+00 -.189E+01   -.146E-02 -.320E-03 -.701E-03
   -.974E+00 -.117E+01 -.477E+01   0.212E-12 0.282E-12 0.819E-11   0.100E+01 0.117E+01 0.434E+01   -.155E-01 -.142E-01 0.400E+00

 POSITION                                       TOTAL-FORCE (eV/Angst)
     12.94739      8.04445      6.98264         0.002465      0.001624     -0.002195
      5.11006      8.08173      6.94234         0.003474      0.002113     -0.000072
      4.93798      3.49525      7.05004        -0.004464     -0.000373      0.006544
     14.31114      8.79706      9.32481        -0.000648     -0.001292     -0.004859
      3.74454      4.24658      9.54744         0.004306     -0.002628      0.040988
      6.39092      8.78679      9.26265         0.000435     -0.004420      0.008613
     11.64223      4.21842      9.36371         0.001085     -0.002501      0.014533
      9.02679      8.76479      9.23597         0.000319      0.000189     -0.003479
     10.33106      1.93088      9.24729         0.002007     -0.000953     -0.003089
      2.41273      1.91330      9.38407         0.004839     -0.000700      0.013391
     11.67121      8.78242      9.33530         0.003191     -0.002542      0.001294
     12.98238      6.50705      9.38145        -0.001902     -0.005319     -0.005249
      5.08156      1.90007      9.33832        -0.001589     -0.001873      0.005296
      7.72861      6.51206      9.32449         0.000678     -0.004451     -0.002865
      9.03817      4.21959      9.31100         0.004302     -0.001267      0.007778
      5.06020      6.49511      9.36606         0.002607     -0.005134      0.007569
      7.71084      1.92588      9.29056         0.003482     -0.004521     -0.003093
      7.77093      3.43540      6.97474         0.000956      0.003269     -0.001474
      6.29460      1.14827      6.93313         0.003537      0.001316      0.000515
      6.42858      1.12974      0.87872        -0.015583     -0.016071      0.002117
      3.70548      4.20844      2.81687         0.013615      0.001554     -0.025627
      1.19092      1.26109      6.92751         0.003059      0.002286      0.002647
      1.13569      1.19080      0.72557        -0.012358      0.004606      0.000103
      6.43607      8.76100      2.90031        -0.003390      0.011508      0.010922
      6.40167      4.22666      9.37221         0.001705      0.000496     -0.008720
      7.68135      4.99073      4.81474         0.014060     -0.007991     -0.034183
     10.33854      6.50501      9.33043         0.004077     -0.006056     -0.003740
     14.26424      7.22593      4.86299         0.029076     -0.005779     -0.038094
     11.67679      5.69102      7.01349         0.002056     -0.003744      0.002958
      6.41048      5.77296      7.00048        -0.001462     -0.000032     -0.000840
      3.62119      2.56589      4.96023         0.002182      0.008297      0.090522
     10.36091      5.02430      4.85652         0.002816     -0.016068     -0.038798
      3.75390      5.77730      7.15115         0.002967      0.000485      0.004997
     12.96907      7.87977      0.92567        -0.005293      0.003509      0.019800
      5.16340      7.91719      0.83030         0.014671      0.013401      0.009736
      3.80701      5.74502      0.81381         0.012162     -0.002875     -0.019752
      7.79852      2.03245      2.83251        -0.033720     -0.004441      0.005353
      9.07755      8.73373      2.85743         0.005725     -0.009132     -0.006202
      2.40820      3.50687      7.17189        -0.000567      0.000398      0.018733
      2.34409      3.49051      0.82510         0.004703      0.012111     -0.013540
     10.34814      1.96983      2.82249        -0.021700      0.017311      0.013323
     12.96035      4.98587      4.92559         0.011717     -0.035665     -0.016071
      3.74507      1.05667      7.06741         0.003725      0.004158      0.002518
      9.03179      5.75749      7.08602         0.001013      0.000246      0.001485
      3.74824      1.09182      0.86700        -0.008029     -0.001874     -0.009594
      9.09121      5.71867      0.96043        -0.000065      0.021655     -0.017736
      5.12448      3.47045      0.85563        -0.002907      0.032464      0.001614
     11.62092      8.68758      2.90590         0.001584     -0.002928      0.014981
     11.65313      7.26450      4.84229        -0.018701     -0.014148     -0.031037
     12.86756      6.45280      2.83379         0.018920     -0.001311      0.001358
      9.04201      4.20780      2.79628         0.001568      0.018572     -0.008343
      7.77173      8.00737      6.98999         0.001474      0.003050     -0.000246
      7.81315      7.93922      0.88653        -0.013850      0.007018      0.007166
     10.39144      6.53566      2.82198         0.014235     -0.013639      0.000467
      2.51347      0.25826      5.00083         0.006929      0.037759      0.020502
      7.74264      3.48454      0.76157        -0.001100     -0.007747      0.009574
      5.07835      1.87760      2.91701        -0.002578     -0.003902     -0.004769
      5.16037      6.44715      2.89923        -0.013241     -0.001088     -0.012355
      7.70892      0.45986      4.84799        -0.015096      0.024777      0.019215
      9.05655      1.19004      6.96974         0.006369      0.004752     -0.000662
[...]
      9.07350      2.65252      4.91360         0.021862     -0.026635     -0.025363
      6.37169      2.66558      4.85827        -0.028705      0.016517      0.016645
     11.65891      4.17486      2.81483        -0.022479      0.004376     -0.030052
      2.44098      1.89237      2.83279         0.002641      0.020907      0.017498
     11.64953      5.68621      0.88546         0.003296      0.026877     -0.009600
      6.44743      5.71949      0.92597        -0.010925      0.014006     -0.006879
      7.82927      6.50651      2.83621        -0.011941     -0.007945     -0.003893
      6.41922      4.13007      2.78290        -0.004305      0.002011     -0.018796
     10.37575      3.46633      7.04492         0.000283      0.001433      0.000229
     10.34410      3.45013      0.86804         0.006591     -0.013862     -0.015377
     10.37063      0.48410      4.87151        -0.024314     -0.006379     -0.059130
      9.04079      7.29017      4.93700         0.012768     -0.026649     -0.012446
      6.46265      7.29503      4.94074         0.030969      0.021057     -0.025667
      5.04247      0.27633      4.88406        -0.015789      0.015346      0.038257
      3.30329      2.83615     10.55206         0.025214     -0.022750      0.033110
    total drift:                                0.011829     -0.015952     -0.036048

  FREE ENERGIE OF THE ION-ELECTRON SYSTEM (eV)
  free  energy   TOTEN  =      -511.00971966 eV

  energy  without entropy=     -511.03216608  energy(sigma->0) =     -511.01720180

 d Force = 0.1228142E-02[ 0.100E-02, 0.145E-02]  d Energy = 0.1152380E-02 0.758E-04
 d Force = 0.3823159E+02[ 0.383E+02, 0.382E+02]  d Ewald  = 0.3823162E+02-0.261E-04

 NEB: the previous image is higher in energy: F
 NEB: the next image is higher in energy    : T
 NEB: only next energy greater

 NEB: Tangent
      0.00141     -0.00545     -0.00065
      0.00173     -0.00180      0.00033
     -0.00236      0.00228      0.00129
      0.00624     -0.00608      0.00521
      0.02363     -0.02394      0.01736
      0.00705      0.00093      0.00193
      0.00406     -0.00219      0.03575
      0.00505      0.01188      0.00438
      0.00043     -0.01006     -0.01024
      0.01411     -0.00744      0.03441
      0.00313     -0.00099     -0.00224
      0.01095      0.00406     -0.00901
     -0.00198      0.00055     -0.04117
      0.00743     -0.00205     -0.00850
      0.00907     -0.00204     -0.00851
      0.00716     -0.00608     -0.00432
      0.00654     -0.00367     -0.00203
      0.00104      0.00004      0.00054
      0.01301     -0.00240     -0.01353
      0.00000      0.00000      0.00000
      0.00000      0.00000      0.00000
      0.00986     -0.00350     -0.00083
      0.00000      0.00000      0.00000
      0.00000      0.00000      0.00000
      0.00273     -0.01072      0.00755
      0.00000      0.00000      0.00000
      0.00532     -0.00154     -0.00192
      0.00000      0.00000      0.00000
      0.00180     -0.01020      0.00711
      0.00284     -0.00175      0.00139
      0.00000      0.00000      0.00000
      0.00000      0.00000      0.00000
      0.00040     -0.00195      0.00100
      0.00000      0.00000      0.00000
      0.00000      0.00000      0.00000
      0.00000      0.00000      0.00000
      0.00000      0.00000      0.00000
      0.00000      0.00000      0.00000
     -0.00354     -0.01068      0.01332
      0.00000      0.00000      0.00000
      0.00000      0.00000      0.00000
      0.00000      0.00000      0.00000
      0.01118     -0.01009     -0.01226
      0.00316     -0.00012     -0.00250
      0.00000      0.00000      0.00000
      0.00000      0.00000      0.00000
      0.00000      0.00000      0.00000
      0.00000      0.00000      0.00000
      0.00000      0.00000      0.00000
      0.00000      0.00000      0.00000
      0.00000      0.00000      0.00000
      0.00215     -0.00089      0.00086
      0.00000      0.00000      0.00000
      0.00000      0.00000      0.00000
      0.00000      0.00000      0.00000
      0.00000      0.00000      0.00000
      0.00000      0.00000      0.00000
      0.00000      0.00000      0.00000
      0.00000      0.00000      0.00000
      0.00369     -0.00272     -0.00180
[...]
      0.00000      0.00000      0.00000
      0.00000      0.00000      0.00000
      0.00000      0.00000      0.00000
      0.00000      0.00000      0.00000
      0.00000      0.00000      0.00000
      0.00000      0.00000      0.00000
      0.00000      0.00000      0.00000
      0.00000      0.00000      0.00000
      0.00069     -0.00392     -0.00065
      0.00000      0.00000      0.00000
      0.00000      0.00000      0.00000
      0.00000      0.00000      0.00000
      0.00000      0.00000      0.00000
      0.00000      0.00000      0.00000
     -0.83105      0.54644      0.04418

 NEB: forces: par spring, perp REAL, dneb     0.011683    0.069602    0.000000
 NEB: distance to prev, next image, angle between     0.580681    0.583018  166.183462
 NEB: projections on to tangent (spring, REAL)     0.011683   -0.029741

 stress matrix after NEB project (eV)
    -30.82056      0.43547      0.64939
      0.43547    -32.41346     -0.66855
      0.64939     -0.66855     -0.24497
  FORCES: max atom, RMS     0.042196    0.007842
  FORCE total and by dimension    0.070576    0.041707
  Stress total and by dimension   44.751719   32.413463
 Quasi-Newton relaxation of ions (Broydens 2nd method)
  g(Force)  = 0.518E-03   g(Stress)= 0.000E+00

 retain information from N=  4 steps
 eigenvalues of (default step * inverse Hessian matrix)
  average eigenvalue of G=   5.5913
 eigenvalue spectrum of G is  6.9959  6.9959  4.1866  4.1866

 reached required accuracy - stopping structural energy minimisation