 vasp.5.4.4.18Apr17-6-g9f103f2a35 (build Oct 25 2019 11:13:22) complex

 executed on             LinuxIFC date 2022.02.12  06:49:53

 INCAR:
 POTCAR:    PAW_PBE Pt 04Feb2005
 POTCAR:    PAW_PBE Co 02Aug2007
 POTCAR:    PAW_PBE Ni 02Aug2007
 POTCAR:    PAW_PBE H 15Jun2001
 POTCAR:    PAW_PBE Pt 04Feb2005
   VRHFIN =Pt: s1d9

   TITEL  = PAW_PBE Pt 04Feb2005
   POMASS =  195.080; ZVAL   =   10.000    mass and valenz
   ENMAX  =  230.283; ENMIN  =  172.712 eV

 POTCAR:    PAW_PBE Co 02Aug2007
   VRHFIN =Co: d8 s1

   TITEL  = PAW_PBE Co 02Aug2007
   POMASS =   58.933; ZVAL   =    9.000    mass and valenz
   ENMAX  =  267.968; ENMIN  =  200.976 eV

 POTCAR:    PAW_PBE Ni 02Aug2007
   VRHFIN =Ni:

   TITEL  = PAW_PBE Ni 02Aug2007
   POMASS =   58.690; ZVAL   =   10.000    mass and valenz
   ENMAX  =  269.532; ENMIN  =  202.149 eV

 POTCAR:    PAW_PBE H 15Jun2001
   VRHFIN =H: ultrasoft test

   TITEL  = PAW_PBE H 15Jun2001
   POMASS =    1.000; ZVAL   =    1.000    mass and valenz
   ENMAX  =  250.000; ENMIN  =  200.000 eV

 Optimization of the real space projectors (new method)

 maximal supplied QI-value         = 14.36
 optimisation between [QCUT,QGAM] = [ 11.92, 23.98] = [ 39.79,161.09] Ry
 Optimized for a Real-space Cutoff    1.49 Angstroem

   l    n(q)    QCUT    max X(q) W(low)/X(q) W(high)/X(q)  e(spline)
   2     10    11.920    66.195    0.79E-04    0.18E-03    0.24E-06
   2     10    11.920    64.643    0.81E-04    0.19E-03    0.24E-06
   0     11    11.920    95.520    0.28E-04    0.54E-04    0.18E-06
   0     11    11.920    63.403    0.27E-04    0.52E-04    0.17E-06
   1     10    11.920    19.961    0.18E-04    0.11E-03    0.23E-06
   1     10    11.920    13.289    0.25E-04    0.87E-04    0.19E-06
 Optimization of the real space projectors (new method)

[...]

   l    n(q)    QCUT    max X(q) W(low)/X(q) W(high)/X(q)  e(spline)
   2      9    11.864    60.317    0.21E-03    0.51E-03    0.25E-06
   2      9    11.864    55.921    0.21E-03    0.51E-03    0.26E-06
   0      9    11.864    51.690    0.22E-03    0.30E-04    0.17E-06
   0      9    11.864    30.015    0.20E-03    0.28E-04    0.15E-06
   1      9    11.864    18.849    0.76E-04    0.33E-03    0.17E-06
   1      9    11.864    14.624    0.60E-04    0.28E-03    0.15E-06
 Optimization of the real space projectors (new method)

 maximal supplied QI-value         = 34.20
 optimisation between [QCUT,QGAM] = [ 11.97, 23.94] = [ 40.13,160.53] Ry
 Optimized for a Real-space Cutoff    1.18 Angstroem

   l    n(q)    QCUT    max X(q) W(low)/X(q) W(high)/X(q)  e(spline)
   0      8    11.971    19.460    0.15E-03    0.31E-03    0.25E-06
   0      8    11.971    12.209    0.13E-03    0.29E-03    0.25E-06
   1      8    11.971     4.655    0.22E-03    0.24E-03    0.21E-06
  PAW_PBE Pt 04Feb2005                  :
  PAW_PBE Co 02Aug2007                  :
  PAW_PBE Ni 02Aug2007                  :
  PAW_PBE H 15Jun2001                   :

 POSCAR: 11.26
  positions in direct lattice
  velocities in cartesian coordinates
 exchange correlation table for  LEXCH =        8
   RHO(1)=    0.500       N(1)  =     2000
   RHO(2)=  100.500       N(2)  =     4000

 ion  position               nearest neighbor table
   1  0.789  0.879  0.301-  49 2.47  59 2.56  60 2.64  28 2.69   4 2.73   2 2.74  29 2.75  19 2.80
                            11 2.85  12 2.85  61 2.89  33 2.94
   2  0.033  0.879  0.293-  79 2.49  77 2.57  60 2.72   1 2.74  28 2.76   4 2.81   6 2.89  30 2.90
                            16 2.94  33 2.99  22 3.17  52 3.23
   3  0.276  0.362  0.311-  64 2.54  68 2.62  31 2.63  39 2.67  33 2.70   5 2.71  30 2.76  13 2.76
                            25 2.78  19 2.81  43 2.82  18 2.87
   4  0.875  0.964  0.400-  60 2.71   9 2.72  17 2.72   1 2.73   6 2.79  16 2.79  12 2.81   2 2.81
                            11 2.83
   5  0.113  0.467  0.410-  39 2.60  33 2.70   3 2.71  12 2.72  16 2.73  10 2.76   7 2.77  25 2.85
                            13 2.98
   6  0.125  0.959  0.400-  52 2.62  22 2.70   4 2.79   8 2.83  16 2.86   9 2.88   2 2.89  10 2.90
                            14 2.91
   7  0.873  0.455  0.412-  81 1.45  75 2.54  39 2.58   5 2.77  10 2.79  27 2.80   9 2.80  29 2.82
                            15 2.84  12 2.93
   8  0.377  0.956  0.415-  43 2.53  52 2.56  61 2.68  13 2.75  27 2.80  11 2.81   6 2.83  10 2.84
                            14 2.90
   9  0.864  0.211  0.396-  81 2.07  75 2.60  22 2.67   4 2.72  17 2.73  15 2.74  60 2.77   7 2.80
                             6 2.88  10 3.01
  10  0.129  0.214  0.413-  22 2.64  43 2.69  13 2.72   5 2.76  39 2.77   7 2.79   8 2.84   6 2.90
                             9 3.01
  11  0.629  0.952  0.410-  61 2.65  12 2.71  19 2.73  27 2.76  17 2.79  13 2.81   8 2.81   4 2.83
                             1 2.85
  12  0.875  0.714  0.408-  29 2.66  16 2.68  11 2.71   5 2.72   4 2.81  33 2.81  27 2.83   1 2.85
                             7 2.93
  13  0.378  0.200  0.413-  43 2.70  10 2.72  19 2.73   8 2.75   3 2.76  25 2.78  17 2.80  11 2.81
                             5 2.98
  14  0.381  0.696  0.403-  52 2.55  44 2.56  15 2.69  25 2.81  27 2.84  30 2.88  16 2.90   8 2.90
                             6 2.91
  15  0.620  0.456  0.399-  81 1.91  75 2.53  44 2.61  14 2.69   9 2.74  25 2.79  17 2.83   7 2.84
                            18 2.85  27 2.87
  16  0.116  0.709  0.404-  12 2.68  30 2.69   5 2.73  33 2.76   4 2.79   6 2.86  14 2.90  25 2.92
                             2 2.94
  17  0.627  0.201  0.404-  18 2.69   4 2.72   9 2.73  19 2.79  11 2.79  25 2.79  13 2.80  60 2.82
                            15 2.83
  18  0.538  0.348  0.301-  67 2.46  26 2.59  68 2.67  17 2.69  60 2.69  19 2.70  25 2.82  15 2.85
                             3 2.87  30 2.95  75 3.20
  19  0.527  0.113  0.308-  59 2.47  80 2.51  68 2.57  43 2.61  61 2.63  18 2.70  13 2.73  11 2.73
                            17 2.79   1 2.80   3 2.81  60 2.92
  20  0.546  0.126  0.067-  48 2.50  57 2.52  47 2.52  62 2.53  37 2.60  56 2.66  34 2.70  63 2.89

  21  0.118  0.408  0.119-  47 2.44  40 2.48  36 2.49  69 2.60  57 2.64  42 2.67  64 2.70  70 2.72
                            31 2.74  50 3.30
  22  0.055  0.148  0.310-  77 2.43  65 2.51  55 2.51  43 2.57  39 2.62  10 2.64   9 2.67   6 2.70
                            75 2.90  31 3.04  52 3.05   2 3.17  60 3.23
  23  0.009  0.102  0.049-  40 2.49  62 2.55  70 2.57  41 2.59  45 2.66  76 2.69  24 2.70  35 2.74
                            53 3.07
  24  0.138  0.927  0.142-  79 2.46  35 2.50  77 2.54  58 2.54  53 2.56  55 2.59  38 2.59  73 2.64
                            70 2.65  23 2.70  66 2.83
  25  0.376  0.448  0.407-  30 2.76  13 2.78   3 2.78  15 2.79  17 2.79  14 2.81  18 2.82   5 2.85
                            16 2.92
  26  0.480  0.554  0.230-  74 2.50  73 2.52  44 2.52  51 2.59  18 2.59  79 2.60  78 2.62  30 2.63
                            32 2.66  67 2.70
  27  0.627  0.707  0.413-  44 2.49  61 2.70  11 2.76   7 2.80   8 2.80  29 2.80  12 2.83  14 2.84
                            15 2.87
  28  0.953  0.759  0.204-  58 2.53  50 2.61  66 2.61  42 2.62  36 2.63  33 2.66   1 2.69   2 2.76
                            64 2.80  49 2.88  34 3.22  59 3.23  35 3.30
  29  0.797  0.631  0.311-  39 2.59  32 2.61  49 2.62  75 2.62  42 2.63  33 2.64  44 2.65  12 2.66
                             1 2.75  27 2.80   7 2.82  61 2.84
  30  0.274  0.608  0.304-  79 2.43  33 2.60  26 2.63  64 2.65  16 2.69  25 2.76   3 2.76  14 2.88
                             2 2.90  18 2.95  52 3.26
  31  0.187  0.262  0.225-  70 2.52  57 2.57  65 2.58  55 2.59  39 2.62   3 2.63  43 2.63  42 2.72
                            80 2.73  21 2.74  68 2.76  64 2.79  22 3.04
  32  0.711  0.561  0.214-  69 2.53  51 2.56  54 2.61  29 2.61  49 2.62  26 2.66  65 2.66  50 2.66
                            42 2.68  75 2.69  78 2.71  67 2.73  44 2.73
  33  0.042  0.609  0.305-  42 2.47  64 2.50  39 2.51  30 2.60  29 2.64  28 2.66   5 2.70   3 2.70
                            16 2.76  12 2.81   1 2.94   2 2.99
  34  0.782  0.884  0.080-  48 2.38  35 2.38  50 2.53  66 2.54  36 2.55  62 2.67  20 2.70  28 3.22

  35  0.002  0.866  0.072-  36 2.37  34 2.38  66 2.43  24 2.50  58 2.60  23 2.74  62 2.75  28 3.30

  36  0.006  0.657  0.094-  50 2.33  35 2.37  58 2.38  21 2.49  34 2.55  28 2.63
  37  0.628  0.234  0.150-  41 2.41  56 2.42  59 2.43  67 2.44  62 2.45  68 2.50  51 2.50  74 2.51
                            20 2.60  66 2.60
  38  0.361  0.942  0.135-  53 2.40  45 2.41  63 2.42  57 2.43  48 2.45  55 2.45  54 2.46  78 2.48
                            80 2.54  73 2.59  24 2.59  70 2.83
  39  0.024  0.396  0.316-  42 2.46  33 2.51   7 2.58  75 2.58  65 2.58  29 2.59   5 2.60  31 2.62
                            22 2.62   3 2.67  10 2.77
  40  0.013  0.321  0.044-  69 2.32  76 2.45  21 2.48  23 2.49  70 2.51  45 2.63  71 2.93
  41  0.844  0.228  0.139-  67 2.35  76 2.37  77 2.38  37 2.41  62 2.44  51 2.48  69 2.48  66 2.49
                            65 2.58  23 2.59  70 2.61
  42  0.967  0.520  0.219-  39 2.46  33 2.47  50 2.48  64 2.48  65 2.50  28 2.62  29 2.63  69 2.65
                            21 2.67  32 2.68  31 2.72
  43  0.303  0.099  0.319-  52 2.45  80 2.46  55 2.51   8 2.53  61 2.56  22 2.57  19 2.61  31 2.63
                            10 2.69  13 2.70   3 2.82
  44  0.553  0.648  0.317-  61 2.45  78 2.47  27 2.49  26 2.52  14 2.56  52 2.57  15 2.61  29 2.65
                            75 2.73  32 2.73
  45  0.251  0.091  0.049-  38 2.41  57 2.45  53 2.48  70 2.50  63 2.54  40 2.63  23 2.66
  46  0.529  0.612  0.047-  54 2.37  73 2.44  51 2.45  71 2.47  72 2.53  53 2.63  56 2.72  76 2.87
                            63 3.07
  47  0.334  0.361  0.072-  74 2.29  56 2.44  21 2.44  57 2.50  72 2.50  20 2.52
  48  0.581  0.937  0.137-  49 2.29  63 2.35  34 2.38  54 2.38  80 2.38  38 2.45  59 2.46  20 2.50
                            57 2.63  50 2.74
  49  0.677  0.809  0.223-  48 2.29  50 2.34  61 2.46  78 2.47   1 2.47  59 2.54  80 2.57  29 2.62
                            32 2.62  54 2.79  28 2.88
  50  0.810  0.679  0.140-  36 2.33  49 2.34  54 2.38  71 2.39  42 2.48  69 2.52  34 2.53  28 2.61
                            32 2.66  48 2.74  21 3.30
  51  0.629  0.454  0.133-  56 2.40  76 2.44  46 2.45  41 2.48  37 2.50  67 2.53  32 2.56  26 2.59
                            74 2.59  69 2.66  73 2.78  54 2.83
  52  0.320  0.872  0.317-  55 2.38  79 2.41  61 2.43  43 2.45  78 2.46  14 2.55   8 2.56  44 2.57
                             6 2.62  22 3.05   2 3.23  30 3.26
  53  0.299  0.850  0.050-  73 2.39  38 2.40  45 2.48  24 2.56  63 2.58  46 2.63  72 2.82  23 3.07

  54  0.581  0.726  0.124-  46 2.37  50 2.38  48 2.38  73 2.40  71 2.42  63 2.42  38 2.46  78 2.50
                            32 2.61  49 2.79  51 2.83
  55  0.229  0.013  0.230-  52 2.38  80 2.44  79 2.44  38 2.45  43 2.51  22 2.51  78 2.56  24 2.59
                            31 2.59  77 2.61  70 2.62
  56  0.549  0.361  0.055-  51 2.40  37 2.42  47 2.44  74 2.52  76 2.56  62 2.60  72 2.61  20 2.66
                            46 2.72
  57  0.344  0.167  0.132-  38 2.43  45 2.45  80 2.47  47 2.50  20 2.52  68 2.55  31 2.57  48 2.63
[...]
   -.634E+02 -.450E+02 -.146E+04   0.623E+02 0.454E+02 0.146E+04   0.112E+01 -.377E+00 0.185E+01   0.308E-01 -.106E-01 -.446E-02
   -.425E+02 0.195E+02 -.270E+04   0.428E+02 -.188E+02 0.270E+04   -.373E+00 -.659E+00 0.157E+01   0.656E-02 0.904E-02 -.939E-02
   -.735E+02 -.281E+02 -.283E+04   0.727E+02 0.288E+02 0.283E+04   0.829E+00 -.715E+00 0.241E+01   0.262E-01 0.633E-03 0.750E-02
   0.937E+02 0.141E+02 -.270E+04   -.933E+02 -.149E+02 0.270E+04   -.326E+00 0.796E+00 0.206E+01   -.116E-01 0.146E-02 -.422E-02
   0.921E+01 0.561E+01 -.290E+04   -.864E+01 -.609E+01 0.290E+04   -.639E+00 0.421E+00 0.201E+01   -.132E-02 0.183E-02 0.260E-01
   0.535E+02 0.764E+01 -.297E+04   -.539E+02 -.729E+01 0.297E+04   0.382E+00 -.351E+00 0.340E+01   0.209E-02 -.255E-02 -.613E-02
   0.209E+02 0.743E+02 -.272E+04   -.215E+02 -.747E+02 0.272E+04   0.660E+00 0.364E+00 0.166E+01   -.226E-01 0.540E-02 -.146E-01
   0.595E+02 0.122E+02 -.288E+04   -.584E+02 -.118E+02 0.287E+04   -.113E+01 -.332E+00 0.274E+01   -.370E-02 -.112E-01 -.376E-02
   -.931E+02 -.185E+02 -.284E+04   0.929E+02 0.180E+02 0.284E+04   0.185E+00 0.486E+00 0.166E+01   0.644E-02 0.211E-01 -.176E-01
   -.682E+02 -.435E+02 -.279E+04   0.682E+02 0.432E+02 0.278E+04   -.105E-01 0.217E+00 0.173E+01   0.162E-01 0.128E-01 -.534E-02
   -.467E+02 -.681E+02 -.286E+04   0.465E+02 0.675E+02 0.286E+04   0.201E+00 0.670E+00 0.206E+01   0.253E-01 -.316E-02 -.120E-01
   0.111E+03 0.551E+02 -.275E+04   -.110E+03 -.550E+02 0.275E+04   -.754E+00 -.138E+00 0.249E+01   0.651E-02 -.472E-02 0.213E-01
   0.829E+02 0.288E+02 -.272E+04   -.832E+02 -.278E+02 0.272E+04   0.343E+00 -.973E+00 0.160E+01   -.814E-02 -.126E-01 0.112E-01
   -.330E+02 -.332E+02 -.269E+04   0.324E+02 0.329E+02 0.269E+04   0.531E+00 0.373E+00 0.171E+01   0.219E-01 -.425E-03 -.163E-02
   -.401E+02 -.236E+02 -.277E+04   0.398E+02 0.232E+02 0.276E+04   0.322E+00 0.388E+00 0.188E+01   -.141E-02 -.649E-02 -.110E-01
   0.407E+02 -.612E+02 -.133E+04   -.394E+02 0.603E+02 0.133E+04   -.125E+01 0.908E+00 0.193E+01   0.807E-03 -.180E-01 0.161E-01
   -.109E+03 -.818E+02 -.147E+04   0.108E+03 0.814E+02 0.147E+04   0.118E+01 0.451E+00 0.234E+01   0.370E-02 -.729E-03 0.314E-02
   0.594E+02 0.539E+02 0.278E+04   -.586E+02 -.536E+02 -.278E+04   -.648E+00 -.432E+00 -.194E+01   -.497E-02 -.837E-03 0.152E-01
   -.118E+03 -.144E+03 0.197E+04   0.118E+03 0.144E+03 -.197E+04   -.152E+00 -.381E+00 0.136E+01   -.174E-01 -.303E-01 -.697E-02
   0.789E+02 0.664E+02 -.154E+04   -.782E+02 -.658E+02 0.154E+04   -.762E+00 -.543E+00 0.166E+01   -.287E-02 -.187E-01 -.318E-02
   0.786E+01 0.188E+03 0.297E+04   -.758E+01 -.187E+03 -.296E+04   -.215E+00 -.164E+01 -.199E+01   0.347E-01 0.396E-01 0.468E-02
   0.158E+03 0.248E+02 0.147E+04   -.158E+03 -.257E+02 -.147E+04   -.765E+00 0.947E+00 -.381E+00   0.173E-01 0.469E-01 0.460E-01
   -.204E+02 -.392E+02 -.276E+04   0.204E+02 0.387E+02 0.276E+04   0.400E-01 0.480E+00 0.184E+01   0.223E-01 -.606E-02 -.152E-01
   0.105E+03 0.907E+02 -.234E+03   -.105E+03 -.904E+02 0.234E+03   0.833E-01 -.287E+00 0.163E+00   -.186E-02 -.103E-01 0.416E-01
   -.135E+01 0.469E+02 -.292E+04   0.140E+01 -.461E+02 0.292E+04   -.658E-01 -.756E+00 0.278E+01   0.224E-02 -.517E-02 -.685E-03
   -.453E+02 -.457E+02 0.335E+03   0.451E+02 0.445E+02 -.335E+03   0.184E+00 0.120E+01 -.144E+00   -.124E-01 0.136E-01 0.311E-01
   -.792E+02 -.488E+02 -.144E+04   0.796E+02 0.480E+02 0.144E+04   -.369E+00 0.838E+00 0.202E+01   -.107E-01 0.190E-01 0.310E-02
   0.860E+01 0.619E+01 -.133E+04   -.934E+01 -.561E+01 0.133E+04   0.724E+00 -.530E+00 0.197E+01   0.525E-02 -.104E-01 0.182E-01
   -.638E+02 -.101E+03 -.242E+02   0.635E+02 0.100E+03 0.239E+02   0.381E+00 0.549E+00 0.244E+00   0.635E-02 -.312E-01 -.809E-03
   -.198E+02 -.237E+02 0.121E+03   0.203E+02 0.238E+02 -.122E+03   -.534E+00 -.166E+00 0.898E+00   0.865E-03 0.593E-02 0.253E-01
   -.655E+02 -.123E+03 -.120E+04   0.655E+02 0.122E+03 0.120E+04   0.366E-01 0.834E+00 0.754E+00   0.141E-01 0.129E-01 0.615E-02
   -.211E+01 0.110E+03 0.236E+04   0.341E+01 -.110E+03 -.236E+04   -.112E+01 -.349E+00 -.151E+01   -.196E-01 0.767E-02 0.109E-01
   0.766E+01 0.137E+03 0.248E+04   -.877E+01 -.137E+03 -.248E+04   0.106E+01 -.765E+00 -.242E+01   -.217E-01 0.164E-01 0.100E-01
   -.723E+01 0.876E+02 0.223E+04   0.714E+01 -.860E+02 -.223E+04   0.660E-01 -.138E+01 -.214E+01   -.295E-01 -.194E-01 0.627E-02
   0.125E+03 0.686E+02 0.108E+04   -.125E+03 -.687E+02 -.108E+04   -.278E+00 0.907E-02 0.158E-01   -.138E-01 -.168E-01 0.289E-01
   0.496E+02 -.600E+02 0.143E+04   -.491E+02 0.599E+02 -.143E+04   -.523E+00 0.192E-01 -.342E+00   0.103E-02 0.354E-01 0.353E-01
   -.628E+02 0.111E+02 -.140E+04   0.626E+02 -.109E+02 0.140E+04   0.173E+00 -.267E+00 0.396E+00   0.570E-02 -.571E-02 -.135E-02
   -.256E+03 -.128E+03 0.278E+04   0.255E+03 0.126E+03 -.277E+04   0.149E+01 0.154E+01 -.399E+01   0.154E-01 -.108E-01 0.482E-02
   -.168E+02 0.981E+02 0.131E+04   0.164E+02 -.979E+02 -.131E+04   0.424E+00 -.263E+00 -.684E+00   0.134E-01 -.113E-01 0.223E-01
   -.947E+02 -.843E+02 0.137E+03   0.947E+02 0.845E+02 -.137E+03   0.452E-01 -.182E+00 -.336E+00   0.292E-02 -.366E-02 0.381E-02
   0.164E+02 -.130E+03 -.147E+04   -.166E+02 0.129E+03 0.147E+04   0.181E+00 0.507E+00 0.286E+00   0.115E-01 -.929E-02 -.171E-01
   0.813E+02 0.139E+03 -.142E+04   -.813E+02 -.138E+03 0.142E+04   -.101E+00 -.657E+00 -.656E+00   -.366E-02 -.258E-03 0.714E-02
   -.795E+02 -.138E+03 0.273E+04   0.778E+02 0.137E+03 -.272E+04   0.157E+01 0.162E+01 -.329E+01   -.725E-02 0.370E-01 0.524E-02
   0.166E+02 -.251E+02 0.276E+04   -.172E+02 0.252E+02 -.276E+04   0.410E+00 -.136E+00 -.331E+01   0.205E-01 -.185E-02 -.911E-02
   0.227E+03 -.397E+02 0.247E+04   -.226E+03 0.395E+02 -.247E+04   -.131E+01 0.256E+00 -.199E+01   -.225E-01 -.273E-01 0.956E-02
   -.186E+03 -.294E+02 0.146E+04   0.185E+03 0.295E+02 -.146E+04   0.254E+00 -.164E-01 0.216E+00   0.797E-02 0.116E-01 0.275E-01
   -.190E+03 0.609E+02 0.735E+01   0.190E+03 -.606E+02 -.697E+01   0.365E+00 -.389E+00 -.477E+00   -.560E-02 0.173E-01 0.233E-01
   -.187E+03 -.397E+02 0.139E+04   0.187E+03 0.402E+02 -.139E+04   -.999E-01 -.442E+00 0.486E+00   0.181E-02 0.789E-02 0.117E-01
   0.259E+02 -.680E+02 0.135E+04   -.259E+02 0.677E+02 -.135E+04   -.586E-01 0.509E+00 -.456E-01   0.609E-02 -.175E-01 0.284E-01
   0.194E+03 0.454E+02 -.147E+04   -.194E+03 -.455E+02 0.147E+04   -.680E+00 0.162E+00 -.817E-02   0.616E-02 0.981E-02 -.455E-02
   0.180E+03 0.563E+01 0.274E+04   -.178E+03 -.577E+01 -.273E+04   -.187E+01 0.102E+00 -.327E+01   0.121E-01 0.366E-01 -.216E-02
   -.972E+02 0.361E+02 0.159E+04   0.973E+02 -.358E+02 -.159E+04   -.167E+00 -.421E+00 0.297E+00   0.174E-01 0.111E-01 0.273E-01
   0.115E+03 -.590E+02 -.101E+03   -.115E+03 0.589E+02 0.101E+03   -.410E+00 0.113E+00 -.103E+00   0.946E-02 0.162E-01 0.101E-01
   0.134E+03 0.309E+02 0.297E+04   -.133E+03 -.304E+02 -.297E+04   -.134E+00 -.302E+00 -.149E+01   -.883E-02 -.329E-01 0.671E-02
   -.525E+02 -.163E+03 0.172E+04   0.525E+02 0.162E+03 -.172E+04   -.642E-01 0.342E+00 0.158E+00   -.130E-01 0.418E-02 0.177E-01
   0.192E+03 -.979E+01 0.134E+04   -.192E+03 0.989E+01 -.134E+04   0.411E+00 -.493E-01 0.502E+00   -.152E-01 -.903E-02 0.460E-01
   -.126E+03 0.271E+02 0.202E+03   0.126E+03 -.270E+02 -.202E+03   0.427E+00 -.126E+00 -.325E+00   -.906E-02 0.897E-02 0.236E-01
   -.232E+01 0.509E+02 -.127E+04   0.242E+01 -.510E+02 0.127E+04   -.955E-01 0.122E+00 0.608E+00   -.100E-01 0.263E-02 0.148E-01
[...]
   -.137E+02 -.966E+02 0.171E+03   0.141E+02 0.966E+02 -.171E+03   -.425E+00 0.422E-01 -.290E+00   0.713E-03 -.146E-01 0.244E-01
   -.169E+03 -.109E+03 0.165E+04   0.169E+03 0.110E+03 -.165E+04   0.328E-01 -.182E+00 -.323E+00   0.282E-01 -.272E-01 -.673E-02
   -.692E+02 0.636E+01 0.148E+04   0.696E+02 -.630E+01 -.148E+04   -.239E+00 -.120E+00 -.694E+00   0.120E-01 0.655E-02 0.373E-02
   -.272E+03 -.156E+03 0.302E+04   0.269E+03 0.155E+03 -.302E+04   0.225E+01 0.135E+01 -.369E+01   0.270E-01 -.149E-01 -.253E-02
   0.296E+03 -.678E+02 0.296E+04   -.293E+03 0.671E+02 -.296E+04   -.220E+01 0.763E+00 -.282E+01   -.108E-01 -.227E-01 -.260E-02
   0.868E+02 0.284E+02 0.151E+04   -.868E+02 -.287E+02 -.151E+04   0.109E+00 0.196E+00 0.108E-01   0.161E-01 0.117E-01 0.459E-01
   0.139E+03 0.123E+02 0.120E+04   -.139E+03 -.122E+02 -.119E+04   0.105E+00 -.250E-01 -.321E+00   -.111E-01 -.409E-01 0.431E-01
   0.914E+02 0.234E+02 -.159E+04   -.911E+02 -.233E+02 0.159E+04   -.314E+00 -.121E+00 0.171E+00   -.184E-01 -.847E-02 0.690E-02
   -.827E+00 -.100E+02 0.308E+04   0.778E+00 0.105E+02 -.307E+04   -.732E-01 -.409E+00 -.176E+01   0.408E-01 -.149E-01 -.515E-02
   0.632E+02 0.174E+03 -.548E+02   -.636E+02 -.174E+03 0.556E+02   0.454E+00 0.238E+00 -.840E+00   0.106E-01 0.131E-02 0.184E-01
   0.708E+01 0.100E+03 -.293E+02   -.731E+01 -.994E+02 0.293E+02   0.246E+00 -.673E+00 -.142E+00   0.123E-01 0.253E-01 0.298E-01
   0.227E+03 0.524E+02 -.244E+03   -.227E+03 -.521E+02 0.244E+03   0.339E+00 -.376E+00 -.577E+00   0.978E-02 0.204E-01 0.343E-01
   -.606E+02 -.116E+03 -.626E+01   0.607E+02 0.116E+03 0.600E+01   -.114E+00 0.292E+00 0.144E+00   -.725E-02 0.724E-02 0.281E-01
   0.725E+01 0.583E+01 -.327E+03   -.739E+01 -.600E+01 0.328E+03   0.164E+00 0.126E+00 -.127E+01   -.192E-02 -.837E-03 -.410E-03
   -.330E+01 -.164E+01 -.839E+01   -.265E-12 -.343E-12 -.221E-10   0.309E+01 0.165E+01 0.755E+01   0.175E+00 0.318E-01 0.832E+00

 POSITION                                       TOTAL-FORCE (eV/Angst)
     13.78362      8.53658      6.62869         0.005956      0.004222      0.013569
      5.29091      8.55155      6.41500        -0.002813      0.008812     -0.000153
      5.13380      3.50675      6.83967        -0.003713     -0.020202     -0.017188
     15.25112      9.36465      8.78489        -0.015302      0.004000      0.007613
      3.93195      4.54821      9.02655        -0.004095      0.000008     -0.014087
      6.77719      9.26210      8.73660        -0.011328     -0.012773      0.020316
     12.42399      4.49892      9.11851        -0.022586     -0.017150      0.013979
      9.54740      9.27859      9.13467        -0.010708     -0.010092      0.024912
     10.90833      2.02790      8.78616        -0.023484     -0.020631     -0.014726
      2.66517      2.08581      9.08368         0.009356     -0.004616      0.009945
     12.41296      9.25707      9.01171        -0.004709      0.000130      0.000136
     13.83880      6.93851      8.98790        -0.020922      0.013363     -0.010086
      5.36986      1.93470      9.09809         0.000323      0.020082     -0.011385
      8.11665      6.82573      8.79536        -0.005083     -0.020044      0.004772
      9.46020      4.46865      8.80842         0.002930     -0.006421      0.011647
      5.31365      6.92730      8.80320        -0.009371      0.000922      0.011757
      8.15178      1.93996      8.89933        -0.003205     -0.004341     -0.009985
      8.00227      3.37283      6.62575         0.000920     -0.006613     -0.001005
      6.55903      1.09968      6.78379        -0.017213      0.002829      0.010218
      6.83385      1.22925      1.47033        -0.001477      0.042465     -0.002386
      3.61235      3.96468      2.61995        -0.005358      0.006960      0.003076
      1.43557      1.44902      6.83506        -0.010914     -0.020288     -0.043479
      0.67127      0.98910      1.08188        -0.015975     -0.016479      0.002240
      6.74807      9.00879      3.12342        -0.005807      0.014690     -0.012325
      6.73003      4.37604      8.93148         0.002613      0.008007      0.015584
      8.49330      5.38439      5.05378         0.045273      0.012934      0.030296
     11.00067      6.91576      9.10006         0.003117      0.000622     -0.023581
     14.94884      7.37673      4.49249         0.034243     -0.018846     -0.043895
     12.47915      6.12740      6.83077        -0.000026      0.042259      0.026408
      6.48154      5.89190      6.64803        -0.001738      0.006911      0.011553
      3.57422      2.54624      4.95878        -0.003188      0.002866     -0.038376
     11.12614      5.45251      4.71025        -0.009066     -0.037886      0.022752
      3.88390      5.90820      6.70291         0.022517      0.006907      0.010676
     13.73438      8.58852      1.76277        -0.000577     -0.016766     -0.034695
      4.87663      8.41395      1.57788         0.007286      0.002908      0.021367
      3.75877      6.38414      2.06092         0.022060      0.003927      0.021003
      8.35850      2.27224      3.29405         0.002164     -0.001595      0.010324
      9.33367      9.15886      2.96349        -0.004718     -0.006473      0.028464
      2.48622      3.84528      6.95890        -0.013235     -0.002834      0.006606
      1.94892      3.12368      0.97734        -0.004327      0.006314      0.008974
     10.75187      2.21221      3.05623         0.002703      0.008854     -0.005859
     13.77799      5.05868      4.81470        -0.009013      0.005375     -0.030063
      3.95973      0.97116      7.02509         0.010868      0.005824     -0.006041
      9.84221      6.29995      6.98185        -0.014378     -0.000878     -0.004451
      3.32747      0.88717      1.07332        -0.004082      0.000664     -0.010623
      9.37038      5.94444      1.03355         0.021309      0.007728     -0.033538
      5.77436      3.51120      1.58883         0.010463      0.003830      0.002245
     11.78080      9.10211      3.01275        -0.010437     -0.002352      0.015940
     12.14221      7.86485      4.90717        -0.018599     -0.002350     -0.015841
     12.89855      6.59993      3.08536        -0.010772     -0.007466      0.015684
      9.60902      4.40928      2.93166        -0.002192     -0.007404      0.006154
      8.50982      8.49158      6.95643        -0.003654      0.001049     -0.012025
      8.12654      8.25967      1.10014        -0.016209      0.010975     -0.011328
     10.59532      7.05732      2.72628        -0.002605     -0.011574      0.025087
      2.64345      0.12582      5.05287        -0.012148      0.023764     -0.015168
      8.18206      3.50560      1.21995        -0.014890     -0.031373      0.009798
      4.79851      1.62222      2.89617        -0.005669      0.000266      0.019340
      5.80940      6.64990      3.24762        -0.009079      0.003982     -0.023721
      7.65468      0.41297      4.68699         0.004757     -0.024114     -0.029794
      9.45851      1.13205      6.53079        -0.005200     -0.001966     -0.003667
[...]
      9.85949      3.06130      5.05334         0.031172      0.009971      0.044520
      6.31739      2.58312      4.70295        -0.008018     -0.005113     -0.033520
     12.25313      4.17493      2.83324        -0.005410     -0.003516      0.000345
      2.09525      1.75623      3.07324         0.002222      0.006604      0.023667
     11.83128      5.72145      1.13423         0.036331      0.000273     -0.001658
      6.85743      5.74904      1.30355        -0.002069     -0.007431      0.007404
      8.21979      6.81570      3.00225         0.010909      0.012393      0.001193
      7.04013      4.41026      3.27464         0.005273      0.003853      0.008388
     11.12711      3.88554      6.93478         0.008777      0.003156     -0.000372
     10.73608      3.41609      1.01158         0.006794     -0.009748      0.005616
     11.35396      0.81935      4.88330         0.014250      0.017406      0.030931
      9.67608      7.72321      4.95729         0.002822     -0.017792     -0.011147
      7.20385      7.63915      5.11888         0.012068      0.004003     -0.006775
      5.07803      0.26935      4.93904         0.006631     -0.003803     -0.014987
     10.88785      3.67797      9.67694         0.027579     -0.036664     -0.016380
    total drift:                               -0.032413      0.040790     -0.008032

  FREE ENERGIE OF THE ION-ELECTRON SYSTEM (eV)
  free  energy   TOTEN  =      -503.46048558 eV

  energy  without entropy=     -503.48932510  energy(sigma->0) =     -503.47009875

 d Force = 0.1657184E-02[ 0.101E-02, 0.230E-02]  d Energy = 0.1589076E-02 0.681E-04
 d Force =-0.2407997E+02[-0.241E+02,-0.241E+02]  d Ewald  =-0.2407990E+02-0.645E-04

 Conjugate gradient step on ions:
 trial-energy change:   -0.001589  1 .order   -0.001657   -0.002304   -0.001011
  (g-gl).g = 0.203E-02      g.g   = 0.180E-02  gl.gl    = 0.184E-02
 g(Force)  = 0.180E-02   g(Stress)= 0.000E+00 ortho     =-0.113E-03
 gamma     =   1.10385
 trial     =   1.37708
 opt step  =   2.45316  (harmonic =   2.45316) maximal distance =0.00588312
 next E    =  -503.460949   (d E  =  -0.00205)

 reached required accuracy - stopping structural energy minimisation