 vasp.5.4.4.18Apr17-6-g9f103f2a35 (build Nov 06 2019 15:09:28) complex

 executed on             LinuxIFC date 2021.12.14  23:39:14

 INCAR:
 POTCAR:    PAW_PBE Pt 04Feb2005
 POTCAR:    PAW_PBE H 15Jun2001
 POTCAR:    PAW_PBE Pt 04Feb2005
   VRHFIN =Pt: s1d9

   TITEL  = PAW_PBE Pt 04Feb2005
   POMASS =  195.080; ZVAL   =   10.000    mass and valenz
   ENMAX  =  230.283; ENMIN  =  172.712 eV

 POTCAR:    PAW_PBE H 15Jun2001
   VRHFIN =H: ultrasoft test

   TITEL  = PAW_PBE H 15Jun2001
   POMASS =    1.000; ZVAL   =    1.000    mass and valenz
   ENMAX  =  250.000; ENMIN  =  200.000 eV

 Optimization of the real space projectors (new method)

 maximal supplied QI-value         = 14.36
 optimisation between [QCUT,QGAM] = [ 11.92, 23.98] = [ 39.79,161.09] Ry
 Optimized for a Real-space Cutoff    1.49 Angstroem

   l    n(q)    QCUT    max X(q) W(low)/X(q) W(high)/X(q)  e(spline)
   2     10    11.920    66.195    0.79E-04    0.18E-03    0.24E-06
   2     10    11.920    64.643    0.81E-04    0.19E-03    0.24E-06
   0     11    11.920    95.520    0.28E-04    0.54E-04    0.18E-06
   0     11    11.920    63.403    0.27E-04    0.52E-04    0.17E-06
   1     10    11.920    19.961    0.18E-04    0.11E-03    0.23E-06
   1     10    11.920    13.289    0.25E-04    0.87E-04    0.19E-06
 Optimization of the real space projectors (new method)

 maximal supplied QI-value         = 34.20
 optimisation between [QCUT,QGAM] = [ 11.97, 23.94] = [ 40.13,160.53] Ry
 Optimized for a Real-space Cutoff    1.18 Angstroem

   l    n(q)    QCUT    max X(q) W(low)/X(q) W(high)/X(q)  e(spline)
   0      8    11.971    19.460    0.15E-03    0.31E-03    0.25E-06
   0      8    11.971    12.209    0.13E-03    0.29E-03    0.25E-06
   1      8    11.971     4.655    0.22E-03    0.24E-03    0.21E-06
  PAW_PBE Pt 04Feb2005                  :
  PAW_PBE H 15Jun2001                   :

 POSCAR: Pt   H
  positions in direct lattice
  velocities in cartesian coordinates
 exchange correlation table for  LEXCH =        8
   RHO(1)=    0.500       N(1)  =     2000
   RHO(2)=  100.500       N(2)  =     4000

 VTST: version 3.2, (02/03/18)

 CHAIN: initializing optimizer

 OPT: Using VASP QUASI-newton optimizer
 CHAIN: Read ICHAIN            0
 CHAIN: Running the NEB
 NEB:          SPRING     -5.000000
 NEB:          LCLIMB      T
 NEB:     LTANGENTOLD      F
 NEB:           LDNEB      F
 NEB:        LDNEBORG      F
 NEB:        LNEBCELL      F
 NEB:          EFIRST      0.000000
 NEB:           ELAST      0.000000

 POSCAR: Pt   H
  positions in direct lattice

 POSCAR: Pt   H
  positions in direct lattice

 ion  position               nearest neighbor table
   1  0.785  0.869  0.326-  71 2.75  55 2.75  20 2.76  72 2.80   2 2.80  73 2.81  56 2.81  43 2.81
                             3 2.81  34 2.84  35 2.84  27 2.85
   2  0.035  0.869  0.327-  65 2.76  68 2.76  55 2.76   1 2.80  47 2.80  23 2.81  72 2.81  57 2.81
                             3 2.81  39 2.83  27 2.84  29 2.85
   3  0.035  0.619  0.326-  55 2.76  12 2.76  76 2.76  56 2.80  57 2.80  15 2.80   9 2.81   2 2.81
                             1 2.81  35 2.83  28 2.84  39 2.85
   4  0.785  0.869  0.021-  21 2.79  78 2.79  19 2.79  74 2.81   5 2.81  44 2.81  75 2.81  58 2.81
                             6 2.81
   5  0.035  0.869  0.022-  70 2.79  78 2.79  49 2.79  74 2.80   4 2.81  24 2.81   6 2.81  59 2.81
                            48 2.81
   6  0.035  0.619  0.021-  46 2.79  70 2.79  21 2.79  18 2.80   5 2.81   4 2.81  58 2.81  59 2.81
                            10 2.81
   7  0.619  0.202  0.125-  80 2.73  71 2.74  79 2.74  74 2.79  44 2.79  42 2.79  22 2.81  11 2.81
                            61 2.81  78 2.81  19 2.81  53 2.81
   8  0.368  0.952  0.125-  69 2.73  66 2.74  26 2.75  24 2.79  75 2.79  16 2.79  54 2.80  49 2.80
                            53 2.80  60 2.80  19 2.81  25 2.81
   9  0.035  0.369  0.326-  77 2.75  62 2.76  12 2.76  15 2.80  56 2.80  13 2.80   3 2.81  47 2.81
                            63 2.82  30 2.83  33 2.83  28 2.85
  10  0.035  0.368  0.021-  46 2.79  45 2.79  48 2.79  16 2.79  18 2.80  64 2.80  54 2.80   6 2.81
                            58 2.81
  11  0.869  0.202  0.125-  79 2.73  65 2.73  77 2.74  74 2.79  48 2.79  64 2.80  54 2.80  45 2.80
                            22 2.80  49 2.80   7 2.81  78 2.81
  12  0.952  0.535  0.225-  45 2.73  46 2.73  21 2.73  56 2.75   3 2.76   9 2.76  62 2.80  77 2.81
                            76 2.81  67 2.81  55 2.81  20 2.81
  13  0.285  0.119  0.326-  26 2.75  69 2.76  62 2.76  15 2.80  73 2.80   9 2.80  47 2.81  43 2.81
                            23 2.82  31 2.83  33 2.83  36 2.85
  14  0.535  0.619  0.326-  67 2.75  66 2.75  51 2.76  63 2.79  23 2.79  41 2.81  57 2.81  56 2.81
                            73 2.81  52 2.83  37 2.85  38 2.85
  15  0.285  0.368  0.325-  62 2.74  80 2.75  76 2.75   9 2.80  13 2.80   3 2.80  43 2.80  57 2.81
                            41 2.81  50 2.84  36 2.85  28 2.85
  16  0.284  0.119  0.021-  53 2.79   8 2.79  48 2.79  10 2.79  54 2.80  24 2.80  18 2.80  75 2.81
                            44 2.81
  17  0.535  0.618  0.021-  60 2.79  22 2.79  25 2.79  59 2.80  42 2.80  58 2.81  64 2.81  75 2.81
                            24 2.81
  18  0.285  0.368  0.021-  61 2.79  53 2.79  46 2.79  10 2.80  16 2.80   6 2.80  44 2.80  42 2.81
                            59 2.81
  19  0.618  0.952  0.125-  20 2.73  69 2.73  71 2.73  75 2.79  44 2.79   4 2.79  53 2.80  25 2.81
                            21 2.81  78 2.81   7 2.81   8 2.81
  20  0.702  0.785  0.225-  19 2.73  21 2.73  25 2.74  73 2.76  56 2.76   1 2.76  67 2.80  66 2.80
                            55 2.81  71 2.81  12 2.81  69 2.81
  21  0.868  0.702  0.125-  20 2.73  12 2.73  55 2.74  58 2.79   4 2.79   6 2.79  46 2.80  78 2.81
                            19 2.81  25 2.81  70 2.81  45 2.81
  22  0.619  0.452  0.125-  51 2.74  67 2.74  79 2.74  42 2.79  64 2.79  17 2.79  45 2.80  11 2.80
                            25 2.80   7 2.81  60 2.81  61 2.81
  23  0.286  0.867  0.327-  26 2.76  68 2.77  66 2.77  14 2.79  57 2.79   2 2.81  73 2.81  47 2.82
                            13 2.82  37 2.83  31 2.84  29 2.84
  24  0.285  0.869  0.021-  60 2.79   8 2.79  49 2.80  16 2.80  48 2.80  75 2.80  59 2.81   5 2.81
                            17 2.81
  25  0.618  0.702  0.125-  66 2.74  20 2.74  67 2.74  58 2.78  75 2.79  17 2.79  60 2.80  22 2.80
                            19 2.81  21 2.81   8 2.81  45 2.81
  26  0.202  0.034  0.226-  49 2.74   8 2.75  54 2.75  13 2.75  47 2.75  23 2.76  68 2.79  66 2.80
                            65 2.80  69 2.81  62 2.82  77 2.83
  27  0.869  0.953  0.433-  97 1.85  87 1.85  96 1.85  34 2.80  35 2.80  29 2.80  32 2.80  39 2.81
                            40 2.81  72 2.84   2 2.84   1 2.85
  28  0.120  0.453  0.432-  89 1.85  90 1.85  88 1.85  36 2.80  39 2.80  30 2.80  50 2.81  35 2.81
                            33 2.81   3 2.84   9 2.85  15 2.85
  29  0.119  0.953  0.433-  84 1.83  94 1.84  97 1.85  32 2.80  27 2.80  33 2.80  39 2.81  31 2.81
                            37 2.82  47 2.84  23 2.84   2 2.85
  30  0.870  0.452  0.432-  83 1.78  89 1.85  93 1.85  33 2.80  28 2.80  35 2.81  32 2.81  52 2.81
                            38 2.83   9 2.83  63 2.84  56 2.84
  31  0.369  0.954  0.432-  85 1.78  95 1.85  94 1.85  33 2.80  36 2.80  34 2.81  29 2.81  52 2.81
                            37 2.83  13 2.83  23 2.84  73 2.84
  32  0.869  0.202  0.433-  92 1.83  93 1.84  97 1.85  29 2.80  27 2.80  33 2.80  40 2.81  30 2.81
                            38 2.82  63 2.84  47 2.84  72 2.85
  33  0.119  0.203  0.432-  90 1.85  94 1.86  93 1.86  30 2.80  31 2.80  32 2.80  29 2.80  36 2.81
                            28 2.81   9 2.83  13 2.83  47 2.84
  34  0.619  0.954  0.432-  96 1.85  86 1.85  95 1.85  52 2.80  40 2.80  27 2.80  36 2.81  31 2.81
                            35 2.81  43 2.83   1 2.84  73 2.85
  35  0.870  0.703  0.432-  87 1.85  86 1.85  89 1.85  52 2.80  27 2.80  39 2.80  28 2.81  30 2.81
                            34 2.81   3 2.83   1 2.84  56 2.85
  36  0.369  0.203  0.432-  95 1.85  90 1.85  91 1.85  28 2.80  31 2.80  40 2.80  50 2.81  34 2.81
                            33 2.81  43 2.84  13 2.85  15 2.85
  37  0.370  0.701  0.433-  84 1.87  85 1.94  82 2.16  81 2.16  38 2.78  50 2.79  39 2.81  52 2.82
                            29 2.82  31 2.83  23 2.83  14 2.85  57 2.86
  38  0.618  0.454  0.433-  92 1.87  83 1.94  81 2.15  82 2.16  37 2.78  50 2.79  40 2.81  52 2.82
                            32 2.82  30 2.83  63 2.83  14 2.85  41 2.86
  39  0.120  0.702  0.432-  84 1.85  88 1.85  87 1.85  35 2.80  50 2.80  28 2.80  37 2.81  29 2.81
                            27 2.81   2 2.83  57 2.83   3 2.85
  40  0.619  0.203  0.432-  92 1.85  91 1.85  96 1.85  34 2.80  50 2.80  36 2.80  38 2.81  32 2.81
                            27 2.81  72 2.83  41 2.83  43 2.85
  41  0.535  0.369  0.326-  79 2.75  51 2.76  80 2.76  63 2.79  50 2.80  43 2.80  57 2.80  72 2.81
                            14 2.81  15 2.81  40 2.83  38 2.86
  42  0.535  0.369  0.021-  61 2.79  22 2.79   7 2.79  17 2.80  59 2.80  64 2.81  74 2.81  44 2.81
                            18 2.81
  43  0.535  0.119  0.326-  71 2.76  69 2.76  80 2.76  73 2.80  41 2.80  15 2.80  13 2.81   1 2.81
                            72 2.81  34 2.83  36 2.84  40 2.85
  44  0.535  0.119  0.021-  53 2.79   7 2.79  19 2.79  18 2.80   4 2.81  74 2.81  75 2.81  42 2.81
                            16 2.81
  45  0.869  0.452  0.125-  12 2.73  67 2.74  77 2.75  64 2.79  58 2.79  10 2.79  54 2.80  46 2.80
                            11 2.80  22 2.80  21 2.81  25 2.81
  46  0.118  0.452  0.125-  12 2.73  76 2.74  62 2.74   6 2.79  10 2.79  18 2.79  45 2.80  21 2.80
                            61 2.81  53 2.81  54 2.81  70 2.81
  47  0.035  0.119  0.327-  26 2.75  77 2.75  65 2.76   2 2.80  72 2.80  13 2.81   9 2.81  23 2.82
                            63 2.82  33 2.84  32 2.84  29 2.84
  48  0.036  0.119  0.022-  49 2.79  11 2.79  54 2.79  16 2.79  10 2.79  24 2.80  64 2.80  74 2.81
                             5 2.81
  49  0.118  0.952  0.125-  68 2.73  65 2.74  26 2.74  48 2.79   5 2.79  24 2.80  54 2.80   8 2.80
                            60 2.80  11 2.80  70 2.80  78 2.81
  50  0.369  0.453  0.430-  91 1.85  88 1.85  38 2.79  37 2.79  57 2.80  41 2.80  40 2.80  39 2.80
                            36 2.81  28 2.81  15 2.84
  51  0.452  0.536  0.225-  22 2.74  60 2.74  61 2.74  57 2.76  41 2.76  14 2.76  66 2.80  68 2.80
                            76 2.80  67 2.80  80 2.80  79 2.81
  52  0.620  0.704  0.431-  86 1.85  83 1.85  85 1.86  35 2.80  34 2.80  31 2.81  73 2.81  56 2.81
                            30 2.81  37 2.82  38 2.82  14 2.83
  53  0.368  0.202  0.125-  69 2.73  62 2.74  80 2.74  44 2.79  16 2.79  18 2.79   8 2.80  19 2.80
                            61 2.81  46 2.81   7 2.81  54 2.81
  54  0.118  0.202  0.126-  62 2.72  77 2.75  26 2.75  48 2.79  11 2.80  16 2.80  45 2.80  49 2.80
                            10 2.80   8 2.80  46 2.81  53 2.81
[...]
   -.867E+00 -.703E+00 -.247E+04   0.813E+00 0.733E+00 0.247E+04   0.564E-01 -.278E-01 -.357E+00   -.177E-03 -.682E-04 -.194E-02
   -.350E+01 0.254E+01 -.246E+04   0.329E+01 -.236E+01 0.246E+04   0.212E+00 -.174E+00 -.575E+00   0.136E-03 -.127E-03 -.181E-02
   0.440E+00 -.438E+01 -.246E+04   -.390E+00 0.411E+01 0.246E+04   -.474E-01 0.268E+00 -.573E+00   -.434E-03 -.487E-04 -.148E-02
   -.975E+00 -.389E+00 -.247E+04   0.973E+00 0.331E+00 0.247E+04   0.370E-02 0.594E-01 -.353E+00   0.211E-03 -.146E-03 -.184E-02
   -.129E+01 -.699E+00 -.247E+04   0.131E+01 0.710E+00 0.247E+04   -.169E-01 -.980E-02 -.415E-01   -.340E-03 0.196E-04 -.174E-02
   0.262E+00 0.189E+00 -.246E+04   -.178E+00 -.101E+00 0.247E+04   -.839E-01 -.879E-01 -.199E+00   -.536E-04 -.472E-04 -.133E-02
   0.171E+00 0.931E-01 -.246E+04   -.537E-01 -.652E-01 0.247E+04   -.117E+00 -.276E-01 -.199E+00   0.286E-03 -.464E-03 -.177E-02
   0.897E+00 -.211E+00 -.247E+04   -.909E+00 0.135E+00 0.247E+04   0.142E-01 0.760E-01 -.206E+00   -.746E-04 0.433E-03 -.155E-02
   0.431E+01 -.740E+01 -.246E+04   -.496E+01 0.837E+01 0.246E+04   0.667E+00 -.989E+00 0.209E+01   -.519E-03 -.210E-04 -.183E-02
   -.466E+01 0.751E+01 -.246E+04   0.516E+01 -.856E+01 0.246E+04   -.517E+00 0.108E+01 0.210E+01   -.986E-04 -.990E-04 -.170E-02
   0.381E+01 -.908E+00 -.246E+04   -.377E+01 0.873E+00 0.246E+04   -.408E-01 0.401E-01 -.253E+00   0.261E-03 -.138E-03 -.220E-02
   0.104E+01 0.383E+01 -.246E+04   -.105E+01 -.379E+01 0.246E+04   0.144E-01 -.519E-01 -.253E+00   0.207E-03 0.355E-03 -.165E-02
   -.190E+01 0.184E+01 -.122E+04   0.184E+01 -.182E+01 0.122E+04   0.572E-01 -.155E-01 0.591E+00   -.187E-03 0.330E-03 -.596E-03
   0.255E+00 0.244E+01 0.260E+04   -.228E+00 -.235E+01 -.260E+04   -.278E-01 -.881E-01 -.143E+01   -.185E-04 -.813E-03 0.140E-02
   -.271E+00 0.651E+00 -.122E+04   0.264E+00 -.652E+00 0.122E+04   0.786E-02 0.529E-02 0.708E+00   0.852E-05 0.479E-03 -.754E-03
   -.209E+00 0.771E+00 0.260E+04   0.202E+00 -.735E+00 -.260E+04   0.729E-02 -.341E-01 -.147E+01   0.109E-03 -.447E-03 0.131E-02
   0.464E-03 0.802E+00 0.135E+04   0.312E-01 -.841E+00 -.135E+04   -.300E-01 0.384E-01 -.699E+00   -.134E-03 0.552E-04 0.355E-02
   0.988E-01 0.609E+00 0.135E+04   -.124E+00 -.601E+00 -.135E+04   0.274E-01 -.725E-02 -.697E+00   0.783E-04 -.747E-04 0.360E-02
   0.115E+00 -.171E+00 -.123E+04   -.106E+00 0.174E+00 0.123E+04   -.706E-02 -.861E-03 0.690E+00   -.344E-03 -.153E-03 -.619E-03
   0.293E+01 0.154E+01 0.259E+04   -.285E+01 -.150E+01 -.259E+04   -.844E-01 -.471E-01 -.144E+01   -.195E-03 -.465E-03 0.110E-02
   -.320E+00 -.116E+01 0.135E+04   0.328E+00 0.117E+01 -.135E+04   -.678E-02 -.134E-01 -.733E+00   0.527E-05 0.429E-04 0.261E-02
   0.372E+00 0.348E-01 -.245E+04   -.545E+00 -.134E+00 0.245E+04   0.188E+00 0.107E+00 0.324E+00   -.194E-03 0.354E-03 -.197E-02
   -.309E+00 0.248E-01 0.611E+02   0.306E+00 -.250E-01 -.612E+02   0.452E-02 0.424E-03 0.136E+00   -.321E-03 0.262E-04 0.219E-02
   -.338E+01 -.194E+01 -.245E+04   0.349E+01 0.200E+01 0.245E+04   -.127E+00 -.704E-01 -.129E+00   -.261E-04 -.233E-03 -.159E-02
   0.697E+00 -.462E-01 0.135E+04   -.702E+00 0.237E-01 -.135E+04   0.626E-02 0.250E-01 -.694E+00   0.370E-03 -.553E-03 0.235E-02
   0.903E+00 0.708E+00 0.134E+04   -.908E+00 -.711E+00 -.134E+04   0.667E-02 0.423E-02 -.995E+00   0.104E-03 -.356E-03 0.274E-02
   0.987E-01 -.391E+00 0.578E+02   -.123E+00 0.406E+00 -.579E+02   0.252E-01 -.131E-01 0.104E+00   0.201E-03 -.635E-03 0.263E-02
   -.528E+00 0.275E+00 -.122E+04   0.566E+00 -.300E+00 0.122E+04   -.367E-01 0.252E-01 0.686E+00   0.547E-03 -.519E-03 -.973E-03
   0.574E+00 -.259E+01 -.122E+04   -.589E+00 0.253E+01 0.122E+04   0.170E-01 0.574E-01 0.587E+00   -.564E-03 0.796E-04 -.617E-03
   -.129E+01 0.781E-01 0.260E+04   0.126E+01 -.659E-01 -.260E+04   0.321E-01 -.139E-01 -.144E+01   -.144E-03 0.775E-03 0.136E-02
   0.224E+01 -.811E+00 0.260E+04   -.215E+01 0.795E+00 -.260E+04   -.982E-01 0.162E-01 -.142E+01   0.357E-03 0.837E-04 0.132E-02
   -.131E-01 0.131E+00 0.135E+04   0.774E-02 -.123E+00 -.135E+04   0.561E-02 -.790E-02 -.763E+00   0.148E-03 0.343E-05 0.283E-02
[...]
   0.207E+00 0.651E-01 -.303E+03   -.165E+00 -.126E+00 0.305E+03   -.399E-01 0.641E-01 -.147E+01   -.309E-04 0.906E-05 -.112E-03
   0.183E+00 0.119E+01 -.303E+03   -.291E+00 -.150E+01 0.304E+03   0.104E+00 0.293E+00 -.147E+01   -.946E-05 0.741E-05 -.747E-04
   -.121E+00 -.836E-01 -.304E+03   0.113E+00 0.785E-01 0.306E+03   0.103E-01 0.575E-02 -.149E+01   -.117E-04 -.359E-04 -.523E-04
   -.435E-01 -.165E-01 -.304E+03   0.694E-01 0.260E-01 0.306E+03   -.224E-01 -.803E-02 -.149E+01   0.511E-04 -.352E-04 -.780E-04
   0.252E+00 0.544E+00 -.304E+03   -.242E+00 -.558E+00 0.306E+03   -.975E-02 0.159E-01 -.148E+01   0.313E-04 0.140E-04 -.121E-03
   -.178E+00 -.144E+00 -.304E+03   0.174E+00 0.152E+00 0.306E+03   0.588E-02 -.682E-02 -.148E+01   -.696E-06 -.193E-04 -.892E-04
   0.447E-01 0.191E-01 -.304E+03   -.484E-01 -.203E-01 0.306E+03   0.860E-02 0.424E-02 -.148E+01   -.141E-04 0.214E-04 -.679E-04
   0.611E+00 -.209E-01 -.304E+03   -.618E+00 0.333E-01 0.306E+03   0.884E-02 -.145E-01 -.148E+01   0.108E-04 0.587E-04 -.827E-04
   0.134E+00 0.170E+00 -.303E+03   -.165E+00 -.101E+00 0.305E+03   0.353E-01 -.676E-01 -.147E+01   0.180E-04 -.234E-04 -.785E-04
   -.645E+00 -.719E-01 -.304E+03   0.683E+00 0.794E-01 0.306E+03   -.343E-01 -.485E-02 -.148E+01   -.140E-04 -.418E-05 -.942E-04
   -.417E+00 -.535E+00 -.304E+03   0.444E+00 0.564E+00 0.306E+03   -.231E-01 -.276E-01 -.148E+01   -.348E-04 -.158E-04 -.883E-04
   -.216E+00 -.700E-01 -.304E+03   0.221E+00 0.616E-01 0.306E+03   -.321E-02 0.909E-02 -.148E+01   -.341E-04 -.125E-05 -.448E-04
   -.534E-01 -.250E-01 -.304E+03   0.756E-01 0.412E-01 0.306E+03   -.193E-01 -.145E-01 -.149E+01   0.206E-04 0.290E-04 -.419E-04
   0.304E+00 0.137E+00 -.304E+03   -.313E+00 -.140E+00 0.306E+03   0.118E-01 0.429E-02 -.149E+01   0.483E-04 0.973E-05 -.979E-04
   -.969E+00 -.552E+00 0.445E+02   0.212E-13 0.330E-12 0.523E-11   0.962E+00 0.550E+00 -.444E+02   -.681E-05 -.423E-05 0.586E-01

 POSITION                                       TOTAL-FORCE (eV/Angst)
     13.69240      8.44726      7.17654         0.001879      0.001499      0.000452
      5.27167      8.44437      7.18394         0.001904      0.001790      0.000178
      3.86925      6.01207      7.17599         0.002107      0.000652      0.000076
     13.68663      8.44380      0.47216         0.000159      0.000463     -0.001590
      5.26938      8.44403      0.47463         0.000639      0.000867     -0.001938
      3.86800      6.01200      0.47176         0.000153     -0.000095     -0.001047
      8.07591      1.96426      2.74271         0.001109      0.000127     -0.001379
      9.47496      9.25496      2.74592         0.001004      0.001057     -0.000577
      2.46538      3.58257      7.18076         0.002172      0.001438      0.000663
      2.46331      3.57731      0.47083         0.000266     -0.000287     -0.001142
     10.88149      1.96369      2.75034         0.001436      0.000140     -0.001354
     13.68795      5.20005      4.94488         0.001519      0.000647     -0.000230
      3.86606      1.15515      7.18071         0.002136      0.001803      0.000611
      9.48198      6.01549      7.17624         0.002193      0.001436     -0.001241
      5.26271      3.57979      7.15600         0.003036      0.002231      0.001416
      3.85977      1.15671      0.47272         0.000144      0.000149     -0.001639
      9.47545      6.01124      0.46737         0.000386      0.000292     -0.001680
      5.26506      3.58088      0.46763         0.000240      0.000081     -0.001046
     12.28255      9.25281      2.74503         0.001431      0.000697     -0.000540
     12.28410      7.63329      4.94491         0.001450      0.001080      0.000128
     13.68567      6.82312      2.74368         0.001021      0.001148     -0.000331
      9.48008      4.39277      2.74320         0.001262     -0.000128     -0.001176
      8.07675      8.42586      7.20068         0.001605      0.000456      0.001456
      8.07540      8.44622      0.47124         0.000274      0.000953     -0.001004
     10.87960      6.82354      2.74102         0.001382      0.000532     -0.000380
      2.46071      0.32895      4.96858         0.001388      0.000943      0.000390
     15.09923      9.25872      9.51524         0.001682      0.000857      0.000732
      3.88268      4.39821      9.50973         0.002055      0.000901      0.001706
      6.67859      9.25982      9.52619         0.002158      0.001494      0.000388
     12.30324      4.39668      9.51070         0.001689      0.001094      0.002202
      9.49048      9.26865      9.51016         0.001406      0.000994      0.002185
     10.88993      1.96571      9.52496         0.001750      0.001169      0.000561
      2.47156      1.96874      9.51058         0.002411      0.001293      0.001541
     12.30038      9.26799      9.50819         0.001621      0.001079      0.000891
     13.70639      6.83091      9.50866         0.001651      0.000739      0.000804
      5.28056      1.97593      9.50951         0.001941      0.000979      0.001743
      8.08804      6.81515      9.52514         0.004685      0.000628      0.000147
      9.47706      4.40950      9.52652         0.001596      0.003973      0.001713
      5.28293      6.82491      9.50868         0.001803      0.001072     -0.000669
      8.08289      1.97548      9.50843         0.001934      0.000848     -0.000588
      8.07439      3.58434      7.17568         0.001589      0.001115     -0.000525
      8.07727      3.58703      0.47051         0.000041      0.000517     -0.001909
      6.67264      1.15668      7.17605         0.001239      0.001550      0.000076
      6.67208      1.15463      0.47289        -0.000136      0.000747     -0.002270
     12.28411      4.38984      2.74611         0.001442      0.000282     -0.000325
      3.86347      4.39277      2.73999         0.000502      0.000504      0.000155
      1.06068      1.15270      7.19015         0.002478      0.001953      0.000114
      1.06659      1.15707      0.47837        -0.000075      0.000635     -0.001745
      6.67164      9.25345      2.74958         0.001265      0.001459     -0.000632
      6.68811      4.40264      9.46538         0.003003      0.001918      0.004177
      8.07636      5.20509      4.94567         0.001585      0.000563     -0.000227
     10.90890      6.84043      9.47764         0.001822      0.000540     -0.001530
      5.26767      1.96227      2.74013         0.000891      0.000500     -0.000205
      2.45927      1.96180      2.76122         0.001536      0.000701     -0.000471
     15.08958      7.63308      4.94713         0.000931      0.000918      0.000363
     12.29459      6.01295      7.17335         0.002032      0.000820      0.000146
      6.67151      6.01219      7.17566         0.001722      0.001064     -0.000240
     12.28172      6.01269      0.47546         0.000288     -0.000289     -0.001458
      6.67728      6.01358      0.47079         0.000314      0.000661     -0.001182
      8.07512      6.82560      2.74199         0.001285      0.000909     -0.000566
[...]
     11.00844      5.23195     10.39404        -0.010017     -0.000562     -0.000983
      6.66646      7.65517     10.40890         0.003305      0.002640     -0.002705
      9.56300      7.72955     10.39411        -0.003916     -0.009676     -0.001832
     12.30143      7.64476     10.39778         0.001255      0.000302      0.002367
     15.10207      7.63493     10.41091         0.003636      0.001474      0.001927
      5.30075      5.19867     10.39809         0.001297      0.002785      0.002930
     13.70552      5.20994     10.40648         0.001881      0.001244      0.003020
      3.87449      2.77868     10.40811         0.005125      0.003134      0.006005
      6.68287      2.80347     10.39818         0.002973     -0.000881      0.002320
      9.49476      2.75651     10.40816         0.004057      0.002253     -0.002272
     12.28440      2.78008     10.41636         0.003057      0.002903      0.003610
      2.46995      0.34208     10.41603         0.003968      0.001195      0.004049
      5.28412      0.35775     10.40622         0.002372      0.000643      0.002395
      8.08334      0.35527     10.41066         0.002991      0.001794      0.001410
     10.88700      0.34729     10.42260         0.002750      0.001828      0.001432
    total drift:                               -0.007209     -0.001950      0.088981

  FREE ENERGIE OF THE ION-ELECTRON SYSTEM (eV)
  free  energy   TOTEN  =      -577.73648792 eV

  energy  without entropy=     -577.79782971  energy(sigma->0) =     -577.75693518

 NEB: the previous image is higher in energy: F
 NEB: the next image is higher in energy    : F
 NEB: image is at an extrema
 NEB: diff energy (min, max):     0.358256  577.736488

 NEB: Tangent
      0.00577      0.00234     -0.00032
      0.00328      0.00073      0.00521
      0.00352     -0.00205     -0.00055
     -0.00354      0.00145      0.00363
     -0.00328      0.00197      0.00538
     -0.00282      0.00019      0.00448
     -0.00301      0.00072      0.00046
     -0.00410      0.00439      0.00443
     -0.00067      0.00093      0.01193
     -0.00406     -0.00299      0.00596
      0.00032      0.00066      0.00667
      0.00079     -0.00260      0.00160
      0.00121     -0.00261      0.01181
      0.00527      0.00201     -0.01449
      0.00011     -0.00081     -0.00727
     -0.00915      0.00369      0.00667
     -0.00587     -0.00005     -0.00062
     -0.00661     -0.00060      0.00376
     -0.00383      0.00200      0.00213
      0.00040      0.00080     -0.00108
     -0.00186     -0.00132      0.00169
     -0.00030     -0.00120     -0.00050
      0.00512     -0.01193      0.01668
     -0.00274      0.00433      0.00135
     -0.00133      0.00132     -0.00179
     -0.00280     -0.01148      0.01978
      0.01161      0.00440      0.00712
      0.01636      0.00510      0.00472
      0.01233      0.00181      0.01173
      0.01021      0.00695      0.01921
      0.01363      0.00097      0.01844
      0.00982      0.00523      0.01239
      0.00828      0.00266      0.00672
      0.01360      0.00840     -0.00192
      0.01537      0.00451     -0.00004
      0.01340      0.00823      0.00587
      0.02738     -0.01467     -0.02487
      0.00389      0.02659     -0.02359
      0.01882     -0.00016     -0.00092
      0.01077      0.01320     -0.00065
     -0.00098      0.00143     -0.00230
     -0.00247      0.00399      0.00064
      0.00056      0.00331     -0.00053
     -0.00424      0.00223      0.00502
     -0.00001     -0.00253      0.00461
     -0.00440     -0.00509      0.00636
      0.00294      0.00032      0.01037
      0.00119      0.00451      0.00949
     -0.00126      0.00285      0.00539
      0.02479      0.01153     -0.01576
     -0.00025      0.00065     -0.00286
      0.01382      0.00534     -0.06137
     -0.00771      0.00192      0.00630
     -0.00060      0.00190      0.02270
     -0.00018      0.00079      0.00059
      0.01029     -0.00314     -0.00425
      0.00133     -0.00318     -0.00236
     -0.00502      0.00051      0.00352
     -0.00049      0.00119     -0.00016
     -0.00326      0.00323     -0.00121
[...]
     -0.07356      0.12286     -0.06445
      0.03072     -0.00136     -0.01415
      0.06856     -0.12857     -0.06400
     -0.01300     -0.00883     -0.02165
      0.01336     -0.00247      0.00087
      0.03609     -0.00553     -0.00334
      0.01240      0.00223      0.00333
      0.01011      0.00405      0.00421
      0.01421      0.03116     -0.00266
      0.01672      0.02279     -0.01398
      0.00271      0.01171      0.01137
      0.01383     -0.00620      0.01047
      0.00990      0.00629      0.00332
      0.00642      0.01047      0.00018
      0.01178      0.00377      0.00902

 NEB: forces: par spring, perp REAL, dneb     2.540488    0.110096    0.000000
 NEB: distance to prev, next image, angle between     1.296091    0.787994  139.070305
 NEB: projections on to tangent (spring, REAL)    -2.540488    0.030094

 stress matrix after NEB project (eV)
    -61.97233      0.16711     -0.52037
      0.16711    -62.13825     -0.33512
     -0.52037     -0.33512     -1.58538
  FORCES: max atom, RMS     0.085044    0.011589
  FORCE total and by dimension    0.114135    0.068349
  Stress total and by dimension   87.778512   62.138250
 Quasi-Newton relaxation of ions (Broydens 2nd method)
  g(Force)  = 0.126E-03   g(Stress)= 0.000E+00

 Reset! Starting new Quasi-Newton update for ions

 reached required accuracy - stopping structural energy minimisation