 vasp.5.4.4.18Apr17-6-g9f103f2a35 (build Nov 30 2020 22:55:02) complex

 executed on             LinuxIFC date 2023.09.09  20:37:50

 INCAR:
 POTCAR:    PAW_PBE Ni 02Aug2007
 POTCAR:    PAW_PBE Pt 04Feb2005
 POTCAR:    PAW_PBE H 15Jun2001
 POTCAR:    PAW_PBE Ni 02Aug2007
   VRHFIN =Ni:

   TITEL  = PAW_PBE Ni 02Aug2007
   POMASS =   58.690; ZVAL   =   10.000    mass and valenz
   ENMAX  =  269.532; ENMIN  =  202.149 eV

 POTCAR:    PAW_PBE Pt 04Feb2005
   VRHFIN =Pt: s1d9

   TITEL  = PAW_PBE Pt 04Feb2005
   POMASS =  195.080; ZVAL   =   10.000    mass and valenz
   ENMAX  =  230.283; ENMIN  =  172.712 eV

 POTCAR:    PAW_PBE H 15Jun2001
   VRHFIN =H: ultrasoft test

   TITEL  = PAW_PBE H 15Jun2001
   POMASS =    1.000; ZVAL   =    1.000    mass and valenz
   ENMAX  =  250.000; ENMIN  =  200.000 eV

 Optimization of the real space projectors (new method)

 maximal supplied QI-value         = 16.25
 optimisation between [QCUT,QGAM] = [ 11.86, 23.89] = [ 39.41,159.82] Ry
 Optimized for a Real-space Cutoff    1.33 Angstroem

   l    n(q)    QCUT    max X(q) W(low)/X(q) W(high)/X(q)  e(spline)
   2      9    11.864    60.317    0.21E-03    0.51E-03    0.25E-06
   2      9    11.864    55.921    0.21E-03    0.51E-03    0.26E-06
   0      9    11.864    51.690    0.22E-03    0.30E-04    0.17E-06
   0      9    11.864    30.015    0.20E-03    0.28E-04    0.15E-06
   1      9    11.864    18.849    0.76E-04    0.33E-03    0.17E-06
   1      9    11.864    14.624    0.60E-04    0.28E-03    0.15E-06
 Optimization of the real space projectors (new method)

[...]

   l    n(q)    QCUT    max X(q) W(low)/X(q) W(high)/X(q)  e(spline)
   2     10    11.920    66.195    0.79E-04    0.18E-03    0.24E-06
   2     10    11.920    64.643    0.81E-04    0.19E-03    0.24E-06
   0     11    11.920    95.520    0.28E-04    0.54E-04    0.18E-06
   0     11    11.920    63.403    0.27E-04    0.52E-04    0.17E-06
   1     10    11.920    19.961    0.18E-04    0.11E-03    0.23E-06
   1     10    11.920    13.289    0.25E-04    0.87E-04    0.19E-06
 Optimization of the real space projectors (new method)

 maximal supplied QI-value         = 34.20
 optimisation between [QCUT,QGAM] = [ 11.97, 23.94] = [ 40.13,160.53] Ry
 Optimized for a Real-space Cutoff    1.18 Angstroem

   l    n(q)    QCUT    max X(q) W(low)/X(q) W(high)/X(q)  e(spline)
   0      8    11.971    19.460    0.15E-03    0.31E-03    0.25E-06
   0      8    11.971    12.209    0.13E-03    0.29E-03    0.25E-06
   1      8    11.971     4.655    0.22E-03    0.24E-03    0.21E-06
  PAW_PBE Ni 02Aug2007                  :
  PAW_PBE Pt 04Feb2005                  :
  PAW_PBE H 15Jun2001                   :

 POSCAR: PtM\(2)
  positions in direct lattice
  velocities in cartesian coordinates
 exchange correlation table for  LEXCH =        8
   RHO(1)=    0.500       N(1)  =     2000
   RHO(2)=  100.500       N(2)  =     4000

 ion  position               nearest neighbor table
   1  0.785  0.869  0.311-  55 2.43  20 2.43  39 2.43  73 2.62  65 2.63  72 2.64   3 2.64  29 2.64
                            57 2.64   2 2.64  56 2.64  40 2.64
   2  0.036  0.869  0.311-  49 2.43  52 2.43  39 2.43  77 2.61  67 2.63  65 2.63  23 2.64   3 2.64
                            33 2.64   1 2.64  56 2.64  41 2.65
   3  0.036  0.619  0.311-  39 2.43  12 2.43  60 2.43  77 2.62  66 2.62  73 2.64  15 2.64   9 2.64
                             2 2.64   1 2.64  40 2.65  41 2.65
   4  0.787  0.867  0.051-  21 2.44  62 2.44  19 2.45  42 2.64   5 2.64   6 2.64  59 2.64  58 2.65
                            30 2.66
   5  0.037  0.868  0.051-  54 2.44  35 2.44  62 2.45  24 2.64  43 2.64   4 2.64   6 2.64  58 2.65
                            34 2.65
   6  0.037  0.617  0.051-  32 2.44  54 2.44  21 2.45  18 2.63  43 2.63  10 2.63  42 2.64   4 2.64
                             5 2.64
   7  0.620  0.202  0.138-  28 2.44  30 2.44  58 2.45  55 2.45  63 2.46  64 2.46  19 2.64  62 2.64
                            37 2.64  45 2.64  22 2.64  11 2.64
   8  0.370  0.952  0.138-  16 2.44  24 2.44  59 2.45  53 2.45  26 2.46  50 2.46  38 2.64  37 2.64
                            35 2.64  25 2.64  19 2.64  44 2.64
   9  0.035  0.369  0.311-  12 2.42  61 2.43  46 2.43  71 2.62  66 2.63  68 2.63  33 2.64  13 2.64
                             3 2.64  40 2.64  15 2.65  47 2.65
  10  0.037  0.368  0.051-  38 2.44  32 2.44  31 2.45  18 2.63  16 2.63   6 2.63  34 2.63  42 2.64
                            48 2.64
  11  0.870  0.202  0.138-  48 2.44  58 2.44  34 2.45  49 2.45  61 2.45  63 2.47  35 2.64  31 2.64
                            22 2.64  38 2.64  62 2.64   7 2.64
  12  0.952  0.535  0.225-   9 2.42   3 2.43  40 2.43  31 2.45  21 2.45  32 2.45  61 2.64  20 2.64
                            39 2.64  46 2.64  51 2.65  60 2.65
  13  0.285  0.119  0.311-  46 2.42  26 2.43  53 2.43  69 2.62  74 2.62  71 2.63   9 2.64  29 2.64
                            33 2.64  57 2.64  23 2.65  15 2.65
  14  0.535  0.619  0.312-  36 2.43  50 2.44  51 2.45  27 2.62  80 2.62  41 2.62  47 2.63  23 2.64
                            40 2.65  57 2.65  76 2.67  75 2.67
  15  0.286  0.370  0.312-  60 2.43  64 2.43  46 2.44  74 2.62  66 2.63  27 2.63  41 2.63   3 2.64
                            29 2.64  79 2.65  13 2.65   9 2.65
  16  0.287  0.119  0.051-   8 2.44  37 2.44  38 2.45  30 2.63  10 2.63  34 2.63  18 2.64  59 2.64
                            24 2.64
  17  0.536  0.618  0.051-  22 2.44  25 2.44  44 2.45  28 2.64  43 2.64  24 2.64  48 2.64  59 2.65
                            42 2.65
  18  0.286  0.368  0.051-  37 2.44  45 2.44  32 2.45   6 2.63  43 2.63  10 2.63  16 2.64  30 2.64
                            28 2.64
  19  0.620  0.952  0.137-  59 2.44  30 2.44   4 2.45  55 2.46  20 2.46  53 2.46   7 2.64  62 2.64
                             8 2.64  21 2.64  25 2.64  37 2.64
  20  0.702  0.785  0.225-  40 2.43   1 2.43  57 2.43  19 2.46  25 2.46  21 2.46  12 2.64  53 2.64
                            55 2.64  51 2.64  39 2.64  50 2.64
  21  0.870  0.701  0.138-   4 2.44  42 2.44   6 2.45  12 2.45  39 2.45  20 2.46  31 2.64  32 2.64
                            54 2.64  25 2.64  19 2.64  62 2.64
  22  0.620  0.452  0.138-  17 2.44  28 2.44  48 2.45  63 2.45  51 2.45  36 2.47  25 2.64  11 2.64
                            31 2.64   7 2.64  45 2.64  44 2.64
  23  0.285  0.869  0.311-  52 2.43  50 2.43  26 2.44  69 2.62  67 2.62  41 2.64  14 2.64   2 2.64
                            57 2.64  33 2.64  13 2.65  75 2.65
  24  0.287  0.868  0.051-  44 2.44   8 2.44  35 2.45   5 2.64  34 2.64  17 2.64  59 2.64  16 2.64
                            43 2.65
  25  0.619  0.702  0.137-  59 2.44  17 2.44  42 2.45  20 2.46  51 2.46  50 2.47  22 2.64  31 2.64
                             8 2.64  44 2.64  21 2.64  19 2.64
  26  0.202  0.036  0.225-  13 2.43  33 2.43  23 2.44  38 2.45  35 2.45   8 2.46  53 2.64  49 2.64
                            46 2.64  61 2.64  50 2.64  52 2.64
  27  0.535  0.371  0.312-  36 2.43  64 2.44  63 2.45  78 2.61  14 2.62  41 2.62  47 2.63  15 2.63
                            29 2.65  56 2.65  76 2.67  79 2.67
  28  0.536  0.368  0.051-   7 2.44  22 2.44  45 2.45  43 2.64  30 2.64  17 2.64  18 2.64  58 2.64
                            48 2.65
  29  0.535  0.119  0.311-  64 2.42  53 2.43  55 2.43  78 2.62  72 2.63  74 2.63  56 2.64  13 2.64
                            15 2.64   1 2.64  57 2.64  27 2.65
  30  0.536  0.119  0.051-  19 2.44   7 2.44  37 2.44  16 2.63  18 2.64  28 2.64  59 2.64  58 2.65
                             4 2.66
  31  0.870  0.452  0.138-  42 2.44  48 2.44  10 2.45  61 2.45  12 2.45  51 2.46  21 2.64  32 2.64
                            11 2.64  38 2.64  25 2.64  22 2.64
  32  0.119  0.452  0.138-   6 2.44  10 2.44  46 2.45  18 2.45  12 2.45  60 2.46  21 2.64  38 2.64
                            31 2.64  37 2.64  54 2.64  45 2.64
  33  0.035  0.119  0.311-  61 2.43  49 2.43  26 2.43  67 2.62  71 2.62  70 2.63   9 2.64  13 2.64
                            56 2.64   2 2.64  23 2.64  47 2.65
  34  0.037  0.118  0.051-  35 2.44  38 2.44  11 2.45  16 2.63  10 2.63  24 2.64  48 2.64  58 2.64
                             5 2.65
  35  0.119  0.952  0.138-  34 2.44   5 2.44  24 2.45  26 2.45  49 2.45  52 2.46  11 2.64  44 2.64
                            38 2.64  62 2.64   8 2.64  54 2.64
  36  0.453  0.535  0.226-  27 2.43  14 2.43  41 2.44  45 2.46  44 2.46  22 2.47  51 2.63  63 2.63
                            60 2.63  64 2.63  50 2.63  52 2.64
  37  0.369  0.202  0.138-  18 2.44  16 2.44  30 2.44  53 2.45  46 2.45  64 2.46  45 2.64  38 2.64
                            32 2.64   7 2.64   8 2.64  19 2.64
  38  0.120  0.202  0.138-  10 2.44  34 2.44  26 2.45  16 2.45  46 2.45  61 2.45  32 2.64  37 2.64
                             8 2.64  11 2.64  31 2.64  35 2.64
  39  0.953  0.785  0.225-   3 2.43   2 2.43   1 2.43  54 2.45  21 2.45  62 2.45  55 2.64  12 2.64
                            49 2.64  20 2.64  60 2.64  52 2.64
  40  0.785  0.619  0.311-  51 2.43  20 2.43  12 2.43  80 2.62  68 2.62  73 2.63  47 2.64  57 2.64
                             9 2.64   1 2.64  14 2.65   3 2.65
  41  0.286  0.619  0.312-  36 2.44  52 2.44  60 2.44  14 2.62  27 2.62  77 2.62  15 2.63  23 2.64
                             2 2.65   3 2.65  79 2.66  75 2.67
  42  0.787  0.618  0.051-  31 2.44  21 2.44  25 2.45  48 2.63  10 2.64   4 2.64   6 2.64  59 2.65
                            17 2.65
  43  0.287  0.617  0.051-  45 2.44  44 2.44  54 2.45   6 2.63  18 2.63  28 2.64   5 2.64  17 2.64
                            24 2.65
  44  0.369  0.702  0.138-  24 2.44  43 2.44  17 2.45  50 2.45  52 2.46  36 2.46  54 2.64  35 2.64
                            45 2.64  25 2.64   8 2.64  22 2.64
  45  0.370  0.452  0.138-  43 2.44  18 2.44  28 2.45  64 2.45  60 2.46  36 2.46  37 2.64  44 2.64
                             7 2.64  32 2.64  54 2.64  22 2.64
  46  0.203  0.286  0.225-  13 2.42   9 2.43  15 2.44  32 2.45  38 2.45  37 2.45  12 2.64  60 2.64
                            26 2.64  64 2.64  53 2.64  61 2.64
  47  0.784  0.370  0.311-  51 2.43  63 2.43  61 2.45  70 2.62  68 2.62  27 2.63  14 2.63  40 2.64
                            56 2.64  33 2.65   9 2.65  76 2.66
  48  0.787  0.368  0.051-  11 2.44  31 2.44  22 2.45  42 2.63  10 2.64  34 2.64  58 2.64  17 2.64
                            28 2.65
  49  0.952  0.036  0.225-   2 2.43  33 2.43  56 2.43  11 2.45  35 2.45  62 2.46  61 2.64  26 2.64
                            55 2.64  39 2.64  52 2.65  63 2.65
  50  0.452  0.785  0.225-  57 2.43  23 2.43  14 2.44  44 2.45   8 2.46  25 2.47  52 2.63  51 2.63
                            36 2.63  20 2.64  26 2.64  53 2.65
  51  0.701  0.536  0.225-  40 2.43  47 2.43  14 2.45  22 2.45  25 2.46  31 2.46  36 2.63  50 2.63
                            63 2.63  20 2.64  61 2.64  12 2.65
  52  0.203  0.785  0.225-   2 2.43  23 2.43  41 2.44  44 2.46  54 2.46  35 2.46  50 2.63  60 2.63
                            36 2.64  26 2.64  39 2.64  49 2.65
  53  0.453  0.035  0.225-  57 2.42  29 2.43  13 2.43  37 2.45   8 2.45  19 2.46  55 2.64  20 2.64
                            26 2.64  46 2.64  50 2.65  64 2.65
[...]
   -.189E+01 -.809E+00 -.170E+04   0.197E+01 0.777E+00 0.170E+04   -.306E-01 -.505E-02 0.145E+01   -.460E-01 0.334E-01 0.119E+00
   0.623E+00 -.369E+01 0.334E+04   -.658E+00 0.367E+01 -.334E+04   0.413E-02 0.431E-01 -.243E+01   0.248E-01 0.768E-02 0.550E-02
   0.115E+01 -.249E+01 0.334E+04   -.107E+01 0.243E+01 -.334E+04   -.266E-01 0.233E-01 -.241E+01   -.673E-01 0.572E-01 0.117E-01
   0.137E+01 -.408E+01 0.334E+04   -.127E+01 0.396E+01 -.334E+04   -.186E-01 0.469E-01 -.235E+01   -.911E-01 0.955E-01 -.471E-01
   -.202E+01 0.479E-02 0.167E+04   0.195E+01 0.145E+00 -.167E+04   0.106E-01 0.145E-01 -.213E+00   0.652E-01 -.149E+00 0.164E-01
   -.383E+00 0.523E+01 0.167E+04   0.397E+00 -.530E+01 -.167E+04   -.806E-02 -.272E-02 -.174E+00   -.356E-02 0.236E-01 0.110E-02
   0.396E+01 0.151E+00 -.170E+04   -.394E+01 -.154E+00 0.170E+04   -.107E-01 -.898E-02 0.144E+01   -.526E-02 0.966E-02 0.128E+00
   0.220E+01 -.459E+00 0.334E+04   -.212E+01 0.448E+00 -.334E+04   -.247E-01 0.207E-01 -.231E+01   -.622E-01 -.159E-01 -.433E-01
   0.310E+01 0.645E-01 0.167E+04   -.314E+01 0.986E-02 -.167E+04   -.126E-01 0.173E-01 -.196E+00   0.170E-01 -.772E-01 -.101E-01
   0.451E+01 -.271E+01 -.130E+02   -.444E+01 0.264E+01 0.131E+02   -.864E-02 0.111E-01 -.277E+00   -.519E-01 0.581E-01 0.118E+00
   0.216E+01 0.330E+01 -.170E+04   -.214E+01 -.329E+01 0.170E+04   -.211E-01 0.273E-02 0.144E+01   0.851E-03 -.162E-01 0.117E+00
   -.112E+00 0.235E+00 -.175E+04   0.246E-02 -.313E+00 0.175E+04   0.883E-01 0.534E-01 0.167E+01   0.313E-01 0.258E-01 0.651E-01
   -.626E+01 -.384E+01 -.170E+04   0.639E+01 0.391E+01 0.170E+04   -.829E-01 -.393E-01 0.144E+01   -.380E-01 -.174E-01 0.154E+00
   0.892E-01 0.317E+01 0.334E+04   -.593E-01 -.307E+01 -.334E+04   -.101E-02 -.382E-01 -.234E+01   -.465E-01 -.640E-01 -.414E-01
   -.165E+01 -.776E+00 0.334E+04   0.160E+01 0.745E+00 -.334E+04   0.138E-02 -.360E-02 -.240E+01   0.641E-01 0.480E-01 -.104E+00
   -.228E+01 0.109E+01 0.334E+04   0.232E+01 -.105E+01 -.334E+04   0.382E-01 -.313E-02 -.236E+01   -.803E-01 -.427E-01 -.777E-01
   -.673E+00 0.166E+01 0.168E+04   0.608E+00 -.160E+01 -.168E+04   0.840E-03 -.156E-01 -.195E+00   0.694E-01 -.476E-01 -.137E-03
   0.294E+01 0.111E+01 -.107E+02   -.298E+01 -.113E+01 0.108E+02   0.208E-01 0.106E-01 -.326E+00   0.108E-01 0.950E-02 0.109E+00
   0.175E+01 -.316E+01 0.167E+04   -.175E+01 0.306E+01 -.167E+04   -.994E-02 0.133E-01 -.202E+00   0.985E-02 0.944E-01 -.145E-02
   0.528E+00 -.112E+01 0.167E+04   -.633E+00 0.118E+01 -.167E+04   -.834E-02 0.689E-02 -.195E+00   0.954E-01 -.401E-01 0.603E-01
   -.139E+01 0.209E+01 -.172E+04   0.143E+01 -.226E+01 0.172E+04   -.425E-01 0.156E+00 0.143E+01   0.511E-02 0.897E-02 0.833E-01
   -.376E+00 0.860E+00 0.334E+04   0.357E+00 -.901E+00 -.334E+04   0.116E-01 -.461E-01 -.244E+01   0.175E-02 0.926E-01 -.539E-01
   0.129E+01 -.295E+00 0.167E+04   -.138E+01 0.237E+00 -.167E+04   -.103E-01 -.898E-02 -.207E+00   0.788E-01 0.580E-01 0.708E-01
   0.984E+00 0.670E+01 -.177E+02   -.980E+00 -.675E+01 0.178E+02   -.119E-01 0.525E-01 -.285E+00   0.179E-02 -.209E-01 0.828E-01
   -.878E-01 -.391E+01 -.173E+04   0.106E+00 0.405E+01 0.173E+04   -.478E-01 -.125E+00 0.147E+01   0.330E-01 -.111E-01 0.119E+00
   -.273E+01 0.109E+01 0.334E+04   0.261E+01 -.103E+01 -.334E+04   0.436E-01 0.129E-01 -.241E+01   0.679E-01 -.718E-01 -.925E-01
   -.194E+01 -.961E+00 -.170E+04   0.197E+01 0.103E+01 0.169E+04   -.245E-01 -.138E-01 0.145E+01   -.322E-02 -.583E-01 0.117E+00
   -.432E+01 0.327E+01 0.334E+04   0.426E+01 -.311E+01 -.334E+04   0.547E-01 -.452E-01 -.241E+01   0.184E-01 -.132E+00 -.488E-01
   0.510E+01 -.227E+01 0.167E+04   -.516E+01 0.231E+01 -.167E+04   -.682E-02 -.723E-02 -.177E+00   0.184E-01 -.102E-01 0.393E-02
   -.227E+01 -.216E+01 0.167E+04   0.241E+01 0.217E+01 -.167E+04   0.564E-02 -.148E-01 -.177E+00   -.108E+00 0.305E-01 0.971E-02
   0.174E+00 -.251E-01 -.170E+04   -.201E+00 0.119E-01 0.170E+04   0.271E-01 0.202E-01 0.144E+01   -.175E-02 -.102E-01 0.126E+00
   0.354E+01 0.200E+01 0.334E+04   -.350E+01 -.196E+01 -.334E+04   -.408E-01 -.204E-01 -.235E+01   0.363E-02 -.118E-01 -.112E-01
   0.738E+00 0.215E+01 0.167E+04   -.703E+00 -.221E+01 -.167E+04   0.749E-02 -.155E-01 -.199E+00   -.496E-01 0.411E-01 -.886E-02
   -.126E+01 -.351E+00 -.273E+02   0.117E+01 0.285E+00 0.274E+02   0.330E-01 0.168E-01 -.375E+00   0.595E-01 0.454E-01 0.177E+00
   -.387E+01 0.793E+00 0.167E+04   0.395E+01 -.672E+00 -.167E+04   -.118E-01 0.645E-02 -.173E+00   -.425E-01 -.118E+00 0.132E-01
   0.340E+01 0.294E+01 0.167E+04   -.340E+01 -.292E+01 -.167E+04   0.102E-01 0.834E-02 -.170E+00   -.399E-01 -.402E-01 -.301E-01
   -.665E+00 -.772E+00 -.127E+02   0.709E+00 0.716E+00 0.128E+02   0.239E-02 -.214E-02 -.290E+00   -.473E-01 0.578E-01 0.629E-01
   0.582E+01 -.794E+00 -.170E+04   -.595E+01 0.810E+00 0.170E+04   0.112E+00 -.460E-01 0.144E+01   0.761E-02 0.361E-01 0.576E-01
   -.316E+01 0.219E+01 -.173E+04   0.330E+01 -.226E+01 0.173E+04   -.140E+00 0.259E-01 0.148E+01   0.280E-02 0.447E-01 0.116E+00
   0.300E+01 -.270E+01 0.334E+04   -.305E+01 0.267E+01 -.334E+04   -.160E-01 0.225E-01 -.241E+01   0.614E-01 0.303E-01 -.558E-01
   -.237E+01 -.244E+01 0.334E+04   0.236E+01 0.231E+01 -.334E+04   0.436E-01 0.369E-01 -.239E+01   -.356E-01 0.106E+00 -.888E-01
   -.196E+01 0.563E+00 0.167E+04   0.196E+01 -.695E+00 -.167E+04   0.391E-02 -.965E-02 -.195E+00   0.706E-02 0.117E+00 0.610E-01
   -.414E+01 -.133E+01 0.167E+04   0.418E+01 0.134E+01 -.167E+04   0.155E-01 0.137E-01 -.190E+00   -.582E-02 0.437E-02 0.634E-01
   -.475E+01 -.205E+01 -.108E+02   0.479E+01 0.207E+01 0.109E+02   0.944E-02 0.714E-02 -.310E+00   -.462E-01 -.356E-01 0.119E+00
   0.113E+01 -.225E+01 -.172E+04   -.126E+01 0.235E+01 0.172E+04   0.113E+00 -.105E+00 0.143E+01   0.110E-01 0.386E-02 0.933E-01
   0.330E+01 0.572E-01 0.334E+04   -.334E+01 -.359E-01 -.334E+04   -.578E-01 0.221E-01 -.243E+01   0.733E-01 -.461E-01 -.577E-01
   0.436E+00 0.352E+00 -.117E+02   -.411E+00 -.332E+00 0.118E+02   0.128E-02 0.612E-02 -.294E+00   -.324E-01 -.316E-01 0.430E-01
   -.187E+01 0.602E+00 -.219E+02   0.180E+01 -.617E+00 0.220E+02   0.222E-01 0.268E-02 -.312E+00   0.482E-01 0.220E-01 0.138E+00
   0.214E+00 -.192E+01 -.232E+02   -.254E+00 0.186E+01 0.233E+02   0.155E-01 0.171E-01 -.315E+00   0.352E-01 0.466E-01 0.142E+00
   -.385E+00 0.504E+00 -.195E+02   0.440E+00 -.548E+00 0.196E+02   -.412E-01 -.114E-01 -.313E+00   -.112E-01 0.584E-01 0.111E+00
   -.274E+00 0.529E+01 -.843E+01   0.267E+00 -.520E+01 0.852E+01   0.626E-02 0.406E-03 -.270E+00   0.632E-02 -.785E-01 0.110E+00
   -.149E+01 -.227E+01 0.167E+04   0.159E+01 0.213E+01 -.167E+04   0.104E-01 0.134E-02 -.228E+00   -.958E-01 0.137E+00 0.143E-01
   -.476E+00 -.577E+00 -.108E+02   0.452E+00 0.650E+00 0.109E+02   -.453E-03 0.103E-01 -.291E+00   0.247E-01 -.827E-01 0.643E-01
   0.226E-01 -.818E+00 -.170E+04   -.301E-01 0.875E+00 0.170E+04   0.184E-05 -.286E-01 0.146E+01   0.863E-02 -.290E-01 0.103E+00
   0.206E+01 0.555E+01 -.170E+04   -.210E+01 -.568E+01 0.170E+04   0.125E-01 0.116E+00 0.144E+01   0.275E-01 -.101E-01 0.507E-01
   0.123E+01 0.150E+01 0.334E+04   -.125E+01 -.137E+01 -.334E+04   -.116E-01 -.409E-01 -.244E+01   0.241E-01 -.976E-01 0.100E-01
   -.866E+00 0.177E+01 0.335E+04   0.816E+00 -.180E+01 -.334E+04   0.113E-01 -.167E-01 -.245E+01   0.404E-01 0.456E-01 -.532E-01
   -.362E+01 -.141E+01 -.213E+02   0.370E+01 0.132E+01 0.214E+02   -.381E-01 0.219E-01 -.304E+00   -.457E-01 0.641E-01 0.145E+00
[...]
   -.268E+01 -.528E+01 -.323E+04   0.259E+01 0.550E+01 0.323E+04   0.703E-01 -.267E+00 0.195E+01   0.768E-02 0.316E-01 0.265E-01
   -.379E+01 0.722E+01 -.324E+04   0.381E+01 -.718E+01 0.324E+04   -.256E-01 -.417E-01 0.178E+01   0.448E-02 -.173E-01 0.172E-01
   -.266E+01 -.161E+01 -.325E+04   0.265E+01 0.160E+01 0.325E+04   0.575E-01 0.337E-01 0.174E+01   -.125E-01 -.313E-02 0.224E-01
   -.431E+01 -.149E+01 -.325E+04   0.430E+01 0.155E+01 0.324E+04   0.220E-01 -.604E-01 0.181E+01   0.383E-02 -.571E-02 0.229E-01
   -.303E+01 -.279E+01 -.325E+04   0.308E+01 0.275E+01 0.324E+04   -.462E-01 0.358E-01 0.181E+01   -.356E-02 0.662E-02 0.223E-01
   0.413E+01 0.319E+01 -.325E+04   -.411E+01 -.314E+01 0.324E+04   -.104E-01 -.383E-01 0.181E+01   -.209E-01 -.116E-01 0.424E-01
   0.100E+02 -.180E+02 -.325E+04   -.110E+02 0.196E+02 0.325E+04   0.949E+00 -.164E+01 0.179E+01   -.235E-01 0.140E-01 -.218E-02
   -.100E+02 0.179E+02 -.325E+04   0.110E+02 -.195E+02 0.325E+04   -.989E+00 0.165E+01 0.184E+01   -.145E-02 -.181E-01 0.106E-01
   0.538E+01 -.931E+00 -.323E+04   -.560E+01 0.113E+01 0.323E+04   0.255E+00 -.196E+00 0.190E+01   -.998E-02 0.754E-02 0.272E-01
   0.159E+01 0.536E+01 -.323E+04   -.153E+01 -.563E+01 0.323E+04   -.312E-01 0.292E+00 0.189E+01   0.364E-02 -.100E-01 0.327E-01
   0.173E+02 0.104E+02 -.323E+04   -.176E+02 -.106E+02 0.323E+04   0.304E+00 0.174E+00 0.474E+00   -.425E-02 0.577E-02 0.459E-01
   -.184E+02 -.103E+02 -.322E+04   0.187E+02 0.105E+02 0.322E+04   -.269E+00 -.162E+00 0.369E+00   0.194E-01 0.117E-01 0.888E-03
   -.105E+01 -.345E+00 -.379E+03   0.155E+01 0.618E+00 0.381E+03   -.504E+00 -.266E+00 -.174E+01   -.129E-02 -.794E-03 -.657E-03
   0.106E+01 0.701E+00 -.379E+03   -.160E+01 -.102E+01 0.381E+03   0.551E+00 0.318E+00 -.176E+01   0.213E-02 0.919E-03 -.636E-03
   0.189E-01 -.107E+00 -.330E+01   -.494E-12 -.454E-12 -.551E-11   0.298E-01 0.102E+00 0.152E+00   -.326E-01 0.407E-01 0.324E+01

 POSITION                                       TOTAL-FORCE (eV/Angst)
     12.88201      7.94738      6.83452         0.002394      0.000489     -0.008477
      4.96768      7.94814      6.83377         0.001999      0.001296      0.000003
      3.64679      5.65927      6.83166         0.002630     -0.003770     -0.015739
     12.89392      7.93072      1.11750        -0.006480      0.022529      0.007204
      4.97366      7.93457      1.11960        -0.012058      0.015673     -0.001204
      3.65446      5.64440      1.12118        -0.011852      0.025513     -0.012922
      7.60690      1.84361      3.02604         0.010610      0.015563     -0.013228
      8.92763      8.70465      3.02539         0.002414     -0.051630      0.035474
      2.32345      3.37441      6.83165        -0.001257     -0.003165      0.002852
      2.33374      3.36461      1.12227        -0.005061     -0.007219     -0.010840
     10.24925      1.84531      3.02711        -0.038205      0.014113      0.005403
     12.88856      4.89685      4.94490         0.003216     -0.000666      0.001009
      3.64338      1.08865      6.83115        -0.001561     -0.003617      0.002242
      8.91962      5.66051      6.88759         0.005606     -0.001136      0.028718
      4.95584      3.37005      6.83466         0.007039      0.003262      0.002403
      3.65186      1.08418      1.11988        -0.017641      0.006511     -0.008577
      8.92561      5.65018      1.11709         0.007457      0.013003      0.009078
      4.96698      3.36887      1.12200        -0.000781     -0.009003     -0.017501
     11.56838      8.70382      3.02190         0.004136     -0.010076     -0.015219
     11.56230      7.18290      4.94633        -0.002485     -0.002012      0.010931
     12.88720      6.41517      3.02752        -0.005251      0.014899     -0.027642
      8.92783      4.13014      3.02545        -0.017732      0.023974     -0.008213
      7.60358      7.92596      6.85709         0.003557     -0.007359     -0.003895
      7.60986      7.93873      1.11836        -0.005783      0.005695     -0.012197
     10.24596      6.41680      3.02147        -0.018864     -0.009748      0.012233
      2.32568      0.31795      4.94933        -0.005834     -0.007918     -0.006703
      7.60747      3.39129      6.86448         0.000744      0.010045      0.016362
      7.60757      3.36630      1.11921        -0.001478      0.001527     -0.007108
      6.28211      1.09271      6.83016        -0.000193     -0.000346     -0.014118
      6.28451      1.08554      1.11777         0.017084     -0.012544     -0.002416
     11.56819      4.13151      3.03021        -0.043348      0.027820      0.021512
      3.64648      4.13087      3.03446         0.028036      0.022255     -0.000429
      1.00320      1.08855      6.83356        -0.001758     -0.003673      0.000709
      1.01780      1.08194      1.11999        -0.004100      0.004901      0.008494
      6.28724      8.70551      3.02768        -0.006385     -0.037912      0.005077
      7.61141      4.90078      4.96297        -0.003950     -0.005481      0.005227
      4.96690      1.84646      3.03103         0.031378      0.008469      0.005714
      2.32879      1.84564      3.03209        -0.029524     -0.019290      0.004260
     14.20582      7.18459      4.94820        -0.000517     -0.000373     -0.002960
     11.56236      5.66130      6.83602        -0.011420      0.002361     -0.006546
      6.30059      5.65746      6.86588         0.008632     -0.010415      0.019682
     11.57464      5.64731      1.11818        -0.010181      0.020560     -0.004089
      6.28689      5.64718      1.12036         0.003091      0.013023     -0.009716
      7.60477      6.41802      3.02605         0.015222     -0.024886     -0.006359
      6.28706      4.13029      3.03044         0.051403      0.031462      0.008794
      3.63376      2.60388      4.94190        -0.003181     -0.007046     -0.004407
     10.22418      3.38641      6.85606        -0.000535      0.002407     -0.002831
     10.25662      3.36685      1.11930        -0.018065     -0.003476     -0.013979
     10.24595      0.32558      4.94814        -0.004959     -0.004680     -0.004239
      8.92091      7.17244      4.95655         0.006278      0.013833      0.010651
     10.23294      4.90021      4.95701         0.015127     -0.004135      0.011011
      6.29060      7.17757      4.95443         0.001292      0.004941      0.001046
      4.96649      0.32726      4.94183         0.004993      0.007857      0.003569
      4.96652      6.41710      3.02983         0.015737      0.005130     -0.021627
      7.60542      0.32447      4.94668        -0.000654      0.000632     -0.004947
      8.92508      1.09285      6.83256         0.001451     -0.000231      0.000029
     10.24196      7.94822      6.83544        -0.000810     -0.020112     -0.007329
      8.93363      1.08195      1.11845        -0.010576     -0.006832      0.001070
     10.25000      7.94040      1.11577         0.002606     -0.001461     -0.001934
      4.97496      4.89834      4.95365        -0.003792     -0.006183     -0.006497
[...]
     11.57664      4.13134      8.96062         0.000530     -0.017534      0.000812
      8.92059      8.73081      8.96106        -0.011691     -0.001439      0.001896
     10.24474      1.84845      8.97787        -0.006034     -0.009971     -0.000757
      2.31381      1.84988      8.97066         0.026257      0.012879     -0.004091
     11.56661      8.72512      8.96849         0.006017     -0.009736      0.000997
     12.89514      6.42589      8.96916        -0.005768     -0.001254     -0.000038
      4.95530      1.84533      8.96840        -0.013605     -0.001159     -0.003539
      7.58053      6.46315      9.10829        -0.006324     -0.018635      0.016251
      8.94209      4.10483      9.10460        -0.018036     -0.001550      0.006664
      4.94457      6.43749      8.96387         0.023474      0.012591     -0.002277
      7.60131      1.83506      8.96255         0.032189      0.004619     -0.000301
      6.23035      4.11071      9.03109         0.021297      0.008226     -0.002348
     10.29490      6.45810      9.02685         0.012478     -0.000973      0.011486
      7.38930      4.79692     10.09096        -0.002009      0.004530      0.016112
      9.13987      5.78765     10.08386         0.008487      0.003757      0.038561
    total drift:                                0.016221      0.035386      0.098785

  FREE ENERGIE OF THE ION-ELECTRON SYSTEM (eV)
  free  energy   TOTEN  =      -461.11721739 eV

  energy  without entropy=     -461.11823517  energy(sigma->0) =     -461.11755665

 d Force = 0.1579338E-02[ 0.716E-03, 0.244E-02]  d Energy = 0.1475605E-02 0.104E-03
 d Force = 0.9885918E+01[ 0.987E+01, 0.990E+01]  d Ewald  = 0.9885915E+01 0.333E-05

 Conjugate gradient step on ions:
 trial-energy change:   -0.001476  1 .order   -0.001579   -0.002442   -0.000716
  (g-gl).g = 0.139E-02      g.g   = 0.179E-02  gl.gl    = 0.310E-02
 g(Force)  = 0.179E-02   g(Stress)= 0.000E+00 ortho     =-0.352E-04
 gamma     =   0.44762
 trial     =   1.37930
 opt step  =   1.95170  (harmonic =   1.95170) maximal distance =0.01099349
 next E    =  -461.117470   (d E  =  -0.00173)

 reached required accuracy - stopping structural energy minimisation