 vasp.5.4.4.18Apr17-6-g9f103f2a35 (build Oct 25 2019 11:13:22) complex

 executed on             LinuxIFC date 2021.10.14  15:37:38

 INCAR:
 POTCAR:    PAW_PBE Pt 04Feb2005
 POTCAR:    PAW_PBE Fe 06Sep2000
 POTCAR:    PAW_PBE Co 02Aug2007
 POTCAR:    PAW_PBE Cu 22Jun2005
 POTCAR:    PAW_PBE Ni 02Aug2007
 POTCAR:    PAW_PBE H 15Jun2001
 POTCAR:    PAW_PBE Pt 04Feb2005
   VRHFIN =Pt: s1d9

   TITEL  = PAW_PBE Pt 04Feb2005
   POMASS =  195.080; ZVAL   =   10.000    mass and valenz
   ENMAX  =  230.283; ENMIN  =  172.712 eV

 POTCAR:    PAW_PBE Fe 06Sep2000
   VRHFIN =Fe:  d7 s1

   TITEL  = PAW_PBE Fe 06Sep2000
   POMASS =   55.847; ZVAL   =    8.000    mass and valenz
   ENMAX  =  267.882; ENMIN  =  200.911 eV

 POTCAR:    PAW_PBE Co 02Aug2007
   VRHFIN =Co: d8 s1

   TITEL  = PAW_PBE Co 02Aug2007
   POMASS =   58.933; ZVAL   =    9.000    mass and valenz
   ENMAX  =  267.968; ENMIN  =  200.976 eV

 POTCAR:    PAW_PBE Cu 22Jun2005
   VRHFIN =Cu: d10 p1

   TITEL  = PAW_PBE Cu 22Jun2005
   POMASS =   63.546; ZVAL   =   11.000    mass and valenz
   ENMAX  =  295.446; ENMIN  =  221.585 eV

 POTCAR:    PAW_PBE Ni 02Aug2007
   VRHFIN =Ni:

   TITEL  = PAW_PBE Ni 02Aug2007
   POMASS =   58.690; ZVAL   =   10.000    mass and valenz
   ENMAX  =  269.532; ENMIN  =  202.149 eV

 POTCAR:    PAW_PBE H 15Jun2001
   VRHFIN =H: ultrasoft test

   TITEL  = PAW_PBE H 15Jun2001
   POMASS =    1.000; ZVAL   =    1.000    mass and valenz
   ENMAX  =  250.000; ENMIN  =  200.000 eV

 Optimization of the real space projectors (new method)

 maximal supplied QI-value         = 14.36
 optimisation between [QCUT,QGAM] = [ 11.92, 23.98] = [ 39.79,161.09] Ry
 Optimized for a Real-space Cutoff    1.49 Angstroem

   l    n(q)    QCUT    max X(q) W(low)/X(q) W(high)/X(q)  e(spline)
   2     10    11.920    66.195    0.79E-04    0.18E-03    0.24E-06
   2     10    11.920    64.643    0.81E-04    0.19E-03    0.24E-06
   0     11    11.920    95.520    0.28E-04    0.54E-04    0.18E-06
   0     11    11.920    63.403    0.27E-04    0.52E-04    0.17E-06
   1     10    11.920    19.961    0.18E-04    0.11E-03    0.23E-06
   1     10    11.920    13.289    0.25E-04    0.87E-04    0.19E-06
 Optimization of the real space projectors (new method)

[...]

   l    n(q)    QCUT    max X(q) W(low)/X(q) W(high)/X(q)  e(spline)
   2      9    11.864    60.317    0.21E-03    0.51E-03    0.25E-06
   2      9    11.864    55.921    0.21E-03    0.51E-03    0.26E-06
   0      9    11.864    51.690    0.22E-03    0.30E-04    0.17E-06
   0      9    11.864    30.015    0.20E-03    0.28E-04    0.15E-06
   1      9    11.864    18.849    0.76E-04    0.33E-03    0.17E-06
   1      9    11.864    14.624    0.60E-04    0.28E-03    0.15E-06
 Optimization of the real space projectors (new method)

 maximal supplied QI-value         = 34.20
 optimisation between [QCUT,QGAM] = [ 11.97, 23.94] = [ 40.13,160.53] Ry
 Optimized for a Real-space Cutoff    1.18 Angstroem

   l    n(q)    QCUT    max X(q) W(low)/X(q) W(high)/X(q)  e(spline)
   0      8    11.971    19.460    0.15E-03    0.31E-03    0.25E-06
   0      8    11.971    12.209    0.13E-03    0.29E-03    0.25E-06
   1      8    11.971     4.655    0.22E-03    0.24E-03    0.21E-06
  PAW_PBE Pt 04Feb2005                  :
  PAW_PBE Fe 06Sep2000                  :
  PAW_PBE Co 02Aug2007                  :
  PAW_PBE Cu 22Jun2005                  :
  PAW_PBE Ni 02Aug2007                  :
  PAW_PBE H 15Jun2001                   :

 POSCAR: 10.56
  positions in direct lattice
  velocities in cartesian coordinates
 exchange correlation table for  LEXCH =        8
   RHO(1)=    0.500       N(1)  =     2000
   RHO(2)=  100.500       N(2)  =     4000

 ion  position               nearest neighbor table
   1  0.788  0.879  0.318-  28 2.62  49 2.63  19 2.64  33 2.65  59 2.65  61 2.66  60 2.67  29 2.68
                             2 2.71  11 2.77  12 2.84   4 2.86
   2  0.042  0.883  0.317-  79 2.56  77 2.61  60 2.62  30 2.64  28 2.66  52 2.67  33 2.67  22 2.68
                             1 2.71   6 2.80   4 2.89  16 2.96
   3  0.279  0.381  0.320-  39 2.56  64 2.57  33 2.59  31 2.63  19 2.70  43 2.70  30 2.71  68 2.72
                             5 2.78  13 2.80  18 2.82  25 2.84
   4  0.871  0.964  0.427-  17 2.61  11 2.62   9 2.65  12 2.67   6 2.69  16 2.71   1 2.86  60 2.86
                             2 2.89
   5  0.122  0.462  0.428-  16 2.62  12 2.62  10 2.62   7 2.63  13 2.67  25 2.67  39 2.73  33 2.73
                             3 2.78
   6  0.125  0.964  0.424-   8 2.61  10 2.62   9 2.66  14 2.66   4 2.69  16 2.70   2 2.80  52 2.82
                            22 2.88
   7  0.874  0.460  0.427-  15 2.62   9 2.62   5 2.63  12 2.63  10 2.64  27 2.66  39 2.70  75 2.78
                            29 2.81
   8  0.374  0.960  0.420-  43 2.60  14 2.61   6 2.61  27 2.63  13 2.63  11 2.64  10 2.65  52 2.69
                            61 2.72
   9  0.873  0.213  0.420-  15 2.62   7 2.62  17 2.63   4 2.65   6 2.66  10 2.66  75 2.66  60 2.71
                            22 2.80
  10  0.125  0.212  0.423-  13 2.62   6 2.62   5 2.62   7 2.64   8 2.65   9 2.66  39 2.67  43 2.73
                            22 2.79
  11  0.624  0.961  0.424-   4 2.62  13 2.63  27 2.64   8 2.64  12 2.64  17 2.65   1 2.77  19 2.82
                            61 2.83
  12  0.873  0.710  0.426-   5 2.62   7 2.63  27 2.64  11 2.64  16 2.66   4 2.67  33 2.68  29 2.80
                             1 2.84
  13  0.374  0.209  0.425-  81 1.83  10 2.62  11 2.63   8 2.63  17 2.65  25 2.66   5 2.67  43 2.77
                             3 2.80  19 2.83
  14  0.377  0.712  0.423-  27 2.59   8 2.61  15 2.63  25 2.65   6 2.66  16 2.67  44 2.68  30 2.76
                            52 2.76
  15  0.626  0.462  0.423-   9 2.62   7 2.62  27 2.62  14 2.63  25 2.65  17 2.65  44 2.70  75 2.73
                            18 2.76
  16  0.127  0.707  0.430-  25 2.61   5 2.62  12 2.66  14 2.67   6 2.70   4 2.71  33 2.73  30 2.87
                             2 2.96
  17  0.624  0.211  0.422-  81 1.88   4 2.61   9 2.63  25 2.64  11 2.65  13 2.65  15 2.65  18 2.76
                            60 2.78  19 2.86
  18  0.548  0.376  0.317-  67 2.56  60 2.59  75 2.60  44 2.64  68 2.65  26 2.66  30 2.71  19 2.73
                            17 2.76  15 2.76   3 2.82  25 2.88
  19  0.534  0.125  0.315-  80 2.55  43 2.57  68 2.57  59 2.60  61 2.63   1 2.64   3 2.70  18 2.73
                            60 2.75  11 2.82  13 2.83  17 2.86
  20  0.547  0.124  0.040-  37 2.55  57 2.56  48 2.58  62 2.64  63 2.68  47 2.68  45 2.68  56 2.70
                            34 2.71
  21  0.121  0.460  0.128-  40 2.52  36 2.53  47 2.53  42 2.60  69 2.61  64 2.62  70 2.64  50 2.64
                            58 2.67  31 2.70  57 2.71  74 2.72
  22  0.044  0.136  0.314-  65 2.52  55 2.53  77 2.57  43 2.57  39 2.58  75 2.61   2 2.68  60 2.68
                            52 2.73  10 2.79   9 2.80   6 2.88  31 3.40
  23  0.042  0.130  0.033-  70 2.58  40 2.60  41 2.61  45 2.62  62 2.64  76 2.64  24 2.69  35 2.73
                            53 2.78
  24  0.130  0.958  0.132-  79 2.51  77 2.54  35 2.57  53 2.57  55 2.58  70 2.62  38 2.64  58 2.64
                            73 2.65  23 2.69  66 2.70  41 2.72
  25  0.375  0.461  0.426-  81 1.85  16 2.61  17 2.64  15 2.65  14 2.65  13 2.66   5 2.67  30 2.83
                             3 2.84  18 2.88
  26  0.455  0.546  0.219-  73 2.50  74 2.54  51 2.56  79 2.61  64 2.63  30 2.66  18 2.66  68 2.67
                            78 2.67  32 2.68  67 2.72  44 2.75
  27  0.623  0.712  0.424-  14 2.59  15 2.62   8 2.63  11 2.64  12 2.64   7 2.66  44 2.71  61 2.79
                            29 2.79
  28  0.956  0.790  0.221-  58 2.57  66 2.57  50 2.58  42 2.59  49 2.61   1 2.62  64 2.63   2 2.66
                            59 2.70  33 2.72  79 2.76  77 2.77
  29  0.794  0.622  0.319-  39 2.54  42 2.56  75 2.57  32 2.62  44 2.64  33 2.66  61 2.67   1 2.68
                            49 2.69  27 2.79  12 2.80   7 2.81
  30  0.290  0.631  0.319-  79 2.57  64 2.60  52 2.61  44 2.63   2 2.64  33 2.65  26 2.66   3 2.71
                            18 2.71  14 2.76  25 2.83  16 2.87
  31  0.203  0.281  0.225-  70 2.52  55 2.56  65 2.57  43 2.59  57 2.60   3 2.63  39 2.67  80 2.70
                            21 2.70  42 2.71  68 2.75  64 2.79  22 3.40
  32  0.706  0.549  0.221-  54 2.53  69 2.56  51 2.58  49 2.59  42 2.60  29 2.62  78 2.62  65 2.63
                            26 2.68  75 2.69  44 2.69  67 2.70
  33  0.040  0.631  0.326-   3 2.59  39 2.64  30 2.65   1 2.65  29 2.66   2 2.67  12 2.68  64 2.70
                            28 2.72  16 2.73  42 2.73   5 2.73
  34  0.797  0.862  0.042-  50 2.38  66 2.51  48 2.53  36 2.55  71 2.56  63 2.61  20 2.71  35 2.76
                            62 2.76
  35  0.056  0.866  0.038-  58 2.54  72 2.55  36 2.56  24 2.57  66 2.62  53 2.65  23 2.73  62 2.73
                            34 2.76
  36  0.046  0.628  0.037-  21 2.53  34 2.55  35 2.56  58 2.58  50 2.61  47 2.63  72 2.64  40 2.69
                            71 2.72
  37  0.627  0.222  0.129-  51 2.51  74 2.51  67 2.52  56 2.53  41 2.55  20 2.55  68 2.56  59 2.56
                            62 2.59  66 2.66  57 2.73  48 2.89
  38  0.382  0.955  0.130-  53 2.47  80 2.48  45 2.49  78 2.53  48 2.54  73 2.55  63 2.55  54 2.56
                            55 2.59  57 2.62  24 2.64  70 2.67
  39  0.035  0.384  0.325-  29 2.54   3 2.56  75 2.58  22 2.58  33 2.64  42 2.66  10 2.67  31 2.67
                             7 2.70   5 2.73  65 2.76  43 2.79
  40  0.031  0.382  0.038-  69 2.44  21 2.52  71 2.53  76 2.56  70 2.57  23 2.60  36 2.69  45 2.78
                            47 2.78
  41  0.872  0.215  0.128-  76 2.45  65 2.52  77 2.53  67 2.54  37 2.55  69 2.57  62 2.57  51 2.59
                            23 2.61  70 2.65  66 2.66  24 2.72
  42  0.955  0.545  0.224-  50 2.56  29 2.56  28 2.59  21 2.60  32 2.60  69 2.61  49 2.63  65 2.64
                            64 2.65  39 2.66  31 2.71  33 2.73
  43  0.296  0.116  0.321-  55 2.53  52 2.54  61 2.57  19 2.57  22 2.57  31 2.59   8 2.60  80 2.66
                             3 2.70  10 2.73  13 2.77  39 2.79
  44  0.541  0.630  0.322-  61 2.56  52 2.57  78 2.63  30 2.63  29 2.64  18 2.64  75 2.66  14 2.68
                            32 2.69  15 2.70  27 2.71  26 2.75
  45  0.295  0.119  0.039-  70 2.49  38 2.49  57 2.57  53 2.60  23 2.62  63 2.64  20 2.68  47 2.75
                            40 2.78
  46  0.548  0.625  0.044-  51 2.38  73 2.39  54 2.41  71 2.56  53 2.56  63 2.58  76 2.59  56 2.62
                            72 2.64
  47  0.296  0.379  0.039-  74 2.41  21 2.53  57 2.61  72 2.61  56 2.62  36 2.63  20 2.68  45 2.75
                            40 2.78
  48  0.625  0.950  0.132-  49 2.40  80 2.48  54 2.48  34 2.53  38 2.54  59 2.55  50 2.56  63 2.57
                            20 2.58  57 2.65  66 2.68  37 2.89
  49  0.706  0.794  0.220-  48 2.40  50 2.48  54 2.49  80 2.53  32 2.59  28 2.61  78 2.61  61 2.62
                             1 2.63  42 2.63  29 2.69  59 2.69
  50  0.866  0.706  0.129-  34 2.38  71 2.42  54 2.48  49 2.48  42 2.56  48 2.56  69 2.58  28 2.58
[...]

 FORCES acting on ions
    electron-ion (+dipol)            ewald-force                    non-local-force                 convergence-correction
   -.358E+02 0.805E+02 -.151E+04   0.354E+02 -.806E+02 0.150E+04   0.347E+00 0.196E+00 0.224E+01   0.203E-01 -.136E-01 0.118E+00
   0.220E+02 0.659E+02 -.150E+04   -.215E+02 -.661E+02 0.150E+04   -.493E+00 0.217E+00 0.242E+01   0.153E-01 -.488E-02 0.113E+00
   0.326E+02 -.103E+02 -.156E+04   -.342E+02 0.105E+02 0.156E+04   0.162E+01 -.150E+00 0.205E+01   -.289E-01 0.174E-01 0.123E+00
   -.926E+01 0.272E+02 -.293E+04   0.932E+01 -.271E+02 0.293E+04   -.461E-01 -.105E+00 0.708E+00   0.505E-02 -.914E-02 0.193E-01
   -.142E+02 0.801E+01 -.291E+04   0.135E+02 -.747E+01 0.291E+04   0.806E+00 -.517E+00 0.149E+01   -.802E-02 0.126E-02 -.798E-02
   -.884E+00 0.248E+01 -.291E+04   0.834E+00 -.278E+01 0.291E+04   0.597E-01 0.248E+00 0.874E+00   0.675E-02 0.127E-03 0.884E-02
   -.163E+02 -.424E+01 -.296E+04   0.164E+02 0.398E+01 0.296E+04   -.124E+00 0.220E+00 0.128E+01   -.587E-02 -.472E-02 -.191E-01
   0.162E+02 -.161E+02 -.292E+04   -.164E+02 0.163E+02 0.292E+04   0.248E+00 -.139E+00 0.177E+01   -.183E-01 -.538E-02 -.237E-02
   -.258E+02 0.137E+02 -.294E+04   0.256E+02 -.135E+02 0.294E+04   0.130E+00 -.216E+00 0.102E+01   0.149E-01 0.120E-01 -.950E-02
   -.741E+01 0.203E+01 -.290E+04   0.783E+01 -.173E+01 0.290E+04   -.367E+00 -.297E+00 0.150E+01   -.680E-02 0.728E-02 -.780E-02
   -.541E+01 -.627E+01 -.293E+04   0.571E+01 0.581E+01 0.293E+04   -.326E+00 0.435E+00 0.720E+00   0.157E-02 -.372E-03 0.112E-01
   -.103E+02 0.906E+00 -.293E+04   0.105E+02 -.115E+01 0.293E+04   -.187E+00 0.269E+00 0.993E+00   0.741E-02 -.857E-02 -.120E-01
   0.134E+02 -.138E+02 -.292E+04   -.145E+02 0.130E+02 0.292E+04   0.114E+01 0.849E+00 0.496E+00   -.141E-01 0.200E-02 -.938E-02
   0.203E+02 0.418E+01 -.293E+04   -.199E+02 -.409E+01 0.293E+04   -.410E+00 -.949E-01 0.136E+01   0.442E-02 0.939E-02 -.110E-01
   0.222E+02 -.122E+02 -.291E+04   -.216E+02 0.126E+02 0.291E+04   -.548E+00 -.296E+00 0.127E+01   0.202E-01 0.609E-02 -.178E-03
   -.192E+01 -.476E+01 -.292E+04   0.162E+01 0.429E+01 0.292E+04   0.294E+00 0.488E+00 0.100E+01   -.261E-02 -.196E-02 0.579E-02
   0.182E+02 -.319E+01 -.292E+04   -.172E+02 0.282E+01 0.292E+04   -.104E+01 0.340E+00 0.646E+00   0.353E-02 -.542E-03 0.804E-02
   0.742E+02 -.700E+02 -.154E+04   -.730E+02 0.702E+02 0.154E+04   -.110E+01 -.186E+00 0.178E+01   0.151E-01 0.128E-01 0.124E+00
   0.305E+02 -.471E+02 -.154E+04   -.316E+02 0.468E+02 0.153E+04   0.112E+01 0.292E+00 0.240E+01   0.340E-02 0.234E-03 0.130E+00
   0.333E+02 0.316E+02 0.304E+04   -.335E+02 -.317E+02 -.304E+04   0.142E+00 0.162E+00 -.238E+01   0.738E-02 -.182E-01 0.628E-02
   0.350E+02 -.820E+01 0.160E+04   -.358E+02 0.889E+01 -.160E+04   0.921E+00 -.656E+00 0.885E+00   -.114E-01 0.210E-01 0.140E+00
   -.706E+02 0.960E+01 -.149E+04   0.716E+02 -.889E+01 0.148E+04   -.891E+00 -.700E+00 0.265E+01   0.660E-03 0.388E-02 0.125E+00
   -.542E+02 0.512E+02 0.309E+04   0.548E+02 -.503E+02 -.309E+04   -.700E+00 -.864E+00 -.204E+01   0.185E-02 -.142E-01 0.463E-02
   -.846E-01 -.527E+02 0.159E+04   0.374E+00 0.523E+02 -.159E+04   -.331E+00 0.404E+00 -.750E+00   -.282E-01 0.327E-02 0.140E+00
   0.949E+01 -.115E+02 -.292E+04   -.961E+01 0.121E+02 0.292E+04   0.102E+00 -.670E+00 -.132E+00   -.625E-02 0.475E-02 -.413E-02
   -.208E+02 -.714E+01 0.678E+01   0.207E+02 0.748E+01 -.827E+01   0.662E-02 -.399E+00 0.135E+01   -.106E-01 0.912E-02 0.188E+00
   -.861E+01 0.876E+01 -.294E+04   0.822E+01 -.893E+01 0.294E+04   0.384E+00 0.192E+00 0.117E+01   -.672E-02 -.115E-01 -.182E-02
   0.188E+02 0.657E+02 0.543E+01   -.197E+02 -.669E+02 -.596E+01   0.105E+01 0.109E+01 0.254E+00   0.125E-01 -.626E-02 0.154E+00
   -.658E+02 0.856E+01 -.150E+04   0.662E+02 -.974E+01 0.149E+04   -.374E+00 0.127E+01 0.293E+01   0.134E-01 -.237E-01 0.124E+00
   0.283E+02 0.301E+02 -.155E+04   -.281E+02 -.296E+02 0.155E+04   -.271E+00 -.479E+00 0.214E+01   -.555E-02 0.231E-01 0.111E+00
   0.180E+02 -.647E+02 -.789E+02   -.190E+02 0.641E+02 0.790E+02   0.107E+01 0.583E+00 -.209E+00   -.145E-01 0.179E-01 0.176E+00
   -.230E+02 -.219E+02 0.562E+01   0.238E+02 0.226E+02 -.653E+01   -.780E+00 -.721E+00 0.684E+00   0.108E-01 -.163E-01 0.205E+00
   0.180E+02 0.145E+02 -.125E+04   -.181E+02 -.149E+02 0.125E+04   0.102E+00 0.501E+00 0.490E+00   -.197E-02 -.150E-02 0.894E-01
   -.598E+02 -.273E+01 0.244E+04   0.602E+02 0.147E+01 -.244E+04   -.404E+00 0.129E+01 -.271E+01   0.109E-01 0.538E-02 0.193E-01
   0.306E+02 -.141E+02 0.247E+04   -.304E+02 0.126E+02 -.247E+04   -.809E-01 0.147E+01 -.227E+01   -.178E-01 0.155E-01 0.184E-01
   0.228E+02 -.399E+01 0.247E+04   -.230E+02 0.453E+01 -.247E+04   0.124E+00 -.590E+00 -.287E+01   -.150E-01 0.163E-01 0.176E-01
   0.725E+01 0.518E+02 0.129E+04   -.639E+01 -.511E+02 -.129E+04   -.921E+00 -.700E+00 -.138E+00   0.590E-02 -.210E-01 0.924E-01
   0.335E+02 -.546E+02 0.128E+04   -.334E+02 0.543E+02 -.128E+04   -.112E+00 0.246E+00 -.411E+00   -.918E-02 0.213E-01 0.890E-01
   -.542E+02 -.233E+02 -.124E+04   0.545E+02 0.235E+02 0.124E+04   -.202E+00 -.244E+00 0.775E+00   -.562E-02 0.926E-02 0.943E-01
   -.934E+02 0.205E+02 0.248E+04   0.931E+02 -.203E+02 -.248E+04   0.256E+00 -.233E+00 -.263E+01   0.135E-01 -.841E-02 0.798E-04
   -.333E+02 0.462E+02 0.130E+04   0.325E+02 -.457E+02 -.130E+04   0.797E+00 -.535E+00 -.402E+00   -.922E-03 -.355E-01 0.108E+00
   -.438E+02 0.284E+01 -.444E+02   0.436E+02 -.249E+01 0.442E+02   0.189E+00 -.410E+00 -.112E+00   0.142E-01 0.443E-02 0.146E+00
   0.116E+02 -.844E+02 -.125E+04   -.117E+02 0.842E+02 0.125E+04   0.101E+00 0.193E+00 0.120E+01   -.206E-01 0.252E-02 0.997E-01
   0.135E+02 0.305E+02 -.123E+04   -.136E+02 -.305E+02 0.123E+04   0.120E+00 -.496E-01 0.445E+00   0.174E-02 -.360E-04 0.102E+00
   0.145E+02 -.466E+02 0.245E+04   -.152E+02 0.458E+02 -.245E+04   0.699E+00 0.709E+00 -.276E+01   -.192E-02 -.167E-02 0.575E-02
   0.444E+01 -.196E+02 0.276E+04   -.455E+01 0.198E+02 -.275E+04   0.129E+00 -.219E+00 -.230E+01   -.157E-02 0.574E-02 -.224E-02
   0.119E+03 0.292E+02 0.279E+04   -.120E+03 -.284E+02 -.279E+04   0.463E+00 -.707E+00 -.238E+01   -.155E-01 -.159E-01 0.712E-02
   -.364E+02 -.281E+02 0.142E+04   0.359E+02 0.271E+02 -.142E+04   0.435E+00 0.108E+01 -.488E+00   0.259E-01 0.562E-02 0.980E-01
   -.598E+02 0.671E+02 0.235E+02   0.598E+02 -.669E+02 -.245E+02   -.374E-01 -.281E+00 0.812E+00   0.338E-01 -.121E-01 0.155E+00
   -.887E+02 0.190E+02 0.141E+04   0.882E+02 -.186E+02 -.141E+04   0.512E+00 -.489E+00 -.107E+00   0.386E-01 0.868E-02 0.119E+00
   -.204E+02 0.971E+01 0.139E+04   0.206E+02 -.993E+01 -.139E+04   -.149E+00 0.290E+00 -.134E+00   -.121E-01 -.159E-01 0.126E+00
   0.456E+02 0.710E+01 -.140E+04   -.454E+02 -.732E+01 0.139E+04   -.300E+00 0.269E+00 0.145E+01   -.172E-01 -.158E-02 0.116E+00
   0.529E+02 -.807E+02 0.277E+04   -.526E+02 0.805E+02 -.276E+04   -.327E+00 0.230E+00 -.238E+01   -.525E-02 0.290E-01 0.881E-02
   -.138E+02 0.189E+01 0.138E+04   0.139E+02 -.169E+01 -.138E+04   -.115E+00 -.241E+00 -.437E+00   0.206E-01 0.117E-01 0.111E+00
   0.175E+02 -.679E+02 -.157E+02   -.166E+02 0.673E+02 0.158E+02   -.794E+00 0.591E+00 -.359E+00   -.289E-01 -.333E-02 0.160E+00
   0.309E+02 0.340E+02 0.344E+04   -.310E+02 -.332E+02 -.344E+04   0.105E+00 -.860E+00 -.359E+01   0.455E-02 -.342E-01 -.963E-02
   0.627E+02 0.825E+01 0.174E+04   -.628E+02 -.892E+01 -.174E+04   0.120E+00 0.711E+00 -.188E+00   -.805E-02 -.922E-02 0.134E+00
   0.102E+03 -.311E+02 0.172E+04   -.102E+03 0.311E+02 -.172E+04   -.198E+00 0.396E-02 0.350E-01   -.314E-01 0.295E-01 0.165E+00
   0.162E+02 0.678E+02 0.820E+02   -.168E+02 -.676E+02 -.830E+02   0.498E+00 -.158E+00 0.774E+00   0.297E-01 -.110E-01 0.172E+00
   0.165E+02 0.518E+02 -.171E+04   -.162E+02 -.512E+02 0.171E+04   -.341E+00 -.529E+00 0.150E+01   0.237E-01 -.103E-02 0.124E+00
[...]
   0.564E+02 -.364E+02 0.594E+00   -.558E+02 0.360E+02 -.103E+01   -.659E+00 0.383E+00 0.346E+00   -.210E-02 0.474E-02 0.186E+00
   -.736E+02 0.121E+01 0.155E+04   0.731E+02 -.109E+01 -.155E+04   0.408E+00 -.632E-01 -.113E+00   0.354E-01 -.161E-02 0.143E+00
   -.129E+02 0.194E+02 0.162E+04   0.132E+02 -.196E+02 -.162E+04   -.338E+00 0.214E+00 -.452E+00   0.635E-03 -.109E-01 0.118E+00
   -.101E+03 -.431E+01 0.309E+04   0.101E+03 0.434E+01 -.308E+04   -.536E+00 -.272E-01 -.135E+01   0.368E-01 0.215E-01 0.113E-02
   0.702E+02 -.523E+02 0.309E+04   -.705E+02 0.529E+02 -.309E+04   0.368E+00 -.633E+00 -.848E+00   -.159E-01 0.174E-01 0.147E-01
   0.151E+02 -.401E+02 0.155E+04   -.147E+02 0.399E+02 -.155E+04   -.392E+00 0.225E+00 -.193E-01   -.303E-01 0.152E-01 0.149E+00
   0.513E+02 0.237E+01 0.159E+04   -.508E+02 -.236E+01 -.159E+04   -.489E+00 0.222E-01 -.110E+00   -.712E-02 -.633E-03 0.146E+00
   -.396E+02 -.718E+02 -.155E+04   0.395E+02 0.719E+02 0.155E+04   0.126E+00 -.951E-01 0.841E+00   0.199E-01 0.422E-02 0.124E+00
   -.539E+02 0.296E+02 0.307E+04   0.543E+02 -.290E+02 -.307E+04   -.420E+00 -.554E+00 -.189E+01   0.129E-02 -.288E-01 -.715E-03
   -.448E+02 0.728E+02 0.751E+02   0.451E+02 -.725E+02 -.754E+02   -.352E+00 -.365E+00 0.558E-01   0.423E-02 -.164E-01 0.161E+00
   0.224E+00 0.614E+02 -.564E-01   -.284E+00 -.606E+02 -.242E+00   0.112E+00 -.840E+00 -.416E-01   -.280E-01 -.171E-02 0.195E+00
   0.466E+02 0.810E+01 -.327E+02   -.462E+02 -.751E+01 0.324E+02   -.405E+00 -.613E+00 0.720E-01   -.227E-01 0.105E-01 0.175E+00
   0.222E+02 -.518E+02 0.331E+02   -.226E+02 0.514E+02 -.335E+02   0.377E+00 0.504E+00 0.204E+00   -.164E-02 0.106E-01 0.167E+00
   -.484E+00 0.283E+01 -.347E+03   0.541E+00 -.308E+01 0.349E+03   -.400E-01 0.279E+00 -.167E+01   0.391E-03 0.101E-02 -.537E-02
   -.208E+01 -.162E+01 -.119E+02   0.404E-12 0.709E-12 0.466E-11   0.206E+01 0.159E+01 0.507E+01   0.265E-01 0.159E-01 0.678E+01

 POSITION                                       TOTAL-FORCE (eV/Angst)
     12.94941      8.03642      6.98053        -0.012639      0.004406     -0.002490
      5.10655      8.06554      6.94679        -0.003091     -0.002170     -0.022875
      4.96501      3.46915      7.04351         0.000030     -0.001001      0.003855
     14.31038      8.79066      9.32521         0.008869     -0.016665      0.014933
      3.70700      4.23727      9.39903         0.031248      0.003426     -0.013151
      6.39266      8.78834      9.26148        -0.007751     -0.009870      0.025217
     11.65922      4.20366      9.40135        -0.029490     -0.023536     -0.005739
      9.02372      8.77649      9.24189         0.006988      0.010439     -0.002391
     10.34853      1.93029      9.25819         0.013627      0.016005     -0.001133
      2.43217      1.93144      9.29110         0.001953     -0.004108      0.003988
     11.66666      8.76516      9.31413         0.017963      0.013911     -0.001714
     12.97936      6.49973      9.40238         0.013407      0.013902     -0.020156
      5.03076      1.89307      9.40968         0.019822      0.009302      0.014387
      7.73061      6.51737      9.32406         0.016517      0.016045     -0.015324
      9.05712      4.22645      9.27269         0.034547      0.021692     -0.002972
      5.05680      6.50235      9.38205        -0.000009      0.020456      0.007962
      7.73888      1.90880      9.33612        -0.018653     -0.011933      0.001866
      7.76285      3.42725      6.98383         0.014680     -0.003780      0.008737
      6.29920      1.14125      6.94574        -0.003947      0.003531     -0.013348
      6.42858      1.12974      0.87872        -0.015697     -0.009379     -0.001962
      3.70548      4.20844      2.81687         0.011320      0.009045     -0.027895
      1.17400      1.25005      6.91060         0.001619     -0.005098     -0.015507
      1.13569      1.19080      0.72557        -0.006459      0.008291      0.018965
      6.43607      8.76100      2.90031        -0.021269      0.009366     -0.002933
      6.39248      4.25583      9.45615        -0.025893     -0.036823     -0.004246
      7.68135      4.99073      4.81474        -0.011544      0.002548      0.045316
     10.33457      6.50407      9.32851        -0.039278     -0.015099      0.000376
     14.26424      7.22593      4.86299         0.041095     -0.035518     -0.056281
     11.67370      5.68943      7.02107        -0.014110     -0.008339     -0.007650
      6.41033      5.75864      7.01831        -0.002584     -0.002644     -0.002533
      3.62119      2.56589      4.96023         0.033356      0.023531      0.019094
     10.36091      5.02430      4.85652         0.025366     -0.014206     -0.017727
      3.75719      5.76331      7.15868         0.003770     -0.011532     -0.005515
     12.96907      7.87977      0.92567        -0.002529      0.002546      0.010817
      5.16340      7.91719      0.83030         0.016244      0.013983      0.001384
      3.80701      5.74502      0.81381         0.012085     -0.012061     -0.008403
      7.79852      2.03245      2.83251        -0.032376     -0.003358      0.003814
      9.07755      8.73373      2.85743         0.013754      0.011188      0.009787
      2.40337      3.50545      7.13755        -0.006191     -0.003491      0.001757
      2.34409      3.49051      0.82510         0.009418      0.002703     -0.012404
     10.34814      1.96983      2.82249        -0.025299      0.013204      0.002047
     12.96035      4.98587      4.92559         0.005530     -0.029688     -0.015254
      3.73939      1.05440      7.06137         0.004510      0.006112      0.006591
      9.03124      5.75918      7.07493        -0.003572     -0.005727      0.016375
      3.74824      1.09182      0.86700        -0.012479     -0.000126     -0.020501
      9.09121      5.71867      0.96043        -0.007047      0.025319     -0.017011
      5.12448      3.47045      0.85563        -0.002899      0.034438     -0.001632
     11.62092      8.68758      2.90590        -0.003494     -0.014399      0.014744
     11.65313      7.26450      4.84229        -0.003579     -0.011199     -0.027954
     12.86756      6.45280      2.83379         0.018349      0.007116     -0.009129
      9.04201      4.20780      2.79628         0.005431      0.012084     -0.019989
      7.76469      7.99951      6.99089         0.004456      0.004699     -0.002956
      7.81315      7.93922      0.88653        -0.009923      0.006360      0.006519
     10.39144      6.53566      2.82198         0.004431     -0.010084     -0.008904
      2.51347      0.25826      5.00083         0.025089      0.011574      0.007400
      7.74264      3.48454      0.76157         0.001945     -0.007572      0.007393
      5.07835      1.87760      2.91701         0.002236     -0.008922     -0.006591
      5.16037      6.44715      2.89923        -0.012521     -0.001980     -0.011580
      7.70892      0.45986      4.84799        -0.012326      0.030113      0.041739
      9.05422      1.18527      6.98380        -0.006438      0.002368     -0.008327
[...]
      9.07350      2.65252      4.91360        -0.001648     -0.029772      0.012801
      6.37169      2.66558      4.85827        -0.020324     -0.018701      0.037568
     11.65891      4.17486      2.81483        -0.019454     -0.000016     -0.025400
      2.44098      1.89237      2.83279         0.001844      0.015853      0.017322
     11.64953      5.68621      0.88546         0.002938      0.028555     -0.001301
      6.44743      5.71949      0.92597        -0.003029      0.017384     -0.010391
      7.82927      6.50651      2.83621        -0.015461     -0.015075      0.011992
      6.41922      4.13007      2.78290        -0.016384     -0.012181     -0.018698
     10.37276      3.46421      7.04461        -0.004998     -0.004687      0.013163
     10.34410      3.45013      0.86804         0.004550     -0.016027     -0.017548
     10.37063      0.48410      4.87151        -0.017657     -0.026364      0.003087
      9.04079      7.29017      4.93700         0.000631     -0.025741     -0.024851
      6.46265      7.29503      4.94074         0.012538      0.014234     -0.019734
      5.04247      0.27633      4.88406         0.015278      0.036268      0.048823
      6.40693      2.72013     10.38110         0.017313      0.022488      0.037137
    total drift:                                0.008025     -0.022044     -0.041796

  FREE ENERGIE OF THE ION-ELECTRON SYSTEM (eV)
  free  energy   TOTEN  =      -511.07632414 eV

  energy  without entropy=     -511.09771559  energy(sigma->0) =     -511.08345462

 d Force =-0.1428345E-05[-0.105E-04, 0.760E-05]  d Energy = 0.2631665E-04-0.277E-04
 d Force = 0.2118073E+01[ 0.212E+01, 0.212E+01]  d Ewald  = 0.2118073E+01-0.180E-08

 reached required accuracy - stopping structural energy minimisation