 vasp.5.4.4.18Apr17-6-g9f103f2a35 (build Oct 25 2019 11:13:22) complex

 executed on             LinuxIFC date 2021.10.10  19:36:42

 INCAR:
 POTCAR:    PAW_PBE Pt 04Feb2005
 POTCAR:    PAW_PBE Fe 06Sep2000
 POTCAR:    PAW_PBE Co 02Aug2007
 POTCAR:    PAW_PBE Cu 22Jun2005
 POTCAR:    PAW_PBE Ni 02Aug2007
 POTCAR:    PAW_PBE H 15Jun2001
 POTCAR:    PAW_PBE Pt 04Feb2005
   VRHFIN =Pt: s1d9

   TITEL  = PAW_PBE Pt 04Feb2005
   POMASS =  195.080; ZVAL   =   10.000    mass and valenz
   ENMAX  =  230.283; ENMIN  =  172.712 eV

 POTCAR:    PAW_PBE Fe 06Sep2000
   VRHFIN =Fe:  d7 s1

   TITEL  = PAW_PBE Fe 06Sep2000
   POMASS =   55.847; ZVAL   =    8.000    mass and valenz
   ENMAX  =  267.882; ENMIN  =  200.911 eV

 POTCAR:    PAW_PBE Co 02Aug2007
   VRHFIN =Co: d8 s1

   TITEL  = PAW_PBE Co 02Aug2007
   POMASS =   58.933; ZVAL   =    9.000    mass and valenz
   ENMAX  =  267.968; ENMIN  =  200.976 eV

 POTCAR:    PAW_PBE Cu 22Jun2005
   VRHFIN =Cu: d10 p1

   TITEL  = PAW_PBE Cu 22Jun2005
   POMASS =   63.546; ZVAL   =   11.000    mass and valenz
   ENMAX  =  295.446; ENMIN  =  221.585 eV

 POTCAR:    PAW_PBE Ni 02Aug2007
   VRHFIN =Ni:

   TITEL  = PAW_PBE Ni 02Aug2007
   POMASS =   58.690; ZVAL   =   10.000    mass and valenz
   ENMAX  =  269.532; ENMIN  =  202.149 eV

 POTCAR:    PAW_PBE H 15Jun2001
   VRHFIN =H: ultrasoft test

   TITEL  = PAW_PBE H 15Jun2001
   POMASS =    1.000; ZVAL   =    1.000    mass and valenz
   ENMAX  =  250.000; ENMIN  =  200.000 eV

 Optimization of the real space projectors (new method)

 maximal supplied QI-value         = 14.36
 optimisation between [QCUT,QGAM] = [ 11.92, 23.98] = [ 39.79,161.09] Ry
 Optimized for a Real-space Cutoff    1.49 Angstroem

   l    n(q)    QCUT    max X(q) W(low)/X(q) W(high)/X(q)  e(spline)
   2     10    11.920    66.195    0.79E-04    0.18E-03    0.24E-06
   2     10    11.920    64.643    0.81E-04    0.19E-03    0.24E-06
   0     11    11.920    95.520    0.28E-04    0.54E-04    0.18E-06
   0     11    11.920    63.403    0.27E-04    0.52E-04    0.17E-06
   1     10    11.920    19.961    0.18E-04    0.11E-03    0.23E-06
   1     10    11.920    13.289    0.25E-04    0.87E-04    0.19E-06
 Optimization of the real space projectors (new method)

[...]

   l    n(q)    QCUT    max X(q) W(low)/X(q) W(high)/X(q)  e(spline)
   2      9    11.864    60.317    0.21E-03    0.51E-03    0.25E-06
   2      9    11.864    55.921    0.21E-03    0.51E-03    0.26E-06
   0      9    11.864    51.690    0.22E-03    0.30E-04    0.17E-06
   0      9    11.864    30.015    0.20E-03    0.28E-04    0.15E-06
   1      9    11.864    18.849    0.76E-04    0.33E-03    0.17E-06
   1      9    11.864    14.624    0.60E-04    0.28E-03    0.15E-06
 Optimization of the real space projectors (new method)

 maximal supplied QI-value         = 34.20
 optimisation between [QCUT,QGAM] = [ 11.97, 23.94] = [ 40.13,160.53] Ry
 Optimized for a Real-space Cutoff    1.18 Angstroem

   l    n(q)    QCUT    max X(q) W(low)/X(q) W(high)/X(q)  e(spline)
   0      8    11.971    19.460    0.15E-03    0.31E-03    0.25E-06
   0      8    11.971    12.209    0.13E-03    0.29E-03    0.25E-06
   1      8    11.971     4.655    0.22E-03    0.24E-03    0.21E-06
  PAW_PBE Pt 04Feb2005                  :
  PAW_PBE Fe 06Sep2000                  :
  PAW_PBE Co 02Aug2007                  :
  PAW_PBE Cu 22Jun2005                  :
  PAW_PBE Ni 02Aug2007                  :
  PAW_PBE H 15Jun2001                   :

 POSCAR: 10.66
  positions in cartesian coordinates
 exchange correlation table for  LEXCH =        8
   RHO(1)=    0.500       N(1)  =     2000
   RHO(2)=  100.500       N(2)  =     4000

 ion  position               nearest neighbor table
   1  0.786  0.880  0.317-  49 2.61  28 2.63  59 2.65  19 2.66  61 2.68  33 2.68  29 2.69  60 2.70
                             2 2.74  11 2.76   4 2.81  12 2.84
   2  0.042  0.883  0.315-  79 2.54  77 2.59  60 2.65  28 2.66  30 2.67  52 2.68  33 2.70  22 2.72
                             1 2.74   6 2.75   4 2.83  16 2.89
   3  0.279  0.381  0.319-  64 2.57  39 2.58  33 2.61  31 2.64  68 2.71  19 2.72  30 2.73  43 2.74
                             5 2.77  13 2.79  25 2.84  18 2.84
   4  0.874  0.963  0.422-  81 1.87   9 2.65  17 2.65   6 2.67  16 2.67  11 2.67  12 2.68  60 2.80
                             1 2.81   2 2.83
   5  0.121  0.463  0.426-  12 2.65   7 2.65  10 2.66  16 2.66  25 2.69  13 2.70  39 2.72  33 2.72
                             3 2.77
   6  0.124  0.962  0.420-  81 1.85   8 2.65  10 2.66   9 2.66   4 2.67  14 2.67  16 2.68   2 2.75
                            52 2.76  22 2.85
   7  0.874  0.460  0.425-  15 2.64   5 2.65   9 2.65  10 2.67  12 2.68  39 2.68  27 2.68  75 2.74
                            29 2.78
   8  0.374  0.960  0.419-  43 2.60  14 2.64  27 2.65   6 2.65  13 2.66  10 2.66  11 2.67  52 2.68
                            61 2.72
   9  0.873  0.211  0.419-   4 2.65   7 2.65  17 2.66  15 2.66   6 2.66  75 2.68  10 2.68  60 2.71
                            22 2.80
  10  0.125  0.211  0.421-  13 2.65   6 2.66   5 2.66   8 2.66   7 2.67  39 2.67   9 2.68  43 2.72
                            22 2.76
  11  0.624  0.961  0.422-  13 2.66  12 2.66  17 2.67  27 2.67   8 2.67   4 2.67   1 2.76  19 2.82
                            61 2.82
  12  0.873  0.711  0.425-   5 2.65  11 2.66  16 2.67  27 2.68   7 2.68   4 2.68  33 2.69  29 2.80
                             1 2.84
  13  0.374  0.209  0.423-  10 2.65  11 2.66   8 2.66  17 2.67  25 2.69   5 2.70  43 2.75   3 2.79
                            19 2.81
  14  0.375  0.713  0.423-  27 2.63   8 2.64   6 2.67  15 2.67  25 2.68  16 2.69  44 2.69  52 2.75
                            30 2.76
  15  0.625  0.462  0.421-   7 2.64  27 2.65   9 2.66  14 2.67  25 2.68  17 2.68  44 2.68  75 2.71
                            18 2.75
  16  0.123  0.711  0.425-  81 1.87   5 2.66  25 2.67  12 2.67  33 2.67   4 2.67   6 2.68  14 2.69
                            30 2.82   2 2.89
  17  0.624  0.211  0.420-   4 2.65   9 2.66  11 2.67  25 2.67  13 2.67  15 2.68  18 2.75  60 2.77
                            19 2.85
  18  0.548  0.376  0.317-  67 2.56  60 2.61  75 2.63  68 2.65  26 2.66  44 2.67  30 2.73  17 2.75
                            15 2.75  19 2.76   3 2.84  25 2.88
  19  0.534  0.125  0.314-  80 2.55  68 2.57  43 2.58  59 2.60   1 2.66  61 2.66   3 2.72  18 2.76
                            60 2.79  13 2.81  11 2.82  17 2.85
  20  0.549  0.122  0.042-  37 2.55  57 2.55  48 2.57  62 2.66  63 2.70  34 2.71  45 2.73  47 2.74
                            56 2.74
  21  0.120  0.460  0.128-  40 2.52  36 2.53  47 2.53  42 2.60  69 2.62  64 2.62  70 2.66  50 2.67
                            31 2.71  58 2.71  57 2.74  74 2.75
  22  0.043  0.137  0.314-  65 2.51  55 2.54  77 2.57  43 2.60  39 2.60  75 2.64  60 2.71   2 2.72
                            52 2.75  10 2.76   9 2.80   6 2.85  31 3.40
  23  0.042  0.131  0.034-  70 2.57  40 2.60  41 2.61  45 2.64  62 2.65  76 2.65  24 2.69  35 2.76
                            53 2.81
  24  0.131  0.958  0.132-  79 2.51  77 2.54  35 2.57  53 2.58  55 2.58  70 2.64  38 2.66  58 2.66
                            73 2.67  23 2.69  66 2.73  41 2.75
  25  0.374  0.462  0.425-  16 2.67  17 2.67  15 2.68  14 2.68  13 2.69   5 2.69  30 2.83   3 2.84
                            18 2.88
  26  0.455  0.546  0.219-  73 2.50  74 2.55  51 2.55  79 2.63  30 2.65  64 2.65  18 2.66  68 2.69
                            78 2.69  32 2.70  44 2.75  67 2.75
  27  0.622  0.712  0.423-  14 2.63  15 2.65   8 2.65  11 2.67  12 2.68   7 2.68  44 2.68  61 2.76
                            29 2.78
  28  0.955  0.789  0.221-  58 2.56  66 2.58  50 2.58  42 2.61   1 2.63  49 2.63   2 2.66  64 2.66
                            33 2.71  59 2.73  79 2.80  77 2.82
  29  0.794  0.623  0.319-  42 2.56  39 2.56  75 2.60  32 2.62  33 2.67  49 2.67  44 2.68   1 2.69
                            61 2.70   7 2.78  27 2.78  12 2.80
  30  0.291  0.631  0.318-  79 2.56  64 2.61  52 2.63  44 2.64  26 2.65   2 2.67  33 2.68  18 2.73
                             3 2.73  14 2.76  16 2.82  25 2.83
  31  0.202  0.280  0.225-  70 2.51  55 2.58  65 2.59  43 2.59  57 2.60   3 2.64  39 2.66  21 2.71
                            80 2.72  42 2.74  68 2.79  64 2.83  22 3.40
  32  0.706  0.550  0.221-  54 2.54  69 2.57  51 2.58  49 2.60  29 2.62  42 2.63  78 2.64  65 2.65
                            75 2.68  44 2.69  26 2.70  67 2.72
  33  0.040  0.632  0.325-   3 2.61  39 2.67  29 2.67  16 2.67  30 2.68   1 2.68  12 2.69   2 2.70
                            64 2.70  28 2.71   5 2.72  42 2.73
  34  0.796  0.862  0.044-  50 2.39  66 2.51  48 2.52  36 2.55  71 2.58  63 2.62  20 2.71  62 2.79
                            35 2.80
  35  0.057  0.865  0.039-  58 2.54  72 2.55  36 2.56  24 2.57  66 2.62  53 2.68  23 2.76  62 2.76
                            34 2.80
  36  0.044  0.632  0.039-  21 2.53  34 2.55  35 2.56  58 2.58  50 2.59  47 2.67  72 2.69  71 2.74
                            40 2.76
  37  0.628  0.224  0.129-  51 2.51  67 2.52  56 2.52  74 2.53  20 2.55  68 2.56  59 2.56  41 2.57
                            62 2.59  66 2.69  57 2.76  48 2.95
  38  0.383  0.954  0.131-  53 2.46  80 2.47  45 2.47  78 2.53  73 2.56  63 2.56  48 2.56  54 2.58
                            55 2.58  57 2.65  24 2.66  70 2.70
  39  0.036  0.384  0.324-  29 2.56   3 2.58  22 2.60  75 2.61  42 2.65  31 2.66  33 2.67  10 2.67
                             7 2.68   5 2.72  65 2.74  43 2.82
  40  0.028  0.381  0.039-  69 2.42  21 2.52  71 2.54  76 2.54  70 2.56  23 2.60  36 2.76  45 2.84
                            47 2.85
  41  0.872  0.215  0.129-  76 2.45  77 2.52  65 2.52  67 2.54  37 2.57  62 2.57  69 2.59  23 2.61
                            51 2.61  70 2.68  66 2.68  24 2.75
  42  0.955  0.545  0.224-  50 2.54  29 2.56  69 2.60  21 2.60  28 2.61  32 2.63  49 2.65  39 2.65
                            65 2.65  64 2.68  33 2.73  31 2.74
  43  0.297  0.116  0.321-  55 2.53  52 2.56  19 2.58  61 2.58  31 2.59   8 2.60  22 2.60  80 2.65
                            10 2.72   3 2.74  13 2.75  39 2.82
  44  0.540  0.630  0.322-  61 2.59  52 2.61  78 2.63  30 2.64  18 2.67  75 2.68  29 2.68  15 2.68
                            27 2.68  32 2.69  14 2.69  26 2.75
  45  0.296  0.116  0.041-  38 2.47  70 2.49  57 2.57  53 2.58  23 2.64  63 2.65  20 2.73  47 2.83
                            40 2.84
  46  0.549  0.625  0.045-  51 2.38  73 2.39  54 2.41  71 2.57  53 2.59  63 2.60  76 2.62  56 2.63
                            72 2.66
  47  0.294  0.382  0.040-  74 2.41  21 2.53  57 2.64  72 2.65  56 2.66  36 2.67  20 2.74  45 2.83
                            40 2.85
  48  0.626  0.948  0.133-  49 2.40  54 2.48  80 2.48  34 2.52  59 2.55  63 2.56  38 2.56  20 2.57
                            50 2.58  57 2.68  66 2.72  37 2.95
  49  0.707  0.794  0.221-  48 2.40  50 2.48  54 2.49  80 2.56  32 2.60   1 2.61  61 2.63  28 2.63
                            78 2.64  42 2.65  29 2.67  59 2.73
  50  0.865  0.704  0.130-  34 2.39  71 2.42  49 2.48  54 2.49  42 2.54  48 2.58  28 2.58  69 2.58
                            36 2.59  21 2.67  66 2.81  58 2.90
[...]
   0.375E+02 -.110E+02 -.152E+04   -.391E+02 0.113E+02 0.152E+04   0.170E+01 -.243E+00 0.204E+01   -.309E-01 0.244E-01 -.169E+00
   0.714E+01 0.197E+02 -.289E+04   -.762E+01 -.191E+02 0.289E+04   0.516E+00 -.546E+00 0.259E+00   -.112E-01 -.281E-01 -.325E-01
   -.127E+02 0.995E+01 -.289E+04   0.121E+02 -.954E+01 0.288E+04   0.586E+00 -.406E+00 0.155E+01   0.235E-02 0.167E-01 -.470E-01
   -.115E+02 -.217E+01 -.287E+04   0.121E+02 0.238E+01 0.287E+04   -.599E+00 -.227E+00 0.576E+00   -.196E-02 -.236E-01 -.247E-01
   -.191E+02 -.599E+01 -.292E+04   0.191E+02 0.553E+01 0.292E+04   -.738E-01 0.428E+00 0.145E+01   0.674E-01 0.207E-01 -.656E-02
   0.882E+01 -.223E+02 -.289E+04   -.918E+01 0.224E+02 0.289E+04   0.382E+00 -.597E-01 0.191E+01   0.650E-02 -.118E-01 -.155E-01
   -.227E+02 0.152E+02 -.290E+04   0.225E+02 -.146E+02 0.290E+04   0.160E+00 -.598E+00 0.130E+01   0.662E-02 -.412E-01 -.118E-02
   -.129E+02 -.169E+01 -.287E+04   0.134E+02 0.199E+01 0.287E+04   -.427E+00 -.310E+00 0.167E+01   0.995E-02 0.238E-01 -.191E-01
   -.251E+01 -.717E+01 -.291E+04   0.284E+01 0.697E+01 0.291E+04   -.370E+00 0.174E+00 0.825E+00   0.144E-01 -.959E-02 -.447E-01
   -.143E+02 0.103E+00 -.288E+04   0.143E+02 -.528E+00 0.288E+04   0.233E-01 0.422E+00 0.131E+01   0.317E-01 -.667E-02 -.572E-01
   0.337E+01 -.208E+02 -.289E+04   -.366E+01 0.205E+02 0.289E+04   0.287E+00 0.338E+00 0.100E+01   0.134E-01 0.206E-01 -.231E-01
   0.252E+02 0.868E+01 -.289E+04   -.244E+02 -.872E+01 0.289E+04   -.775E+00 0.545E-02 0.161E+01   -.302E-01 0.141E-01 -.108E-01
   0.231E+02 -.113E+02 -.290E+04   -.227E+02 0.115E+02 0.290E+04   -.356E+00 -.167E+00 0.133E+01   -.318E-01 0.409E-02 0.229E-01
   0.150E+00 0.100E+02 -.288E+04   -.425E+00 -.114E+02 0.288E+04   0.293E+00 0.137E+01 0.838E+00   -.162E-01 -.162E-01 -.232E-01
   0.311E+02 -.115E+02 -.290E+04   -.310E+02 0.116E+02 0.290E+04   -.769E-01 -.193E+00 0.114E+01   -.206E-01 -.117E-01 -.227E-01
   0.696E+02 -.682E+02 -.151E+04   -.683E+02 0.685E+02 0.151E+04   -.120E+01 -.227E+00 0.173E+01   -.743E-01 -.451E-01 -.171E+00
   0.275E+02 -.430E+02 -.150E+04   -.287E+02 0.426E+02 0.150E+04   0.112E+01 0.428E+00 0.247E+01   0.278E-01 -.448E-01 -.227E+00
   0.375E+02 0.175E+02 0.299E+04   -.376E+02 -.177E+02 -.299E+04   0.166E-01 0.386E+00 -.256E+01   0.381E-01 -.103E+00 0.975E-01
   0.254E+02 -.353E+01 0.159E+04   -.263E+02 0.423E+01 -.160E+04   0.970E+00 -.674E+00 0.869E+00   -.580E-01 0.156E-01 -.635E-01
   -.667E+02 0.135E+02 -.147E+04   0.676E+02 -.129E+02 0.147E+04   -.870E+00 -.499E+00 0.254E+01   -.309E-02 -.318E-01 -.208E+00
   -.542E+02 0.532E+02 0.305E+04   0.549E+02 -.523E+02 -.305E+04   -.719E+00 -.100E+01 -.221E+01   -.209E-01 0.113E-01 0.394E-01
   0.575E+01 -.540E+02 0.157E+04   -.542E+01 0.534E+02 -.157E+04   -.308E+00 0.442E+00 -.756E+00   -.810E-01 0.821E-01 -.115E+00
   0.971E+01 0.755E+01 -.289E+04   -.982E+01 -.742E+01 0.289E+04   0.132E+00 -.160E+00 0.824E+00   -.281E-01 0.708E-02 -.216E-01
   -.165E+02 -.438E+01 0.141E+02   0.165E+02 0.468E+01 -.152E+02   -.879E-01 -.312E+00 0.129E+01   -.235E-01 -.503E-01 -.170E+00
   -.112E+02 0.983E+01 -.291E+04   0.107E+02 -.995E+01 0.291E+04   0.520E+00 0.107E+00 0.135E+01   0.291E-01 0.260E-01 -.147E-01
   0.156E+02 0.587E+02 0.995E+01   -.166E+02 -.600E+02 -.101E+02   0.112E+01 0.119E+01 0.283E+00   -.985E-01 0.430E-01 -.169E+00
   -.658E+02 0.734E+01 -.148E+04   0.661E+02 -.859E+01 0.147E+04   -.386E+00 0.124E+01 0.288E+01   0.982E-01 0.731E-01 -.231E+00
   0.312E+02 0.254E+02 -.153E+04   -.310E+02 -.245E+02 0.152E+04   -.137E+00 -.814E+00 0.219E+01   -.652E-01 -.132E-01 -.133E+00
   0.149E+02 -.652E+02 -.661E+02   -.159E+02 0.646E+02 0.667E+02   0.104E+01 0.534E+00 -.301E+00   -.754E-04 0.581E-02 -.193E+00
   -.216E+02 -.201E+02 0.364E+01   0.223E+02 0.207E+02 -.405E+01   -.817E+00 -.749E+00 0.632E+00   0.973E-01 0.657E-01 -.208E+00
   0.161E+02 0.119E+02 -.123E+04   -.162E+02 -.122E+02 0.123E+04   0.101E+00 0.383E+00 0.455E+00   -.173E-01 0.187E-02 -.121E+00
   -.638E+02 -.550E+01 0.241E+04   0.641E+02 0.418E+01 -.240E+04   -.343E+00 0.132E+01 -.279E+01   0.469E-02 0.204E-01 0.585E-01
   0.328E+02 -.165E+02 0.244E+04   -.326E+02 0.149E+02 -.244E+04   -.475E-01 0.160E+01 -.243E+01   -.531E-01 0.153E-01 0.383E-02
   0.172E+02 0.593E+01 0.244E+04   -.173E+02 -.533E+01 -.244E+04   0.166E+00 -.783E+00 -.297E+01   -.336E-01 0.727E-01 0.596E-02
   0.150E+02 0.548E+02 0.128E+04   -.142E+02 -.540E+02 -.128E+04   -.925E+00 -.772E+00 -.121E+00   0.698E-03 -.816E-01 -.626E-01
   0.317E+02 -.611E+02 0.126E+04   -.317E+02 0.608E+02 -.126E+04   -.130E+00 0.252E+00 -.430E+00   0.994E-01 0.627E-01 -.607E-01
   -.562E+02 -.231E+02 -.122E+04   0.563E+02 0.232E+02 0.122E+04   -.153E+00 -.218E+00 0.688E+00   0.374E-01 0.352E-01 -.137E+00
   -.111E+03 0.207E+02 0.245E+04   0.110E+03 -.204E+02 -.245E+04   0.558E+00 -.214E+00 -.279E+01   -.311E-01 -.896E-02 0.136E-01
   -.351E+02 0.493E+02 0.128E+04   0.343E+02 -.488E+02 -.128E+04   0.841E+00 -.527E+00 -.406E+00   -.127E-01 -.417E-01 -.716E-01
   -.502E+02 0.239E+01 -.421E+02   0.500E+02 -.201E+01 0.422E+02   0.223E+00 -.454E+00 -.907E-01   -.522E-02 0.558E-01 -.120E+00
   0.153E+02 -.805E+02 -.123E+04   -.154E+02 0.804E+02 0.123E+04   0.138E+00 0.209E+00 0.106E+01   0.206E-01 0.981E-02 -.161E+00
   0.124E+02 0.297E+02 -.122E+04   -.125E+02 -.297E+02 0.122E+04   0.110E+00 -.435E-01 0.303E+00   0.115E-01 0.346E-01 -.144E+00
   0.578E+01 -.628E+02 0.242E+04   -.653E+01 0.618E+02 -.242E+04   0.801E+00 0.101E+01 -.290E+01   -.980E-02 -.101E-01 0.253E-01
   0.856E+01 -.149E+02 0.272E+04   -.869E+01 0.152E+02 -.272E+04   0.902E-01 -.254E+00 -.240E+01   0.378E-01 -.124E-01 -.157E-01
   0.119E+03 0.345E+02 0.276E+04   -.119E+03 -.336E+02 -.276E+04   0.414E+00 -.878E+00 -.276E+01   -.272E-01 -.108E-01 0.284E-01
   -.425E+02 -.391E+02 0.140E+04   0.419E+02 0.380E+02 -.140E+04   0.463E+00 0.114E+01 -.438E+00   0.376E-01 -.515E-02 -.164E-01
   -.641E+02 0.590E+02 0.221E+02   0.642E+02 -.590E+02 -.227E+02   -.551E-01 -.173E+00 0.760E+00   0.595E-01 0.758E-01 -.193E+00
   -.990E+02 0.160E+02 0.139E+04   0.986E+02 -.157E+02 -.139E+04   0.494E+00 -.504E+00 -.135E+00   -.316E-01 0.993E-01 -.414E-01
   -.155E+02 0.921E+01 0.137E+04   0.156E+02 -.937E+01 -.137E+04   -.140E+00 0.324E+00 -.137E+00   0.196E-01 -.100E+00 -.626E-01
   0.494E+02 0.247E+01 -.139E+04   -.492E+02 -.267E+01 0.139E+04   -.226E+00 0.240E+00 0.137E+01   -.324E-02 0.122E-02 -.133E+00
   0.569E+02 -.801E+02 0.273E+04   -.565E+02 0.798E+02 -.273E+04   -.415E+00 0.211E+00 -.252E+01   -.363E-01 0.787E-01 -.183E-01
   -.131E+02 0.383E+01 0.136E+04   0.131E+02 -.369E+01 -.136E+04   -.125E+00 -.256E+00 -.457E+00   0.146E+00 0.106E+00 -.420E-02
   0.234E+02 -.704E+02 -.165E+02   -.226E+02 0.698E+02 0.170E+02   -.805E+00 0.589E+00 -.404E+00   0.483E-02 0.305E-01 -.183E+00
   0.460E+02 0.350E+02 0.340E+04   -.460E+02 -.341E+02 -.340E+04   -.786E-01 -.885E+00 -.385E+01   0.418E-01 -.924E-01 0.396E-01
   0.596E+02 -.118E+01 0.173E+04   -.598E+02 0.647E+00 -.173E+04   0.112E+00 0.757E+00 -.182E+00   0.461E-01 -.128E+00 -.529E-01
   0.104E+03 -.292E+02 0.169E+04   -.104E+03 0.292E+02 -.169E+04   -.141E+00 -.299E-01 -.497E-01   -.923E-01 0.462E-01 -.151E+00
   0.172E+02 0.685E+02 0.927E+02   -.178E+02 -.682E+02 -.930E+02   0.577E+00 -.216E+00 0.539E+00   -.521E-01 -.103E+00 -.277E+00
   0.123E+02 0.574E+02 -.169E+04   -.118E+02 -.571E+02 0.169E+04   -.482E+00 -.225E+00 0.136E+01   -.315E-01 -.104E+00 -.234E+00
[...]
   0.548E+02 -.313E+02 0.127E+02   -.541E+02 0.310E+02 -.127E+02   -.650E+00 0.365E+00 0.221E+00   -.727E-02 -.915E-01 -.226E+00
   -.769E+02 0.528E+01 0.153E+04   0.764E+02 -.513E+01 -.153E+04   0.430E+00 -.831E-01 -.178E+00   0.321E-01 -.249E-01 -.988E-01
   -.168E+02 0.157E+02 0.160E+04   0.172E+02 -.160E+02 -.160E+04   -.390E+00 0.252E+00 -.462E+00   -.205E-01 0.139E-03 -.112E+00
   -.104E+03 -.236E+01 0.305E+04   0.104E+03 0.243E+01 -.305E+04   -.549E+00 -.611E-01 -.145E+01   0.879E-01 0.172E-01 0.154E-01
   0.742E+02 -.371E+02 0.305E+04   -.745E+02 0.376E+02 -.305E+04   0.366E+00 -.649E+00 -.104E+01   -.797E-01 0.568E-01 -.182E-01
   0.216E+02 -.340E+02 0.153E+04   -.212E+02 0.337E+02 -.153E+04   -.375E+00 0.217E+00 -.212E-01   -.215E-01 0.217E-01 -.759E-01
   0.584E+02 0.645E+01 0.159E+04   -.579E+02 -.644E+01 -.159E+04   -.493E+00 0.710E-01 -.163E+00   0.109E-01 -.517E-01 -.393E-01
   -.368E+02 -.675E+02 -.153E+04   0.366E+02 0.675E+02 0.153E+04   0.127E+00 -.543E-01 0.712E+00   0.595E-01 -.240E-01 -.198E+00
   -.500E+02 0.302E+02 0.303E+04   0.504E+02 -.296E+02 -.303E+04   -.438E+00 -.591E+00 -.193E+01   0.482E-01 -.776E-01 0.221E-01
   -.464E+02 0.777E+02 0.738E+02   0.468E+02 -.774E+02 -.737E+02   -.384E+00 -.367E+00 -.138E-01   -.445E-01 -.196E-01 -.198E+00
   0.310E-01 0.588E+02 -.753E+01   -.274E+00 -.581E+02 0.760E+01   0.116E+00 -.830E+00 -.132E-01   0.153E+00 0.618E-01 -.177E+00
   0.559E+02 0.309E+01 -.346E+02   -.555E+02 -.256E+01 0.347E+02   -.399E+00 -.608E+00 -.299E-01   -.733E-01 0.606E-01 -.132E+00
   0.160E+02 -.554E+02 0.332E+02   -.165E+02 0.550E+02 -.332E+02   0.328E+00 0.469E+00 0.122E+00   0.134E+00 -.613E-01 -.254E+00
   -.160E+01 -.180E+00 -.344E+03   0.163E+01 0.146E+00 0.345E+03   -.641E-01 0.474E-01 -.163E+01   0.441E-03 -.311E-02 0.427E-02
   -.243E+01 -.860E+00 0.412E+01   0.190E-12 0.594E-12 -.203E-10   0.216E+01 0.107E+01 0.308E+01   0.293E+00 -.234E+00 -.720E+01

 POSITION                                       TOTAL-FORCE (eV/Angst)
     13.07616      8.11801      6.96760         0.000611     -0.006284     -0.000629
      5.15499      8.14680      6.95005         0.003430     -0.009380      0.006333
      5.00430      3.51522      7.00938        -0.004065     -0.002036     -0.002032
     14.41615      8.89918      9.34196         0.009918     -0.003713      0.004595
      3.75336      4.26944      9.36740         0.008785      0.005753      0.006163
      6.47458      8.89830      9.28672        -0.003883     -0.008799     -0.002481
     11.76757      4.24393      9.35486        -0.000342      0.006194     -0.005422
      9.10613      8.86426      9.20910         0.000855      0.000226     -0.001397
     10.43428      1.97067      9.21062         0.004256      0.016893      0.006031
      2.46530      1.96128      9.26111         0.006969     -0.014277      0.004974
     11.77225      8.86836      9.28561         0.008792     -0.000642      0.007751
     13.08806      6.55389      9.33531        -0.012777     -0.011326      0.005381
      5.10481      1.93257      9.30542         0.002018      0.002488     -0.003172
      7.81391      6.56871      9.27403         0.018660     -0.006250     -0.000568
      9.12954      4.26331      9.26597         0.009414     -0.000607     -0.008339
      5.11614      6.52366      9.40225         0.007778      0.005023     -0.000632
      7.77831      1.94899      9.25368         0.000633     -0.000168      0.006159
      7.84578      3.46943      6.96041        -0.001150     -0.005149     -0.012221
      6.36001      1.15291      6.91645         0.005116      0.000553     -0.004458
      6.49878      1.12701      0.91783        -0.018293      0.014806     -0.005176
      3.73329      4.24365      2.82304         0.015920      0.001206     -0.034360
      1.19165      1.25192      6.90678         0.009303     -0.003323      0.007153
      1.14169      1.20489      0.75465        -0.011224      0.008267     -0.018007
      6.49937      8.84078      2.91411        -0.009907      0.002396      0.033665
      6.45336      4.25764      9.33161        -0.003814     -0.004905      0.003136
      7.75839      5.03956      4.81250         0.008378     -0.004036     -0.002070
     10.42736      6.57298      9.29808         0.004900     -0.013247     -0.008667
     14.40121      7.28388      4.86217        -0.003317     -0.004440     -0.004423
     11.78712      5.74995      7.01127         0.008025     -0.006382     -0.004605
      6.45962      5.82740      6.99307         0.003296     -0.006399      0.002753
      3.64619      2.58242      4.95618        -0.001352     -0.002282     -0.002401
     10.45654      5.07381      4.86138         0.005475      0.001253      0.008160
      3.79658      5.83060      7.14029         0.004346     -0.005714      0.006118
     13.07897      7.95618      0.95883        -0.006033      0.000218      0.026746
      5.21380      7.98656      0.86284         0.005692      0.015825      0.016858
      3.83131      5.83197      0.85600         0.025305     -0.018285     -0.014887
      7.88243      2.06346      2.84612        -0.026595      0.000640      0.027006
      9.16289      8.80794      2.87612        -0.000374      0.013262      0.018771
      2.42145      3.54262      7.11801        -0.000092     -0.001920      0.002826
      2.32870      3.51838      0.86299         0.021570      0.007204     -0.031327
     10.44688      1.98709      2.84009        -0.003737     -0.003617      0.022502
     13.08016      5.02862      4.92689         0.007026      0.007110      0.002655
      3.77992      1.07352      7.04988         0.005666     -0.006251     -0.005126
      9.11636      5.80845      7.07007         0.007863     -0.003879     -0.004765
      3.77122      1.06783      0.90415        -0.007464      0.024404     -0.005474
      9.18715      5.77316      0.99286        -0.019805     -0.004516     -0.042718
      5.17420      3.52548      0.87003         0.021254      0.009818      0.036401
     11.72362      8.75176      2.92245        -0.016740      0.027589      0.017986
     11.76521      7.32307      4.84115         0.018317     -0.005470      0.000541
     12.97800      6.50322      2.85234         0.031736     -0.001082     -0.000832
      9.13171      4.24465      2.81404        -0.009863      0.016258     -0.011971
      7.84082      8.07021      6.98911         0.006986     -0.004294     -0.003879
      7.89763      8.01872      0.91379        -0.008297      0.012977     -0.002735
     10.49038      6.60126      2.83869         0.002486      0.003900      0.020303
      2.54636      0.25328      5.00715         0.007801     -0.004688      0.000107
      7.83460      3.52101      0.79067        -0.025115      0.007548      0.000879
      5.12642      1.88462      2.93503        -0.019890      0.009749     -0.007912
      5.21667      6.50564      2.92065         0.022533      0.001063     -0.017873
      7.78285      0.46757      4.84923         0.005713     -0.005473      0.000913
      9.14133      1.19374      6.96446         0.001631     -0.002834      0.003499
[...]
      9.17162      2.67730      4.91844        -0.000625     -0.008345      0.003547
      6.43125      2.69801      4.85908         0.006373     -0.000733      0.001702
     11.76877      4.21925      2.83668        -0.017469     -0.019974     -0.033187
      2.46431      1.90348      2.84561        -0.019055      0.017712     -0.003008
     11.75684      5.74003      0.91295        -0.008017      0.015128     -0.010213
      6.52258      5.80409      0.95833         0.001999     -0.031493     -0.002041
      7.91412      6.57792      2.85270        -0.001325      0.003256      0.005337
      6.48211      4.16784      2.79146        -0.014618     -0.004540     -0.014375
     10.47855      3.50493      7.03973         0.002938     -0.007539     -0.000624
     10.44539      3.47942      0.90065        -0.003136     -0.011797     -0.027798
     10.47002      0.49038      4.87884         0.003325     -0.013061     -0.007135
      9.13056      7.35216      4.94666         0.001175     -0.000302     -0.001764
      6.54107      7.36469      4.95056        -0.010429      0.009741     -0.001297
      5.08167      0.27154      4.89609         0.002972     -0.001636     -0.002748
      5.12628      8.16905     10.30484        -0.029087      0.009176      0.036204
    total drift:                                0.016155     -0.028065      0.012365

  FREE ENERGIE OF THE ION-ELECTRON SYSTEM (eV)
  free  energy   TOTEN  =      -510.30251003 eV

  energy  without entropy=     -510.32935161  energy(sigma->0) =     -510.31145722

 d Force = 0.1022249E-02[ 0.601E-03, 0.144E-02]  d Energy = 0.1044375E-02-0.221E-04
 d Force =-0.4838385E+01[-0.484E+01,-0.484E+01]  d Ewald  =-0.4838381E+01-0.441E-05

 Conjugate gradient step on ions:
 trial-energy change:   -0.001044  1 .order   -0.001022   -0.001444   -0.000601
  (g-gl).g = 0.112E-02      g.g   = 0.109E-02  gl.gl    = 0.182E-02
 g(Force)  = 0.109E-02   g(Stress)= 0.000E+00 ortho     =-0.758E-04
 gamma     =   0.61916
 trial     =   1.38397
 opt step  =   2.37016  (harmonic =   2.37016) maximal distance =0.00566581
 next E    =  -510.302702   (d E  =  -0.00124)

 reached required accuracy - stopping structural energy minimisation