 vasp.5.4.4.18Apr17-6-g9f103f2a35 (build Oct 25 2019 11:13:22) complex

 executed on             LinuxIFC date 2022.02.13  08:19:56

 INCAR:
 POTCAR:    PAW_PBE Pt 04Feb2005
 POTCAR:    PAW_PBE Fe 06Sep2000
 POTCAR:    PAW_PBE Co 02Aug2007
 POTCAR:    PAW_PBE Ni 02Aug2007
 POTCAR:    PAW_PBE H 15Jun2001

 POTCAR:    PAW_PBE Pt 04Feb2005
   VRHFIN =Pt: s1d9

   TITEL  = PAW_PBE Pt 04Feb2005
   POMASS =  195.080; ZVAL   =   10.000    mass and valenz
   ENMAX  =  230.283; ENMIN  =  172.712 eV

 POTCAR:    PAW_PBE Fe 06Sep2000
   VRHFIN =Fe:  d7 s1

   TITEL  = PAW_PBE Fe 06Sep2000
   POMASS =   55.847; ZVAL   =    8.000    mass and valenz
   ENMAX  =  267.882; ENMIN  =  200.911 eV

 POTCAR:    PAW_PBE Co 02Aug2007
   VRHFIN =Co: d8 s1

   TITEL  = PAW_PBE Co 02Aug2007
   POMASS =   58.933; ZVAL   =    9.000    mass and valenz
   ENMAX  =  267.968; ENMIN  =  200.976 eV

 POTCAR:    PAW_PBE Ni 02Aug2007
   VRHFIN =Ni:

   TITEL  = PAW_PBE Ni 02Aug2007
   POMASS =   58.690; ZVAL   =   10.000    mass and valenz
   ENMAX  =  269.532; ENMIN  =  202.149 eV

 POTCAR:    PAW_PBE H 15Jun2001
   VRHFIN =H: ultrasoft test

   TITEL  = PAW_PBE H 15Jun2001
   POMASS =    1.000; ZVAL   =    1.000    mass and valenz
   ENMAX  =  250.000; ENMIN  =  200.000 eV

 Optimization of the real space projectors (new method)

 maximal supplied QI-value         = 14.36
 optimisation between [QCUT,QGAM] = [ 11.92, 23.98] = [ 39.79,161.09] Ry
 Optimized for a Real-space Cutoff    1.49 Angstroem

   l    n(q)    QCUT    max X(q) W(low)/X(q) W(high)/X(q)  e(spline)
   2     10    11.920    66.195    0.79E-04    0.18E-03    0.24E-06
   2     10    11.920    64.643    0.81E-04    0.19E-03    0.24E-06
   0     11    11.920    95.520    0.28E-04    0.54E-04    0.18E-06
   0     11    11.920    63.403    0.27E-04    0.52E-04    0.17E-06
   1     10    11.920    19.961    0.18E-04    0.11E-03    0.23E-06
   1     10    11.920    13.289    0.25E-04    0.87E-04    0.19E-06
 Optimization of the real space projectors (new method)

[...]

   l    n(q)    QCUT    max X(q) W(low)/X(q) W(high)/X(q)  e(spline)
   2      9    11.864    60.317    0.21E-03    0.51E-03    0.25E-06
   2      9    11.864    55.921    0.21E-03    0.51E-03    0.26E-06
   0      9    11.864    51.690    0.22E-03    0.30E-04    0.17E-06
   0      9    11.864    30.015    0.20E-03    0.28E-04    0.15E-06
   1      9    11.864    18.849    0.76E-04    0.33E-03    0.17E-06
   1      9    11.864    14.624    0.60E-04    0.28E-03    0.15E-06
 Optimization of the real space projectors (new method)

 maximal supplied QI-value         = 34.20
 optimisation between [QCUT,QGAM] = [ 11.97, 23.94] = [ 40.13,160.53] Ry
 Optimized for a Real-space Cutoff    1.18 Angstroem

   l    n(q)    QCUT    max X(q) W(low)/X(q) W(high)/X(q)  e(spline)
   0      8    11.971    19.460    0.15E-03    0.31E-03    0.25E-06
   0      8    11.971    12.209    0.13E-03    0.29E-03    0.25E-06
   1      8    11.971     4.655    0.22E-03    0.24E-03    0.21E-06
  PAW_PBE Pt 04Feb2005                  :
  PAW_PBE Fe 06Sep2000                  :
  PAW_PBE Co 02Aug2007                  :
  PAW_PBE Ni 02Aug2007                  :
  PAW_PBE H 15Jun2001                   :

 POSCAR: 11.26
  positions in cartesian coordinates
 exchange correlation table for  LEXCH =        8
   RHO(1)=    0.500       N(1)  =     2000
   RHO(2)=  100.500       N(2)  =     4000

 ion  position               nearest neighbor table
   1  0.782  0.871  0.305-  52 2.53  59 2.56  28 2.72  19 2.73   2 2.77  61 2.77  29 2.79   4 2.80
                            60 2.81  33 2.81  12 2.87  11 2.88
   2  0.030  0.870  0.299-  79 2.49  77 2.52   4 2.76   1 2.77  33 2.78  30 2.78  28 2.79   6 2.83
                            60 2.87  16 2.89  22 2.98
   3  0.281  0.360  0.311-  64 2.53  68 2.61  31 2.65  43 2.73   5 2.74  13 2.75  39 2.77  30 2.78
                            25 2.80  19 2.84  33 2.85  18 2.92
   4  0.876  0.954  0.405-  60 2.61   9 2.75  16 2.76   2 2.76   6 2.77   1 2.80  17 2.84  12 2.85
                            11 2.88
   5  0.113  0.457  0.410-  39 2.62  33 2.70  12 2.71   3 2.74  16 2.77   7 2.80  10 2.80  13 2.83
                            25 2.87
   6  0.126  0.948  0.402-  55 2.64  22 2.73  14 2.75   4 2.77  16 2.81   8 2.83   2 2.83   9 2.84
                            10 2.85
   7  0.868  0.448  0.411-  39 2.59  75 2.66  29 2.73   9 2.74  15 2.75   5 2.80  10 2.81  27 2.83
                            12 2.88
   8  0.374  0.953  0.416-  55 2.50  43 2.60  61 2.69  27 2.78  11 2.78  13 2.78  10 2.81   6 2.83
                            14 2.85
   9  0.874  0.201  0.406-  75 2.58  60 2.65   7 2.74   4 2.75  22 2.78  17 2.79  10 2.81   6 2.84
                            15 2.85
  10  0.123  0.203  0.411-  39 2.64  43 2.65  13 2.73  22 2.74   5 2.80   7 2.81   9 2.81   8 2.81
                             6 2.85
  11  0.625  0.946  0.416-  81 1.77  61 2.69  27 2.74  19 2.76  12 2.77   8 2.78   4 2.88   1 2.88
                            17 2.91  13 2.91
  12  0.874  0.702  0.411-  29 2.68  33 2.70   5 2.71  16 2.73  11 2.77  27 2.83   4 2.85   1 2.87
                             7 2.88
  13  0.365  0.205  0.415-  43 2.62  10 2.73   3 2.75   8 2.78  19 2.79  25 2.83   5 2.83  17 2.90
                            11 2.91
  14  0.369  0.702  0.405-  44 2.54  55 2.58   6 2.75  25 2.78  15 2.79  16 2.83  27 2.84   8 2.85
                            30 2.85
  15  0.619  0.454  0.408-  75 2.62  44 2.62   7 2.75  18 2.77  17 2.77  14 2.79  25 2.81  27 2.81
                             9 2.85
  16  0.117  0.702  0.408-  33 2.65  30 2.69  12 2.73   4 2.76   5 2.77   6 2.81  25 2.81  14 2.83
                             2 2.89
  17  0.623  0.206  0.414-  81 1.73  60 2.66  15 2.77   9 2.79  18 2.79  19 2.80  25 2.82   4 2.84
                            13 2.90  11 2.91
  18  0.539  0.363  0.307-  67 2.52  68 2.60  60 2.67  26 2.70  15 2.77  25 2.78  75 2.79  17 2.79
                            19 2.83   3 2.92  30 2.94  44 3.01
  19  0.538  0.112  0.314-  68 2.50  80 2.54  59 2.56  43 2.68  61 2.71   1 2.73  60 2.74  11 2.76
                            13 2.79  17 2.80  18 2.83   3 2.84
  20  0.538  0.117  0.053-  47 2.51  37 2.56  51 2.64  63 2.67  50 2.71  62 2.73  34 2.74  46 2.79
                            45 2.87
  21  0.106  0.420  0.118-  40 2.50  36 2.51  50 2.54  70 2.60  47 2.66  42 2.66  64 2.70  69 2.71
                            31 2.79  53 3.03
  22  0.049  0.125  0.306-  65 2.51  77 2.52  58 2.54  39 2.69   6 2.73  10 2.74  43 2.76   9 2.78
                            75 2.85  55 2.93   2 2.98  60 3.08  31 3.25
  23  0.025  0.110  0.043-  40 2.54  41 2.55  70 2.56  35 2.67  62 2.71  24 2.74  56 2.77  76 2.83
                            45 2.93
  24  0.117  0.952  0.146-  79 2.49  35 2.51  70 2.62  77 2.62  58 2.62  56 2.64  48 2.66  73 2.70
                            66 2.72  23 2.74  41 2.84  38 2.93
  25  0.369  0.454  0.409-  30 2.77  14 2.78  18 2.78   3 2.80  15 2.81  16 2.81  17 2.82  13 2.83
                             5 2.87
  26  0.451  0.562  0.222-  73 2.52  74 2.53  54 2.55  79 2.59  30 2.59  44 2.61  32 2.67  78 2.68
                            18 2.70  67 2.98  48 2.99
  27  0.620  0.705  0.412-  44 2.55  61 2.64  11 2.74   8 2.78  29 2.79  15 2.81  12 2.83   7 2.83
                            14 2.84
  28  0.949  0.756  0.207-  48 2.55  53 2.56  66 2.63  42 2.65  33 2.66  64 2.70   1 2.72   2 2.79
                            52 2.85  36 2.90  59 3.15
  29  0.798  0.616  0.312-  42 2.57  52 2.59  32 2.63  39 2.66  33 2.67  12 2.68   7 2.73  27 2.79
                             1 2.79  44 2.82  75 2.86  61 2.90
  30  0.268  0.614  0.306-  79 2.51  33 2.59  26 2.59  16 2.69  64 2.69  25 2.77   3 2.78   2 2.78
                            14 2.85  18 2.94  44 3.16  55 3.28
  31  0.191  0.261  0.224-  70 2.48  58 2.52  47 2.57  43 2.61  39 2.61   3 2.65  65 2.68  64 2.74
                            21 2.79  80 2.81  42 2.83  68 3.00  22 3.25
  32  0.700  0.539  0.222-  69 2.53  54 2.60  29 2.63  44 2.63  57 2.63  75 2.63  65 2.66  26 2.67
                            52 2.68  42 2.70  67 2.73  78 2.76
  33  0.034  0.621  0.311-  64 2.55  30 2.59  16 2.65  28 2.66  29 2.67  12 2.70   5 2.70  42 2.75
                             2 2.78   1 2.81  39 2.82   3 2.85
  34  0.791  0.885  0.059-  51 2.33  66 2.39  53 2.60  62 2.68  35 2.73  20 2.74  36 2.75  63 2.89

  35  0.043  0.865  0.057-  36 2.40  24 2.51  66 2.52  23 2.67  34 2.73  48 2.84  72 2.85  56 2.85
                            62 3.00
  36  0.042  0.658  0.084-  48 2.40  35 2.40  53 2.47  21 2.51  72 2.75  34 2.75  28 2.90
  37  0.624  0.211  0.138-  59 2.38  62 2.40  67 2.45  46 2.46  68 2.48  74 2.55  20 2.56  66 2.66
                            41 2.68  54 2.71  47 2.99  51 3.04
  38  0.377  0.954  0.136-  63 2.36  45 2.39  56 2.40  58 2.42  80 2.45  73 2.50  78 2.54  57 2.61
                            47 2.77  70 2.82  51 2.87  24 2.93
  39  0.029  0.373  0.317-   7 2.59  31 2.61   5 2.62  65 2.62  10 2.64  42 2.65  29 2.66  22 2.69
                            75 2.76   3 2.77  33 2.82  43 3.02
  40  0.983  0.354  0.043-  69 2.31  76 2.42  21 2.50  23 2.54  70 2.62  71 2.63  45 3.12
  41  0.866  0.206  0.135-  77 2.42  76 2.43  67 2.44  62 2.46  65 2.52  23 2.55  69 2.55  66 2.57
                            70 2.65  37 2.68  24 2.84  54 2.87
  42  0.948  0.521  0.217-  53 2.52  69 2.54  64 2.55  65 2.57  29 2.57  39 2.65  28 2.65  21 2.66
                            32 2.70  33 2.75  31 2.83  52 2.97
  43  0.301  0.108  0.320-  58 2.47  55 2.50   8 2.60  80 2.61  31 2.61  13 2.62  61 2.65  10 2.65
                            19 2.68   3 2.73  22 2.76  39 3.02
  44  0.540  0.630  0.318-  14 2.54  27 2.55  78 2.55  26 2.61  15 2.62  55 2.63  32 2.63  61 2.69
                            29 2.82  75 2.86  18 3.01  30 3.16
  45  0.285  0.111  0.053-  38 2.39  70 2.47  47 2.48  56 2.53  63 2.71  20 2.87  23 2.93  40 3.12

  46  0.535  0.367  0.050-  54 2.40  50 2.43  37 2.46  74 2.47  76 2.54  62 2.67  72 2.72  20 2.79
                            49 2.82
  47  0.359  0.209  0.135-  50 2.40  68 2.41  45 2.48  20 2.51  31 2.57  80 2.60  21 2.66  74 2.74
                            38 2.77  70 2.92  37 2.99
  48  0.180  0.691  0.158-  79 2.40  36 2.40  72 2.41  64 2.41  73 2.49  28 2.55  24 2.66  74 2.70
                            35 2.84  26 2.99
  49  0.521  0.625  0.052-  54 2.35  73 2.38  71 2.44  57 2.44  72 2.53  56 2.78  46 2.82  76 2.90
                            63 2.95
  50  0.315  0.374  0.056-  74 2.35  47 2.40  46 2.43  21 2.54  72 2.65  20 2.71
  51  0.642  0.932  0.141-  34 2.33  52 2.34  63 2.45  59 2.53  53 2.55  80 2.56  20 2.64  57 2.67
                            66 2.78  38 2.87  37 3.04
  52  0.683  0.786  0.223-  51 2.34  78 2.41  57 2.48  61 2.51   1 2.53  53 2.55  29 2.59  80 2.65
                            32 2.68  28 2.85  42 2.97  59 3.12
  53  0.830  0.681  0.129-  57 2.36  71 2.40  36 2.47  42 2.52  52 2.55  51 2.55  28 2.56  69 2.59
                            34 2.60  21 3.03
  54  0.609  0.460  0.130-  49 2.35  46 2.40  76 2.41  26 2.55  74 2.58  32 2.60  67 2.61  69 2.68
[...]
     13.839530  8.597276  1.298341            0           0           0
      5.335858  8.402881  1.254446            0           0           0
      4.162766  6.390812  1.850956            0           0           0
      8.191068  2.052729  3.033860            0           0           0
      9.581692  9.276024  2.994683            0           0           0
      2.412820  3.621921  6.984197            0           0           0
     13.017728  3.439534  0.942539            0           0           0
     10.870715  1.998388  2.967381            0           0           0
     13.568897  5.068175  4.770577            0           0           0
      3.985748  1.046574  7.035995            0           0           0
      9.597148  6.127665  6.994441            0           0           0
      3.816457  1.075428  1.161363            0           0           0
      8.061037  3.567708  1.100229            0           0           0
      5.203702  2.034191  2.978088            0           0           0
      5.895058  6.720214  3.475283            0           0           0
      9.353912  6.069883  1.148085            0           0           0
      5.633796  3.632923  1.237229            0           0           0
     12.438659  9.060229  3.096115            0           0           0
     12.077659  7.636682  4.913240            0           0           0
     13.130083  6.616886  2.830400            0           0           0
      9.411481  4.471689  2.869342            0           0           0
      8.501797  8.516354  7.006082            0           0           0
      8.182433  8.589571  1.163151            0           0           0
     10.794049  6.970573  2.902376            0           0           0
      2.821111  0.145122  5.047399            0           0           0
      8.147254  0.550263  4.884806            0           0           0
      9.396760  1.205076  6.893567            0           0           0
[...]
      9.600481  2.820176  4.878652            0           0           0
      6.605022  2.545022  4.870770            0           0           0
     12.081964  4.246017  2.888958            0           0           0
      2.289160  1.825282  2.949964            0           0           0
     11.768861  5.749988  1.053620            0           0           0
      6.840329  5.987054  1.386442            0           0           0
      8.304374  7.124975  3.000625            0           0           0
      6.854587  4.220090  3.153943            0           0           0
     10.875973  3.571152  6.912787            0           0           0
     10.601515  3.454949  1.039167            0           0           0
     10.731789  0.688887  4.996638            0           0           0
      9.670061  7.711567  4.993331            0           0           0
      7.171427  7.817478  5.182281            0           0           0
      5.299396  0.295606  4.915438            0           0           0
      7.455972  0.771723 10.096307    -0.204776   -0.384235    0.900239

   2 f  =   31.521524 THz   198.055576 2PiTHz 1051.444830 cm-1   130.362591 meV
             X         Y         Z           dx          dy          dz
     13.669097  8.465489  6.700818            0           0           0
      5.212358  8.454306  6.582977            0           0           0
      5.171515  3.502763  6.833170            0           0           0
     15.188908  9.271838  8.910428            0           0           0
      3.828675  4.442787  9.027307            0           0           0
      6.731698  9.209703  8.845065            0           0           0
     12.252899  4.351409  9.050895            0           0           0
      9.540054  9.257815  9.150763            0           0           0
     10.929884  1.949984  8.923434            0           0           0
      2.516806  1.968454  9.037755            0           0           0
     12.321034  9.194453  9.141746            0           0           0
     13.742860  6.818426  9.048594            0           0           0
      5.245957  1.992156  9.128093            0           0           0
      8.081573  6.818944  8.906573            0           0           0
      9.501413  4.416457  8.974901            0           0           0
      5.249605  6.825614  8.968062            0           0           0
      8.147954  2.003654  9.100848            0           0           0
      8.090799  3.529571  6.763051            0           0           0
      6.663528  1.086967  6.905289            0           0           0
      6.688295  1.136239  1.168686            0           0           0
      3.544815  4.079031  2.606324            0           0           0
      1.251436  1.213142  6.732923            0           0           0
      0.891779  1.066852  0.946259            0           0           0
      6.656621  9.256763  3.212249            0           0           0
      6.694735  4.414074  8.997577            0           0           0
      8.211617  5.460551  4.885224            0           0           0
     10.914432  6.848438  9.057940            0           0           0
     14.890523  7.351400  4.544290            0           0           0
     12.412495  5.983508  6.874221            0           0           0
      6.452178  5.968696  6.721865            0           0           0
      3.610252  2.535671  4.929286            0           0           0
     10.876990  5.237100  4.877710            0           0           0
      3.863526  6.039152  6.845071            0           0           0
     13.839530  8.597276  1.298341            0           0           0
      5.335858  8.402881  1.254446            0           0           0
      4.162766  6.390812  1.850956            0           0           0
      8.191068  2.052729  3.033860            0           0           0
      9.581692  9.276024  2.994683            0           0           0
      2.412820  3.621921  6.984197            0           0           0
     13.017728  3.439534  0.942539            0           0           0
     10.870715  1.998388  2.967381            0           0           0
     13.568897  5.068175  4.770577            0           0           0
      3.985748  1.046574  7.035995            0           0           0
      9.597148  6.127665  6.994441            0           0           0
      3.816457  1.075428  1.161363            0           0           0
      8.061037  3.567708  1.100229            0           0           0
      5.203702  2.034191  2.978088            0           0           0
      5.895058  6.720214  3.475283            0           0           0
      9.353912  6.069883  1.148085            0           0           0
      5.633796  3.632923  1.237229            0           0           0
     12.438659  9.060229  3.096115            0           0           0
     12.077659  7.636682  4.913240            0           0           0
     13.130083  6.616886  2.830400            0           0           0
      9.411481  4.471689  2.869342            0           0           0
      8.501797  8.516354  7.006082            0           0           0
      8.182433  8.589571  1.163151            0           0           0
     10.794049  6.970573  2.902376            0           0           0
      2.821111  0.145122  5.047399            0           0           0
      8.147254  0.550263  4.884806            0           0           0
      9.396760  1.205076  6.893567            0           0           0
[...]
      9.600481  2.820176  4.878652            0           0           0
      6.605022  2.545022  4.870770            0           0           0
     12.081964  4.246017  2.888958            0           0           0
      2.289160  1.825282  2.949964            0           0           0
     11.768861  5.749988  1.053620            0           0           0
      6.840329  5.987054  1.386442            0           0           0
      8.304374  7.124975  3.000625            0           0           0
      6.854587  4.220090  3.153943            0           0           0
     10.875973  3.571152  6.912787            0           0           0
     10.601515  3.454949  1.039167            0           0           0
     10.731789  0.688887  4.996638            0           0           0
      9.670061  7.711567  4.993331            0           0           0
      7.171427  7.817478  5.182281            0           0           0
      5.299396  0.295606  4.915438            0           0           0
      7.455972  0.771723 10.096307     0.424652    0.793789    0.435396

   3 f/i=    2.706684 THz    17.006600 2PiTHz   90.285272 cm-1    11.193951 meV
             X         Y         Z           dx          dy          dz
     13.669097  8.465489  6.700818            0           0           0
      5.212358  8.454306  6.582977            0           0           0
      5.171515  3.502763  6.833170            0           0           0
     15.188908  9.271838  8.910428            0           0           0
      3.828675  4.442787  9.027307            0           0           0
      6.731698  9.209703  8.845065            0           0           0
     12.252899  4.351409  9.050895            0           0           0
      9.540054  9.257815  9.150763            0           0           0
     10.929884  1.949984  8.923434            0           0           0
      2.516806  1.968454  9.037755            0           0           0
     12.321034  9.194453  9.141746            0           0           0
     13.742860  6.818426  9.048594            0           0           0
      5.245957  1.992156  9.128093            0           0           0
      8.081573  6.818944  8.906573            0           0           0
      9.501413  4.416457  8.974901            0           0           0
      5.249605  6.825614  8.968062            0           0           0
      8.147954  2.003654  9.100848            0           0           0
      8.090799  3.529571  6.763051            0           0           0
      6.663528  1.086967  6.905289            0           0           0
      6.688295  1.136239  1.168686            0           0           0
      3.544815  4.079031  2.606324            0           0           0
      1.251436  1.213142  6.732923            0           0           0
      0.891779  1.066852  0.946259            0           0           0
      6.656621  9.256763  3.212249            0           0           0
      6.694735  4.414074  8.997577            0           0           0
      8.211617  5.460551  4.885224            0           0           0
     10.914432  6.848438  9.057940            0           0           0
     14.890523  7.351400  4.544290            0           0           0
     12.412495  5.983508  6.874221            0           0           0
      6.452178  5.968696  6.721865            0           0           0
      3.610252  2.535671  4.929286            0           0           0
     10.876990  5.237100  4.877710            0           0           0
      3.863526  6.039152  6.845071            0           0           0
     13.839530  8.597276  1.298341            0           0           0
      5.335858  8.402881  1.254446            0           0           0
      4.162766  6.390812  1.850956            0           0           0
      8.191068  2.052729  3.033860            0           0           0
      9.581692  9.276024  2.994683            0           0           0
      2.412820  3.621921  6.984197            0           0           0
     13.017728  3.439534  0.942539            0           0           0
     10.870715  1.998388  2.967381            0           0           0
     13.568897  5.068175  4.770577            0           0           0
      3.985748  1.046574  7.035995            0           0           0
      9.597148  6.127665  6.994441            0           0           0
      3.816457  1.075428  1.161363            0           0           0
      8.061037  3.567708  1.100229            0           0           0
      5.203702  2.034191  2.978088            0           0           0
      5.895058  6.720214  3.475283            0           0           0
      9.353912  6.069883  1.148085            0           0           0
      5.633796  3.632923  1.237229            0           0           0
     12.438659  9.060229  3.096115            0           0           0
     12.077659  7.636682  4.913240            0           0           0
     13.130083  6.616886  2.830400            0           0           0
      9.411481  4.471689  2.869342            0           0           0
      8.501797  8.516354  7.006082            0           0           0
      8.182433  8.589571  1.163151            0           0           0
     10.794049  6.970573  2.902376            0           0           0
      2.821111  0.145122  5.047399            0           0           0
      8.147254  0.550263  4.884806            0           0           0
      9.396760  1.205076  6.893567            0           0           0
[...]
      9.600481  2.820176  4.878652            0           0           0
      6.605022  2.545022  4.870770            0           0           0
     12.081964  4.246017  2.888958            0           0           0
      2.289160  1.825282  2.949964            0           0           0
     11.768861  5.749988  1.053620            0           0           0
      6.840329  5.987054  1.386442            0           0           0
      8.304374  7.124975  3.000625            0           0           0
      6.854587  4.220090  3.153943            0           0           0
     10.875973  3.571152  6.912787            0           0           0
     10.601515  3.454949  1.039167            0           0           0
     10.731789  0.688887  4.996638            0           0           0
      9.670061  7.711567  4.993331            0           0           0
      7.171427  7.817478  5.182281            0           0           0
      5.299396  0.295606  4.915438            0           0           0
      7.455972  0.771723 10.096307     0.881895   -0.471446   -0.000617

 Finite differences POTIM=  1.500000000000000E-002
  LATTYP: Found a hexagonal cell.
 ALAT       =    11.2227001190
 C/A-ratio  =     1.9603125600

  Lattice vectors:

 A1 = (   5.6113500595,  -9.7191434021,   0.0000000000)
 A2 = ( -11.2227001190,   0.0000000000,   0.0000000000)
 A3 = (   0.0000000000,   0.0000000000, -22.0000000000)

Analysis of symmetry for initial positions (statically):
 Subroutine PRICEL returns:
 Original cell was already a primitive cell.

[...]

The static configuration has the point symmetry C_1 .

Analysis of symmetry for dynamics (positions and initial velocities):
 Subroutine PRICEL returns:
 Original cell was already a primitive cell.

[...]

The dynamic configuration has the point symmetry C_1 .

Analysis of constrained symmetry for selective dynamics:
 Subroutine PRICEL returns:
 Original cell was already a primitive cell.

[...]

The constrained configuration has the point symmetry C_1 .

Analysis of structural, dynamic, and magnetic symmetry:
 Subroutine PRICEL returns:
 Original cell was already a primitive cell.

 Routine SETGRP: Setting up the symmetry group for a
 hexagonal supercell.

 Subroutine GETGRP returns: Found  1 space group operations
 (whereof  1 operations were pure point group operations)
 out of a pool of 24 trial point group operations.

The magnetic configuration has the point symmetry C_1 .

 Subroutine INISYM returns: Found  1 space group operations
 (whereof  1 operations are pure point group operations),
 and found     1 'primitive' translations

 KPOINTS: mesh auto

Automatic generation of k-mesh.
Space group operators:
 irot       det(A)        alpha          n_x          n_y          n_z        tau_x        tau_y        tau_z
    1     1.000000     0.000000     1.000000     0.000000     0.000000     0.000000     0.000000     0.000000

 Subroutine IBZKPT returns following result:

 Found      4 irreducible k-points:

 Following reciprocal coordinates:
            Coordinates               Weight
  0.000000  0.000000  0.000000      1.000000
  0.500000  0.000000  0.000000      1.000000
  0.000000  0.500000  0.000000      1.000000
  0.500000  0.500000  0.000000      1.000000

 Following cartesian coordinates:
            Coordinates               Weight
  0.000000  0.000000  0.000000      1.000000
  0.044553 -0.025722  0.000000      1.000000
  0.000000  0.051445  0.000000      1.000000
  0.044553  0.025722  0.000000      1.000000

 TETIRR: Found     12 inequivalent tetrahedra from       24
 BZINTS: Fermi energy:  1.360547;754.000000 electrons
         Band energy:***********;  BLOECHL correction: -0.231265