 vasp.5.4.4.18Apr17-6-g9f103f2a35 (build Nov 06 2019 15:09:28) complex

 executed on             LinuxIFC date 2021.10.26  21:05:36

 INCAR:
 POTCAR:    PAW_PBE Pt 04Feb2005
 POTCAR:    PAW_PBE H 15Jun2001
 POTCAR:    PAW_PBE Pt 04Feb2005
   VRHFIN =Pt: s1d9

   TITEL  = PAW_PBE Pt 04Feb2005
   POMASS =  195.080; ZVAL   =   10.000    mass and valenz
   ENMAX  =  230.283; ENMIN  =  172.712 eV

 POTCAR:    PAW_PBE H 15Jun2001
   VRHFIN =H: ultrasoft test

   TITEL  = PAW_PBE H 15Jun2001
   POMASS =    1.000; ZVAL   =    1.000    mass and valenz
   ENMAX  =  250.000; ENMIN  =  200.000 eV

 Optimization of the real space projectors (new method)

 maximal supplied QI-value         = 14.36
 optimisation between [QCUT,QGAM] = [ 11.92, 23.98] = [ 39.79,161.09] Ry
 Optimized for a Real-space Cutoff    1.49 Angstroem

   l    n(q)    QCUT    max X(q) W(low)/X(q) W(high)/X(q)  e(spline)
   2     10    11.920    66.195    0.79E-04    0.18E-03    0.24E-06
   2     10    11.920    64.643    0.81E-04    0.19E-03    0.24E-06
   0     11    11.920    95.520    0.28E-04    0.54E-04    0.18E-06
   0     11    11.920    63.403    0.27E-04    0.52E-04    0.17E-06
   1     10    11.920    19.961    0.18E-04    0.11E-03    0.23E-06
   1     10    11.920    13.289    0.25E-04    0.87E-04    0.19E-06
 Optimization of the real space projectors (new method)

 maximal supplied QI-value         = 34.20
 optimisation between [QCUT,QGAM] = [ 11.97, 23.94] = [ 40.13,160.53] Ry
 Optimized for a Real-space Cutoff    1.18 Angstroem

   l    n(q)    QCUT    max X(q) W(low)/X(q) W(high)/X(q)  e(spline)
   0      8    11.971    19.460    0.15E-03    0.31E-03    0.25E-06
   0      8    11.971    12.209    0.13E-03    0.29E-03    0.25E-06
   1      8    11.971     4.655    0.22E-03    0.24E-03    0.21E-06
  PAW_PBE Pt 04Feb2005                  :
  PAW_PBE H 15Jun2001                   :

 POSCAR: Pt   H
  positions in direct lattice
 exchange correlation table for  LEXCH =        8
   RHO(1)=    0.500       N(1)  =     2000
   RHO(2)=  100.500       N(2)  =     4000

 VTST: version 3.2, (02/03/18)

 CHAIN: initializing optimizer

 OPT: Using VASP QUASI-newton optimizer
 CHAIN: Read ICHAIN            0
 CHAIN: Running the NEB
 NEB:          SPRING     -5.000000
 NEB:          LCLIMB      T
 NEB:     LTANGENTOLD      F
 NEB:           LDNEB      F
 NEB:        LDNEBORG      F
 NEB:        LNEBCELL      F
 NEB:          EFIRST      0.000000
 NEB:           ELAST      0.000000

 POSCAR: Pt   H
  positions in direct lattice

 POSCAR: Pt   H
  positions in direct lattice

 ion  position               nearest neighbor table
   1  0.785  0.869  0.327-  71 2.74  20 2.74  55 2.74  35 2.79  27 2.79  34 2.79  43 2.81   2 2.81
                             3 2.81  73 2.81  72 2.81  56 2.81
   2  0.035  0.869  0.327-  55 2.74  65 2.74  68 2.74  39 2.78  29 2.78  27 2.79  23 2.81  72 2.81
                            47 2.81   1 2.81  57 2.81   3 2.81
   3  0.035  0.619  0.327-  55 2.74  12 2.74  76 2.74  39 2.78  28 2.79  35 2.80   9 2.80  15 2.80
                            56 2.81   1 2.81  57 2.81   2 2.81
   4  0.787  0.868  0.023-  21 2.78  78 2.78  19 2.79   6 2.80   5 2.80  58 2.80  75 2.80  74 2.80
                            44 2.80
   5  0.037  0.868  0.023-  49 2.78  70 2.79  78 2.79  48 2.80  74 2.80   4 2.80  24 2.81   6 2.81
                            59 2.81
   6  0.037  0.618  0.023-  46 2.78  70 2.79  21 2.79   4 2.80  58 2.80  18 2.81  59 2.81  10 2.81
                             5 2.81
   7  0.619  0.202  0.126-  71 2.73  79 2.74  80 2.74  42 2.78  44 2.79  74 2.79  53 2.80  78 2.80
                            19 2.80  11 2.80  61 2.81  22 2.81
   8  0.370  0.951  0.126-  69 2.74  66 2.74  26 2.74  16 2.78  24 2.78  75 2.79  25 2.80  60 2.80
                            19 2.80  49 2.81  54 2.81  53 2.81
   9  0.035  0.369  0.327-  12 2.74  77 2.74  62 2.74  30 2.78  28 2.79  33 2.79  13 2.80  47 2.80
                             3 2.80  15 2.81  56 2.81  63 2.81
  10  0.037  0.368  0.023-  54 2.78  46 2.79  45 2.79  64 2.80  58 2.80   6 2.81  18 2.81  48 2.81
                            16 2.81
  11  0.869  0.202  0.126-  77 2.74  65 2.74  79 2.75  64 2.78  74 2.78  48 2.79   7 2.80  78 2.80
                            22 2.81  49 2.81  54 2.81  45 2.81
  12  0.952  0.536  0.226-  21 2.73   3 2.74   9 2.74  45 2.74  46 2.74  56 2.74  20 2.80  55 2.81
                            77 2.81  62 2.81  67 2.81  76 2.81
  13  0.284  0.119  0.327-  62 2.74  26 2.74  69 2.74  31 2.78  36 2.79  33 2.79   9 2.80  47 2.80
                            43 2.81  15 2.81  73 2.81  23 2.81
  14  0.534  0.619  0.328-  51 2.75  66 2.75  67 2.76  52 2.80  41 2.80  57 2.80  63 2.80  23 2.80
                            56 2.81  73 2.81  38 2.82  37 2.82
  15  0.285  0.369  0.327-  76 2.74  80 2.74  62 2.74  50 2.77  36 2.79  28 2.79   3 2.80  43 2.80
                            41 2.80   9 2.81  57 2.81  13 2.81
  16  0.287  0.118  0.023-   8 2.78  53 2.78  54 2.79  75 2.80  44 2.80  24 2.81  18 2.81  48 2.81
                            10 2.81
  17  0.537  0.618  0.023-  22 2.78  25 2.78  60 2.79  24 2.80  59 2.80  64 2.81  42 2.81  58 2.81
                            75 2.81
  18  0.287  0.368  0.023-  53 2.78  61 2.79  46 2.79  59 2.80   6 2.81  10 2.81  42 2.81  16 2.81
                            44 2.81
  19  0.619  0.952  0.126-  20 2.74  71 2.74  69 2.74  44 2.78  75 2.78   4 2.79   7 2.80  53 2.80
                             8 2.80  78 2.81  21 2.81  25 2.81
  20  0.702  0.785  0.227-  25 2.74  56 2.74  19 2.74   1 2.74  73 2.74  21 2.75  66 2.80  67 2.80
                            12 2.80  69 2.81  55 2.81  71 2.81
  21  0.869  0.702  0.126-  12 2.73  55 2.74  20 2.75   4 2.78  58 2.79   6 2.79  70 2.80  46 2.80
                            45 2.81  78 2.81  19 2.81  25 2.81
  22  0.619  0.452  0.126-  79 2.73  67 2.74  51 2.75  17 2.78  42 2.79  64 2.80  61 2.80  60 2.80
                            45 2.80  25 2.81  11 2.81   7 2.81
  23  0.285  0.869  0.327-  68 2.74  66 2.74  26 2.75  37 2.78  31 2.79  29 2.79  73 2.80  14 2.80
                            57 2.80   2 2.81  47 2.81  13 2.81
  24  0.287  0.868  0.023-   8 2.78  60 2.79  49 2.79  17 2.80  59 2.80  48 2.81   5 2.81  16 2.81
                            75 2.81
  25  0.619  0.702  0.126-  20 2.74  67 2.74  66 2.74  17 2.78  75 2.79  58 2.79   8 2.80  45 2.80
                            60 2.81  19 2.81  22 2.81  21 2.81
  26  0.202  0.036  0.226-  49 2.73  13 2.74  54 2.74   8 2.74  47 2.74  23 2.75  69 2.80  65 2.81
                            62 2.81  77 2.81  68 2.81  66 2.81
  27  0.868  0.953  0.430-  39 2.78  40 2.78   1 2.79  72 2.79   2 2.79  29 2.80  32 2.80  34 2.80
                            35 2.80
  28  0.117  0.453  0.430-  50 2.77  30 2.78   3 2.79   9 2.79  15 2.79  33 2.80  35 2.80  39 2.80
                            36 2.81
  29  0.116  0.954  0.430-  37 2.77  47 2.78   2 2.78  32 2.78  23 2.79  27 2.80  33 2.80  39 2.81
                            31 2.81
  30  0.870  0.452  0.430-  28 2.78   9 2.78  56 2.78  63 2.79  33 2.79  38 2.79  35 2.80  32 2.81
                            52 2.82
  31  0.367  0.955  0.430-  13 2.78  36 2.78  23 2.79  37 2.79  33 2.79  73 2.79  34 2.81  29 2.81
                            52 2.82
  32  0.868  0.202  0.430-  38 2.77  29 2.78  72 2.79  63 2.79  47 2.79  33 2.80  27 2.80  30 2.81
                            40 2.81
  33  0.117  0.203  0.430-   9 2.79  47 2.79  31 2.79  30 2.79  13 2.79  32 2.80  36 2.80  28 2.80
                            29 2.80
  34  0.618  0.953  0.430-  52 2.78  40 2.78  73 2.79  43 2.79   1 2.79  36 2.80  27 2.80  35 2.81
                            31 2.81
  35  0.867  0.703  0.430-  52 2.77  39 2.78   1 2.79  56 2.79   3 2.80  28 2.80  30 2.80  27 2.80
                            34 2.81
  36  0.368  0.202  0.430-  50 2.77  31 2.78  13 2.79  15 2.79  43 2.79  34 2.80  33 2.80  40 2.81
                            28 2.81
  37  0.364  0.708  0.432-  81 1.68  29 2.77  23 2.78  31 2.79  57 2.81  39 2.82  14 2.82  52 2.85
                            50 2.88  38 2.90
  38  0.622  0.449  0.432-  81 1.68  32 2.77  63 2.79  30 2.79  41 2.80  14 2.82  40 2.82  52 2.85
                            50 2.88  37 2.90
  39  0.115  0.704  0.430-   3 2.78   2 2.78  35 2.78  27 2.78  57 2.79  28 2.80  29 2.81  37 2.82
                            50 2.83
  40  0.619  0.200  0.430-  43 2.78  34 2.78  72 2.78  27 2.78  41 2.79  36 2.81  32 2.81  38 2.82
                            50 2.83
  41  0.534  0.370  0.328-  51 2.74  80 2.75  79 2.75  40 2.79  14 2.80  57 2.80  63 2.80  38 2.80
                            15 2.80  50 2.81  72 2.81  43 2.81
  42  0.537  0.368  0.023-   7 2.78  22 2.79  61 2.79  74 2.80  44 2.80  64 2.80  17 2.81  18 2.81
                            59 2.81
  43  0.535  0.119  0.327-  69 2.74  80 2.74  71 2.74  40 2.78  34 2.79  36 2.79  15 2.80  13 2.81
                            73 2.81   1 2.81  72 2.81  41 2.81
  44  0.537  0.118  0.023-  19 2.78   7 2.79  53 2.79  74 2.80  75 2.80  42 2.80  16 2.80   4 2.80
                            18 2.81
  45  0.869  0.452  0.126-  77 2.73  12 2.74  67 2.75  58 2.78  64 2.78  10 2.79  25 2.80  22 2.80
                            21 2.81  11 2.81  54 2.81  46 2.81
  46  0.119  0.452  0.126-  62 2.73  76 2.74  12 2.74   6 2.78  10 2.79  18 2.79  70 2.80  21 2.80
                            61 2.81  53 2.81  54 2.81  45 2.81
  47  0.035  0.119  0.327-  65 2.74  77 2.74  26 2.74  29 2.78  32 2.79  33 2.79  13 2.80   9 2.80
                            72 2.81   2 2.81  23 2.81  63 2.81
  48  0.037  0.118  0.023-  54 2.78  49 2.78  11 2.79   5 2.80  74 2.80  24 2.81  64 2.81  10 2.81
                            16 2.81
  49  0.119  0.952  0.126-  26 2.73  68 2.74  65 2.74   5 2.78  48 2.78  24 2.79  70 2.80  78 2.80
                            60 2.81  11 2.81  54 2.81   8 2.81
  50  0.365  0.450  0.431-  28 2.77  15 2.77  36 2.77  57 2.80  41 2.81  39 2.83  40 2.83  38 2.88
                            37 2.88
  51  0.452  0.536  0.227-  60 2.74  41 2.74  61 2.74  14 2.75  57 2.75  22 2.75  68 2.80  67 2.80
                            66 2.80  76 2.80  80 2.80  79 2.80
  52  0.619  0.705  0.430-  35 2.77  34 2.78  73 2.78  56 2.79  14 2.80  30 2.82  31 2.82  37 2.85
                            38 2.85
  53  0.370  0.202  0.126-  69 2.74  80 2.74  62 2.74  18 2.78  16 2.78  44 2.79   7 2.80  19 2.80
                            61 2.81  46 2.81  54 2.81   8 2.81
  54  0.119  0.202  0.126-  26 2.74  62 2.74  77 2.75  10 2.78  48 2.78  16 2.79  11 2.81  49 2.81
                            46 2.81  53 2.81   8 2.81  45 2.81
  55  0.952  0.786  0.227-   3 2.74   2 2.74  78 2.74  21 2.74  70 2.74   1 2.74  12 2.81  76 2.81
                            65 2.81  68 2.81  71 2.81  20 2.81
  56  0.785  0.619  0.327-  20 2.74  67 2.74  12 2.74  30 2.78  52 2.79  35 2.79  63 2.80   3 2.81
                             9 2.81  14 2.81   1 2.81  73 2.81
  57  0.285  0.619  0.328-  51 2.75  68 2.75  76 2.75  39 2.79  14 2.80  41 2.80  50 2.80  23 2.80
                            37 2.81  15 2.81   2 2.81   3 2.81
[...]
   0.333E+00 -.101E+01 -.259E+04   -.311E+00 0.119E+01 0.259E+04   -.992E-02 -.142E+00 0.143E+01   -.794E-02 -.457E-01 -.333E-01
   -.300E+01 0.451E+01 -.259E+04   0.293E+01 -.442E+01 0.259E+04   0.758E-01 -.125E+00 0.143E+01   0.237E-02 0.323E-01 -.283E-01
   0.484E+00 0.550E+00 -.259E+04   -.474E+00 -.540E+00 0.259E+04   0.125E-01 -.892E-03 0.140E+01   -.195E-01 -.103E-01 -.296E-01
   -.148E+01 -.104E+01 -.259E+04   0.149E+01 0.108E+01 0.259E+04   0.639E-02 -.176E-01 0.135E+01   -.121E-01 -.170E-01 -.297E-01
   -.169E+01 -.647E+00 -.259E+04   0.172E+01 0.660E+00 0.259E+04   -.568E-02 0.478E-02 0.136E+01   -.185E-01 -.153E-01 -.295E-01
   0.273E+01 0.131E+01 -.259E+04   -.271E+01 -.135E+01 0.259E+04   -.209E-01 0.398E-01 0.134E+01   0.286E-02 -.394E-02 -.307E-01
   0.698E+01 -.140E+02 -.258E+04   -.695E+01 0.140E+02 0.258E+04   -.497E-01 0.833E-01 -.119E-01   0.315E-01 -.264E-01 -.300E-01
   -.868E+01 0.131E+02 -.258E+04   0.862E+01 -.131E+02 0.258E+04   0.490E-01 -.948E-01 -.263E-02   0.483E-02 0.250E-01 -.292E-01
   -.245E+01 0.605E+00 -.259E+04   0.218E+01 -.514E+00 0.259E+04   0.223E+00 -.833E-01 0.147E+01   0.466E-01 -.112E-01 -.298E-01
   -.103E+01 -.234E+01 -.259E+04   0.958E+00 0.207E+01 0.259E+04   0.543E-01 0.223E+00 0.148E+01   0.240E-01 0.393E-01 -.298E-01
   -.106E+01 -.308E+01 -.132E+04   0.111E+01 0.308E+01 0.132E+04   -.759E-01 -.648E-01 0.664E+00   0.327E-01 0.487E-01 -.326E-01
   0.291E-01 -.493E+00 0.260E+04   -.405E-01 0.444E+00 -.260E+04   -.578E-02 0.215E-01 -.146E+01   0.145E-01 0.303E-01 0.366E-01
   0.393E+00 -.966E+00 -.131E+04   -.378E+00 0.985E+00 0.131E+04   -.226E-01 -.346E-01 0.740E+00   0.898E-02 0.172E-01 -.489E-01
   0.150E-01 -.657E+00 0.260E+04   -.185E-01 0.632E+00 -.260E+04   -.804E-02 0.122E-01 -.141E+01   0.105E-01 0.150E-01 0.195E-01
   -.202E+00 0.191E+00 0.132E+04   0.228E+00 -.185E+00 -.132E+04   0.175E-01 -.111E-01 -.722E+00   -.443E-01 0.673E-02 0.560E-01
   0.577E+00 0.382E+00 0.132E+04   -.580E+00 -.403E+00 -.132E+04   -.873E-02 0.104E-01 -.713E+00   0.993E-02 0.129E-01 0.530E-01
   -.281E+00 -.306E+00 -.131E+04   0.276E+00 0.302E+00 0.131E+04   0.106E-01 0.238E-02 0.703E+00   -.533E-02 -.285E-04 -.324E-01
   -.929E+00 -.859E+00 0.260E+04   0.929E+00 0.841E+00 -.260E+04   0.187E-01 0.230E-01 -.141E+01   -.195E-01 -.158E-02 0.229E-01
   -.427E+00 0.251E+00 0.132E+04   0.431E+00 -.220E+00 -.132E+04   -.893E-02 -.114E-01 -.727E+00   0.431E-02 -.190E-01 0.498E-01
   -.522E+01 -.302E+01 -.258E+04   0.394E+01 0.229E+01 0.258E+04   0.126E+01 0.722E+00 0.185E+01   0.406E-01 0.145E-01 -.333E-01
   -.622E+00 -.132E+00 -.430E+01   0.601E+00 0.124E+00 0.435E+01   -.868E-03 -.188E-02 -.689E-01   0.255E-01 0.987E-02 0.226E-01
   0.481E+01 0.298E+01 -.259E+04   -.416E+01 -.258E+01 0.258E+04   -.636E+00 -.379E+00 0.168E+01   -.298E-01 -.307E-01 -.345E-01
   0.670E+00 0.336E+00 0.132E+04   -.689E+00 -.341E+00 -.132E+04   0.347E-02 -.674E-02 -.710E+00   0.138E-01 0.120E-01 0.501E-01
   -.313E+00 -.335E-02 0.133E+04   0.376E+00 0.314E-01 -.133E+04   -.412E-01 -.218E-01 -.563E+00   -.235E-01 -.565E-02 0.565E-01
   -.504E+00 0.235E+00 0.466E+01   0.492E+00 -.227E+00 -.465E+01   -.679E-02 -.129E-02 -.125E-01   0.200E-01 -.640E-02 -.376E-02
   0.116E+01 0.160E+01 -.131E+04   -.116E+01 -.159E+01 0.131E+04   0.578E-01 0.603E-02 0.715E+00   -.519E-01 -.182E-01 -.309E-01
   -.337E+01 0.534E+00 -.132E+04   0.340E+01 -.484E+00 0.132E+04   -.908E-01 -.379E-01 0.663E+00   0.595E-01 -.988E-02 -.352E-01
   0.870E+00 0.344E+00 0.260E+04   -.825E+00 -.344E+00 -.260E+04   -.107E-01 0.326E-02 -.144E+01   -.373E-01 -.159E-02 0.256E-01
   -.503E+00 0.139E+00 0.260E+04   0.465E+00 -.142E+00 -.260E+04   0.851E-02 -.346E-03 -.146E+01   0.280E-01 0.523E-02 0.363E-01
   -.393E-01 -.802E-01 0.132E+04   0.241E-01 0.906E-01 -.132E+04   0.626E-02 0.129E-01 -.711E+00   0.894E-02 -.222E-01 0.522E-01
[...]
   -.365E+00 0.300E+00 0.115E+01   0.376E+00 -.251E+00 -.114E+01   -.456E-01 -.251E-01 -.181E-01   0.354E-01 -.250E-01 0.125E-01
   0.329E+00 0.630E-01 0.548E+01   -.338E+00 -.582E-01 -.545E+01   0.220E-01 0.108E-01 -.396E-01   -.106E-01 -.166E-01 0.117E-01
   -.668E+00 0.186E+00 0.132E+04   0.625E+00 -.183E+00 -.132E+04   0.798E-02 -.243E-02 -.732E+00   0.366E-01 -.245E-03 0.470E-01
   0.905E-02 -.492E+00 0.474E+01   -.174E-01 0.479E+00 -.473E+01   -.241E-03 -.726E-02 -.124E-01   0.106E-01 0.215E-01 -.364E-02
   -.583E+00 -.111E+01 -.131E+04   0.565E+00 0.107E+01 0.131E+04   -.338E-03 -.970E-02 0.728E+00   0.196E-01 0.454E-01 -.424E-01
   0.203E+01 0.305E+00 -.131E+04   -.203E+01 -.295E+00 0.131E+04   0.397E-01 0.400E-01 0.716E+00   -.318E-01 -.485E-01 -.314E-01
   0.469E+00 -.250E+00 0.260E+04   -.458E+00 0.241E+00 -.260E+04   -.136E-01 -.159E-01 -.146E+01   0.334E-03 0.265E-01 0.254E-01
   0.912E+00 0.483E+00 0.260E+04   -.878E+00 -.465E+00 -.260E+04   -.121E-01 0.504E-02 -.144E+01   -.248E-01 -.213E-01 0.229E-01
   -.121E+01 -.476E+00 0.340E+01   0.114E+01 0.438E+00 -.347E+01   0.292E-01 0.323E-01 0.575E-01   0.422E-01 0.661E-02 0.596E-02
   0.177E+01 -.148E+01 0.652E+01   -.169E+01 0.143E+01 -.662E+01   -.520E-01 0.388E-01 0.782E-01   -.306E-01 0.118E-01 0.230E-01
   -.159E+00 -.277E+00 0.132E+04   0.141E+00 0.261E+00 -.132E+04   0.347E-02 0.528E-02 -.720E+00   0.148E-01 0.132E-01 0.430E-01
   0.267E+00 -.737E+00 0.981E+00   -.226E+00 0.722E+00 -.977E+00   -.430E-01 -.278E-01 -.182E-01   0.147E-02 0.445E-01 0.150E-01
   -.118E+01 -.890E+00 0.318E+01   0.111E+01 0.850E+00 -.325E+01   0.429E-01 0.657E-02 0.557E-01   0.307E-01 0.340E-01 0.583E-02
   0.382E+01 0.223E+01 -.307E+03   -.416E+01 -.243E+01 0.309E+03   0.312E+00 0.183E+00 -.165E+01   0.153E-02 0.635E-03 -.665E-02
   -.121E+01 -.712E+00 0.450E+01   -.586E-13 0.254E-12 0.313E-11   0.118E+01 0.674E+00 -.487E+01   0.476E-01 0.311E-01 0.342E+00

 POSITION                                       TOTAL-FORCE (eV/Angst)
     13.68750      8.44744      7.18865         0.004557      0.000777     -0.003945
      5.27079      8.44749      7.18790         0.004011     -0.001325     -0.000487
      3.87016      6.01657      7.18520         0.001570     -0.000460     -0.001690
     13.69350      8.43959      0.50555        -0.003377      0.002943     -0.001311
      5.27811      8.43944      0.50363        -0.001928      0.003664     -0.001397
      3.87501      6.01036      0.50367        -0.001720      0.001985     -0.000845
      8.08208      1.96260      2.77243        -0.001150      0.001637     -0.000876
      9.48431      9.24873      2.77104        -0.001181      0.000486     -0.000017
      2.46259      3.58640      7.18483         0.001059     -0.000905     -0.000580
      2.47220      3.58343      0.50598        -0.002153      0.001364     -0.001079
     10.88665      1.96357      2.76991        -0.001229      0.001431      0.000856
     13.68878      5.20492      4.97977         0.000089     -0.000381     -0.000559
      3.86517      1.15666      7.18533         0.000137     -0.002034     -0.001607
      9.47596      6.01556      7.21324         0.001307     -0.001594      0.007609
      5.27354      3.58949      7.18741        -0.000137     -0.001107      0.000026
      3.87746      1.14924      0.50606        -0.002699      0.002132      0.000148
      9.48670      6.00990      0.50874        -0.002949      0.002398     -0.000849
      5.27900      3.58130      0.50435        -0.002537      0.003090     -0.002101
     12.28894      9.25325      2.77248        -0.001003      0.001925     -0.001422
     12.28535      7.63395      4.97995         0.001225      0.000432     -0.000382
     13.69279      6.82256      2.77208        -0.001385      0.000896     -0.000877
      9.48146      4.39309      2.77636        -0.000866      0.002819     -0.000276
      8.07695      8.43896      7.19919         0.001905     -0.002244      0.001779
      8.08337      8.43892      0.50451        -0.002802      0.002464     -0.000311
     10.88462      6.82216      2.77398        -0.000329      0.001210     -0.000679
      2.46633      0.35116      4.97306        -0.000346     -0.001035     -0.000060
     15.09020      9.26025      9.45646         0.003678     -0.000099     -0.000738
      3.85845      4.39997      9.45522         0.001492     -0.001111      0.000092
      6.66988      9.26087      9.45261         0.002401     -0.001192      0.002638
     12.29843      4.39806      9.45336         0.002608     -0.000311      0.001549
      9.48378      9.27304      9.45351         0.003958     -0.004007      0.000713
     10.88009      1.96854      9.45307         0.003458     -0.002147      0.002576
      2.46101      1.96922      9.45049         0.003069     -0.001003      0.001020
     12.28603      9.26409      9.45695         0.004235     -0.001019     -0.001417
     13.69154      6.83005      9.45710         0.004514      0.001521     -0.000542
      5.26542      1.96415      9.45545         0.001614     -0.004070     -0.000707
      8.06984      6.86603      9.51390         0.000928      0.001617      0.002032
      9.50633      4.37824      9.51434         0.004664     -0.005049      0.003749
      5.25130      6.83500      9.45441         0.000373     -0.003736      0.001314
      8.06918      1.95250      9.45497         0.001739     -0.002833      0.000721
      8.08146      3.59159      7.20507        -0.000026     -0.000246      0.002261
      8.08359      3.58005      0.50684        -0.002904      0.003316     -0.001514
      6.67410      1.15969      7.18528         0.002166     -0.000622     -0.002923
      6.68119      1.14968      0.50387        -0.001714      0.002382     -0.001629
     12.28624      4.39545      2.77157        -0.001929      0.001779     -0.000362
      3.87563      4.39505      2.77119        -0.001284      0.001786     -0.001060
      1.06081      1.15688      7.18617         0.001112     -0.001963     -0.000042
      1.06624      1.14848      0.50003        -0.002066      0.002703     -0.000170
      6.67785      9.25246      2.76982        -0.000817     -0.000027      0.001008
      6.62587      4.37374      9.45782         0.000299     -0.003735      0.001343
      8.07956      5.20656      4.99195         0.001549      0.000280      0.002237
     10.91988      6.85292      9.44983         0.005005     -0.001369      0.001078
      5.27834      1.96533      2.77090        -0.001351      0.000890     -0.001190
      2.47079      1.96485      2.75803        -0.002206      0.000937      0.000330
     15.09294      7.63569      4.98072         0.002006     -0.000738     -0.002965
     12.28506      6.01747      7.18816         0.002278      0.000206      0.001038
      6.67913      6.01971      7.20497         0.001419     -0.002017      0.002461
     12.29302      6.01135      0.50468        -0.002979      0.001734     -0.000659
      6.68067      6.01013      0.50704        -0.001611      0.001559     -0.001043
      8.08004      6.82129      2.77551         0.000315      0.001323      0.000217
[...]
     10.88244      5.20322      4.98506         0.000232      0.001601      0.002443
      6.67876      7.63560      4.98457         0.001620     -0.000799      0.000264
      5.27124      0.34593      4.97977         0.000336     -0.000914     -0.000705
      5.27482      6.82501      2.77227         0.000634      0.000537     -0.000464
      8.07899      0.34603      4.98081         0.001956      0.002089     -0.003287
      9.47926      1.15811      7.18862         0.001560      0.001412     -0.000435
     10.88175      8.44784      7.18758         0.002663     -0.000564      0.000350
      9.48639      1.15061      0.50444        -0.002235      0.002588     -0.001710
     10.89092      8.43979      0.50406        -0.003201      0.002248     -0.001250
      5.27605      5.20695      4.98009         0.001580     -0.000688     -0.000481
     12.29077      2.77241      4.97384        -0.000381      0.000310      0.000161
     15.09450      9.25215      2.77068        -0.000165      0.002082     -0.001465
      9.48354      2.77738      4.98486        -0.000636      0.002900      0.000710
      6.67833      2.77752      4.98021         0.000401      0.000620     -0.000652
      8.53706      5.47800     10.49754        -0.028239     -0.020487      0.001149
    total drift:                                0.023941     -0.006337     -0.027938

  FREE ENERGIE OF THE ION-ELECTRON SYSTEM (eV)
  free  energy   TOTEN  =      -517.06380843 eV

  energy  without entropy=     -517.20811162  energy(sigma->0) =     -517.11190950

 d Force = 0.6877921E-04[ 0.429E-04, 0.947E-04]  d Energy = 0.3091090E-04 0.379E-04
 d Force = 0.2066034E+02[ 0.207E+02, 0.207E+02]  d Ewald  = 0.2066034E+02-0.686E-07

 NEB: the previous image is higher in energy: F
 NEB: the next image is higher in energy    : T
 NEB: only next energy greater

 NEB: Tangent
     -0.00263     -0.00081      0.00007
     -0.00320     -0.00160      0.00193
     -0.00295     -0.00029     -0.00121
      0.00041     -0.00114     -0.00201
      0.00131     -0.00103     -0.00056
      0.00049     -0.00045     -0.00073
     -0.00101     -0.00117     -0.00166
     -0.00134     -0.00186      0.00167
     -0.00256     -0.00063     -0.00022
      0.00065     -0.00347      0.00180
     -0.00072     -0.00166      0.00061
     -0.00320      0.00023     -0.00020
     -0.00222     -0.00097     -0.00022
     -0.00394     -0.00191      0.00058
     -0.00489     -0.00194     -0.00724
     -0.00140      0.00035      0.00198
      0.00089     -0.00060      0.00127
      0.00053     -0.00067     -0.00089
      0.00033     -0.00067     -0.00076
     -0.00157     -0.00046      0.00111
     -0.00015     -0.00014     -0.00064
      0.00027     -0.00071     -0.00110
     -0.00339     -0.00025      0.00047
     -0.00032     -0.00014      0.00076
     -0.00045     -0.00068      0.00118
     -0.00276     -0.00555      0.00395
     -0.00354     -0.00142     -0.00065
      0.00205     -0.00047     -0.00239
     -0.00350     -0.00387      0.00229
      0.00604     -0.01096     -0.00123
     -0.00792      0.01270     -0.00087
     -0.00487     -0.00018      0.00187
     -0.00466     -0.00155      0.00165
     -0.00198      0.00181     -0.00120
     -0.00057     -0.00101     -0.00091
      0.00009      0.00345     -0.00277
     -0.01543     -0.01335      0.00575
     -0.01910     -0.00499      0.00573
      0.00727     -0.01094      0.00198
     -0.00486      0.01382      0.00141
     -0.00185     -0.00165     -0.00535
      0.00122     -0.00120     -0.00247
     -0.00195     -0.00107     -0.00133
      0.00106     -0.00088     -0.00094
     -0.00175     -0.00064      0.00124
     -0.00343     -0.00243     -0.00243
     -0.00426     -0.00218      0.00200
      0.00165     -0.00040      0.00063
     -0.00157     -0.00024      0.00087
      0.01189      0.00800     -0.01859
     -0.00414     -0.00249     -0.00388
      0.00616      0.00414      0.01600
     -0.00299     -0.00275     -0.00247
     -0.00380     -0.00272      0.00887
     -0.00192     -0.00037     -0.00039
     -0.00526     -0.00031      0.00436
     -0.00294      0.00004     -0.00522
      0.00083     -0.00079      0.00078
      0.00080     -0.00061     -0.00207
     -0.00021     -0.00003     -0.00049
[...]
     -0.00218      0.00071      0.00171
     -0.00318     -0.00249     -0.00002
     -0.00134     -0.00288     -0.00003
     -0.00113     -0.00101     -0.00165
     -0.00107     -0.00092     -0.00034
     -0.00355     -0.00152      0.00180
     -0.00308     -0.00330      0.00504
      0.00073      0.00004     -0.00086
      0.00078     -0.00031      0.00111
     -0.00533     -0.00103     -0.00473
     -0.00625      0.00034      0.00351
     -0.00028     -0.00054     -0.00074
     -0.00421     -0.00082     -0.00021
     -0.00385     -0.00353     -0.00479
      0.86387      0.50007     -0.00207

 NEB: forces: par spring, perp REAL, dneb     0.022114    0.030048    0.000000
 NEB: distance to prev, next image, angle between     0.580328    0.584751  157.255213
 NEB: projections on to tangent (spring, REAL)     0.022114   -0.034959

 stress matrix after NEB project (eV)
    -84.76111      0.32767      0.25953
      0.32767    -84.92867     -0.58548
      0.25953     -0.58548     -1.57830
  FORCES: max atom, RMS     0.022576    0.004145
  FORCE total and by dimension    0.037308    0.021065
  Stress total and by dimension  120.003540   84.928665
 Quasi-Newton relaxation of ions (Broydens 2nd method)
  g(Force)  = 0.222E-03   g(Stress)= 0.000E+00

 retain information from N=  2 steps
 eigenvalues of (default step * inverse Hessian matrix)
  average eigenvalue of G=   4.3812
 eigenvalue spectrum of G is  4.3812  4.3812

 reached required accuracy - stopping structural energy minimisation