 vasp.5.4.4.18Apr17-6-g9f103f2a35 (build Nov 30 2020 22:55:02) complex

 executed on             LinuxIFC date 2022.09.16  22:00:45

 INCAR:
 POTCAR:    PAW_PBE Pt 04Feb2005
 POTCAR:    PAW_PBE Fe 06Sep2000
 POTCAR:    PAW_PBE Co 02Aug2007
 POTCAR:    PAW_PBE Cu 22Jun2005
 POTCAR:    PAW_PBE Ni 02Aug2007
 POTCAR:    PAW_PBE O 08Apr2002

 POTCAR:    PAW_PBE Pt 04Feb2005
   VRHFIN =Pt: s1d9

   TITEL  = PAW_PBE Pt 04Feb2005
   POMASS =  195.080; ZVAL   =   10.000    mass and valenz
   ENMAX  =  230.283; ENMIN  =  172.712 eV

 POTCAR:    PAW_PBE Fe 06Sep2000
   VRHFIN =Fe:  d7 s1

   TITEL  = PAW_PBE Fe 06Sep2000
   POMASS =   55.847; ZVAL   =    8.000    mass and valenz
   ENMAX  =  267.882; ENMIN  =  200.911 eV

 POTCAR:    PAW_PBE Co 02Aug2007
   VRHFIN =Co: d8 s1

   TITEL  = PAW_PBE Co 02Aug2007
   POMASS =   58.933; ZVAL   =    9.000    mass and valenz
   ENMAX  =  267.968; ENMIN  =  200.976 eV

 POTCAR:    PAW_PBE Cu 22Jun2005
   VRHFIN =Cu: d10 p1

   TITEL  = PAW_PBE Cu 22Jun2005
   POMASS =   63.546; ZVAL   =   11.000    mass and valenz
   ENMAX  =  295.446; ENMIN  =  221.585 eV

 POTCAR:    PAW_PBE Ni 02Aug2007
   VRHFIN =Ni:

   TITEL  = PAW_PBE Ni 02Aug2007
   POMASS =   58.690; ZVAL   =   10.000    mass and valenz
   ENMAX  =  269.532; ENMIN  =  202.149 eV

 POTCAR:    PAW_PBE O 08Apr2002
   VRHFIN =O: s2p4

   TITEL  = PAW_PBE O 08Apr2002
   POMASS =   16.000; ZVAL   =    6.000    mass and valenz
   ENMAX  =  400.000; ENMIN  =  300.000 eV

 Optimization of the real space projectors (new method)

 maximal supplied QI-value         = 14.36
 optimisation between [QCUT,QGAM] = [ 11.92, 23.98] = [ 39.79,161.09] Ry
 Optimized for a Real-space Cutoff    1.49 Angstroem

   l    n(q)    QCUT    max X(q) W(low)/X(q) W(high)/X(q)  e(spline)
   2     10    11.920    66.195    0.79E-04    0.18E-03    0.24E-06
   2     10    11.920    64.643    0.81E-04    0.19E-03    0.24E-06
   0     11    11.920    95.520    0.28E-04    0.54E-04    0.18E-06
   0     11    11.920    63.403    0.27E-04    0.52E-04    0.17E-06
   1     10    11.920    19.961    0.18E-04    0.11E-03    0.23E-06
   1     10    11.920    13.289    0.25E-04    0.87E-04    0.19E-06
 Optimization of the real space projectors (new method)

[...]

   l    n(q)    QCUT    max X(q) W(low)/X(q) W(high)/X(q)  e(spline)
   2      9    11.864    60.317    0.21E-03    0.51E-03    0.25E-06
   2      9    11.864    55.921    0.21E-03    0.51E-03    0.26E-06
   0      9    11.864    51.690    0.22E-03    0.30E-04    0.17E-06
   0      9    11.864    30.015    0.20E-03    0.28E-04    0.15E-06
   1      9    11.864    18.849    0.76E-04    0.33E-03    0.17E-06
   1      9    11.864    14.624    0.60E-04    0.28E-03    0.15E-06
 Optimization of the real space projectors (new method)

 maximal supplied QI-value         = 24.76
 optimisation between [QCUT,QGAM] = [ 11.88, 24.01] = [ 39.54,161.47] Ry
 Optimized for a Real-space Cutoff    1.18 Angstroem

   l    n(q)    QCUT    max X(q) W(low)/X(q) W(high)/X(q)  e(spline)
   0      8    11.883    20.381    0.86E-04    0.11E-03    0.31E-06
   0      8    11.883    15.268    0.94E-04    0.12E-03    0.33E-06
   1      8    11.883     5.964    0.19E-03    0.18E-04    0.33E-06
   1      8    11.883     5.382    0.17E-03    0.20E-04    0.29E-06
  PAW_PBE Pt 04Feb2005                  :
  PAW_PBE Fe 06Sep2000                  :
  PAW_PBE Co 02Aug2007                  :
  PAW_PBE Cu 22Jun2005                  :
  PAW_PBE Ni 02Aug2007                  :
  PAW_PBE O 08Apr2002                   :

 POSCAR: 10.56
  positions in cartesian coordinates
 exchange correlation table for  LEXCH =        8
   RHO(1)=    0.500       N(1)  =     2000
   RHO(2)=  100.500       N(2)  =     4000

 ion  position               nearest neighbor table
   1  0.786  0.877  0.319-  19 2.62  49 2.63  61 2.64  29 2.65  33 2.66  28 2.66  59 2.68  60 2.68
                             2 2.73  11 2.77   4 2.80  12 2.81
   2  0.042  0.882  0.315-  79 2.54  77 2.59  60 2.62  28 2.64  30 2.65  52 2.66  33 2.68  22 2.69
                             1 2.73   6 2.76   4 2.80  16 2.90
   3  0.281  0.377  0.322-  39 2.56  33 2.61  64 2.63  31 2.66  19 2.68  43 2.69  30 2.73  68 2.75
                             5 2.77  13 2.77  18 2.82  25 2.83
   4  0.878  0.963  0.423-   6 2.61   9 2.62  16 2.62  11 2.66  12 2.67  17 2.68  60 2.76   2 2.80
                             1 2.80
   5  0.119  0.466  0.428-  12 2.58   7 2.61  16 2.63  13 2.64  10 2.65  25 2.69  33 2.72  39 2.75
                             3 2.77
   6  0.125  0.962  0.421-   4 2.61   8 2.61  14 2.64  10 2.64  16 2.65   9 2.65   2 2.76  52 2.78
                            22 2.85
   7  0.874  0.461  0.425-  15 2.60   5 2.61   9 2.62  10 2.64  12 2.65  27 2.66  39 2.68  75 2.76
                            29 2.77
   8  0.373  0.960  0.418-  43 2.57  14 2.59   6 2.61  27 2.63  10 2.64  52 2.65  61 2.69  11 2.69
                            13 2.70
   9  0.873  0.213  0.419-  17 2.61   4 2.62   7 2.62  15 2.64   6 2.65  10 2.65  75 2.67  60 2.70
                            22 2.79
  10  0.125  0.212  0.421-  13 2.61   7 2.64   8 2.64   6 2.64   5 2.65   9 2.65  39 2.65  43 2.72
                            22 2.76
  11  0.628  0.958  0.426-  81 2.06  12 2.60  27 2.62   4 2.66   8 2.69  17 2.73  13 2.73   1 2.77
                            19 2.89  61 2.90
  12  0.875  0.711  0.427-   5 2.58  11 2.60  16 2.63   7 2.65  27 2.66   4 2.67  33 2.69   1 2.81
                            29 2.84
  13  0.369  0.216  0.428-  81 2.05  10 2.61   5 2.64  25 2.68   8 2.70  17 2.72  11 2.73   3 2.77
                            43 2.87  19 2.93
  14  0.375  0.713  0.423-   8 2.59  25 2.61  27 2.61  15 2.64   6 2.64  16 2.67  44 2.70  52 2.75
                            30 2.78
  15  0.626  0.465  0.423-   7 2.60  27 2.60  17 2.62  14 2.64   9 2.64  25 2.66  44 2.69  75 2.74
                            18 2.74
  16  0.123  0.712  0.427-  25 2.60   4 2.62   5 2.63  12 2.63   6 2.65  14 2.67  33 2.70  30 2.85
                             2 2.90
  17  0.626  0.217  0.432-  81 2.08   9 2.61  15 2.62  25 2.67   4 2.68  13 2.72  11 2.73  18 2.85
                            60 2.94  19 3.07
  18  0.550  0.372  0.320-  60 2.56  67 2.59  75 2.60  44 2.65  68 2.69  19 2.71  26 2.73  30 2.73
                            15 2.74   3 2.82  17 2.85  25 2.85
  19  0.535  0.124  0.315-  80 2.55  43 2.57  68 2.58  59 2.60   1 2.62  61 2.64   3 2.68  18 2.71
                            60 2.73  11 2.89  13 2.93  17 3.07
  20  0.547  0.124  0.040-  37 2.55  57 2.56  48 2.58  62 2.64  63 2.68  47 2.68  45 2.68  56 2.70
                            34 2.71
  21  0.121  0.460  0.128-  40 2.52  36 2.53  47 2.53  42 2.60  69 2.61  64 2.62  70 2.64  50 2.64
                            58 2.67  31 2.70  57 2.71  74 2.72
  22  0.043  0.136  0.314-  65 2.51  55 2.53  77 2.56  43 2.58  39 2.59  75 2.61   2 2.69  60 2.69
                            52 2.73  10 2.76   9 2.79   6 2.85  31 3.39
  23  0.042  0.130  0.033-  70 2.58  40 2.60  41 2.61  45 2.62  62 2.64  76 2.64  24 2.69  35 2.73
                            53 2.78
  24  0.130  0.958  0.132-  79 2.51  77 2.54  35 2.57  53 2.57  55 2.58  70 2.62  38 2.64  58 2.64
                            73 2.65  23 2.69  66 2.70  41 2.72
  25  0.372  0.468  0.426-  16 2.60  14 2.61  15 2.66  17 2.67  13 2.68   5 2.69  30 2.80   3 2.83
                            18 2.85
  26  0.455  0.546  0.219-  73 2.50  74 2.54  51 2.56  79 2.61  64 2.63  30 2.64  68 2.67  78 2.67
                            32 2.68  67 2.72  18 2.73  44 2.73
  27  0.623  0.713  0.422-  15 2.60  14 2.61  11 2.62   8 2.63  12 2.66   7 2.66  44 2.69  61 2.75
                            29 2.77
  28  0.956  0.790  0.221-  58 2.57  66 2.57  50 2.58  42 2.59  49 2.61  64 2.63   2 2.64   1 2.66
                            59 2.70  33 2.72  79 2.76  77 2.77
  29  0.794  0.622  0.318-  39 2.53  42 2.55  75 2.57  32 2.60  44 2.65  33 2.65   1 2.65  61 2.67
                            49 2.68   7 2.77  27 2.77  12 2.84
  30  0.291  0.630  0.318-  79 2.56  64 2.58  52 2.62  44 2.63  26 2.64   2 2.65  33 2.65   3 2.73
                            18 2.73  14 2.78  25 2.80  16 2.85
  31  0.203  0.281  0.225-  70 2.52  55 2.56  65 2.57  43 2.58  57 2.60  39 2.65   3 2.66  80 2.70
                            21 2.70  42 2.71  68 2.75  64 2.79  22 3.39
  32  0.706  0.549  0.221-  54 2.53  69 2.56  51 2.58  49 2.59  42 2.60  29 2.60  78 2.62  65 2.63
                            75 2.67  26 2.68  44 2.68  67 2.70
  33  0.041  0.630  0.325-   3 2.61  39 2.63  30 2.65  29 2.65   1 2.66   2 2.68  12 2.69  64 2.70
                            16 2.70   5 2.72  28 2.72  42 2.72
  34  0.797  0.862  0.042-  50 2.38  66 2.51  48 2.53  36 2.55  71 2.56  63 2.61  20 2.71  35 2.76
                            62 2.76
  35  0.056  0.866  0.038-  58 2.54  72 2.55  36 2.56  24 2.57  66 2.62  53 2.65  23 2.73  62 2.73
                            34 2.76
  36  0.046  0.628  0.037-  21 2.53  34 2.55  35 2.56  58 2.58  50 2.61  47 2.63  72 2.64  40 2.69
                            71 2.72
  37  0.627  0.222  0.129-  51 2.51  74 2.51  67 2.52  56 2.53  41 2.55  20 2.55  68 2.56  59 2.56
                            62 2.59  66 2.66  57 2.73  48 2.89
  38  0.382  0.955  0.130-  53 2.47  80 2.48  45 2.49  78 2.53  48 2.54  73 2.55  63 2.55  54 2.56
                            55 2.59  57 2.62  24 2.64  70 2.67
  39  0.035  0.384  0.323-  29 2.53   3 2.56  22 2.59  75 2.59  33 2.63  42 2.64  31 2.65  10 2.65
                             7 2.68  65 2.74   5 2.75  43 2.81
  40  0.031  0.382  0.038-  69 2.44  21 2.52  71 2.53  76 2.56  70 2.57  23 2.60  36 2.69  45 2.78
                            47 2.78
  41  0.872  0.215  0.128-  76 2.45  65 2.52  77 2.53  67 2.54  37 2.55  69 2.57  62 2.57  51 2.59
                            23 2.61  70 2.65  66 2.66  24 2.72
  42  0.955  0.545  0.224-  29 2.55  50 2.56  28 2.59  21 2.60  32 2.60  69 2.61  49 2.63  39 2.64
                            65 2.64  64 2.65  31 2.71  33 2.72
  43  0.297  0.115  0.320-  55 2.51  52 2.54  61 2.55  19 2.57   8 2.57  31 2.58  22 2.58  80 2.64
                             3 2.69  10 2.72  39 2.81  13 2.87
  44  0.541  0.628  0.321-  61 2.57  52 2.58  30 2.63  78 2.63  29 2.65  75 2.65  18 2.65  32 2.68
                            15 2.69  27 2.69  14 2.70  26 2.73
  45  0.295  0.119  0.039-  70 2.49  38 2.49  57 2.57  53 2.60  23 2.62  63 2.64  20 2.68  47 2.75
                            40 2.78
  46  0.548  0.625  0.044-  51 2.38  73 2.39  54 2.41  71 2.56  53 2.56  63 2.58  76 2.59  56 2.62
                            72 2.64
  47  0.296  0.379  0.039-  74 2.41  21 2.53  57 2.61  72 2.61  56 2.62  36 2.63  20 2.68  45 2.75
                            40 2.78
  48  0.625  0.950  0.132-  49 2.40  80 2.48  54 2.48  34 2.53  38 2.54  59 2.55  50 2.56  63 2.57
                            20 2.58  57 2.65  66 2.68  37 2.89
  49  0.706  0.794  0.220-  48 2.40  50 2.48  54 2.49  80 2.53  32 2.59  28 2.61  78 2.61  61 2.62
                            42 2.63   1 2.63  29 2.68  59 2.69
  50  0.866  0.706  0.129-  34 2.38  71 2.42  54 2.48  49 2.48  42 2.56  48 2.56  69 2.58  28 2.58
[...]
     12.86756      6.45280      2.83379         0.018454      0.099019      0.074905
      9.04201      4.20780      2.79628         0.028280     -0.019592      0.028238
      7.76040      7.99282      6.97970         0.000915      0.012996      0.018704
      7.81315      7.93922      0.88653         0.081216      0.053075     -0.013211
     10.39144      6.53566      2.82198         0.039603      0.038983      0.004699
      2.51347      0.25826      5.00083         0.064779      0.007600     -0.099862
      7.74264      3.48454      0.76157         0.013257     -0.018759     -0.033949
      5.07835      1.87760      2.91701        -0.058208     -0.045600     -0.098354
      5.16037      6.44715      2.89923        -0.008524     -0.015753     -0.038627
      7.70892      0.45986      4.84799         0.028162     -0.036340      0.030969
      9.04186      1.17491      6.98540         0.000784     -0.001332      0.003799
[...]
      9.07350      2.65252      4.91360        -0.065940     -0.011744      0.087116
      6.37169      2.66558      4.85827        -0.005460      0.054600      0.068873
     11.65891      4.17486      2.81483        -0.157806      0.040272      0.161416
      2.44098      1.89237      2.83279         0.023502     -0.007439      0.057649
     11.64953      5.68621      0.88546        -0.018912      0.099766     -0.014286
      6.44743      5.71949      0.92597        -0.080305      0.056972      0.016970
      7.82927      6.50651      2.83621        -0.053488      0.031022     -0.077055
      6.41922      4.13007      2.78290        -0.018048     -0.038731     -0.010343
     10.37442      3.46912      7.02617         0.003405      0.007231      0.012769
     10.34410      3.45013      0.86804        -0.086446     -0.044360     -0.063628
     10.37063      0.48410      4.87151        -0.022457     -0.031959     -0.050941
      9.04079      7.29017      4.93700         0.003283     -0.044414     -0.032435
      6.46265      7.29503      4.94074         0.022995      0.045851     -0.069583
      5.04247      0.27633      4.88406        -0.006231     -0.005013     -0.001119
      6.34393      1.13688     10.74364        -0.003559      0.019510      0.267087
    total drift:                               -0.001617     -0.017424      0.004581

  FREE ENERGIE OF THE ION-ELECTRON SYSTEM (eV)
  free  energy   TOTEN  =      -511.08635217 eV

  energy  without entropy=     -511.08635217  energy(sigma->0) =     -511.08635217

 d Force =-0.2158546E-02[-0.801E-02, 0.370E-02]  d Energy =-0.1668105E-02-0.490E-03
 d Force =-0.6108768E+02[-0.612E+02,-0.610E+02]  d Ewald  =-0.6108851E+02 0.831E-03

 Finite differences progress:
  Degree of freedom:   3/  3
  Displacement:        2/  2
  Total:               6/  6

 SECOND DERIVATIVES (NOT SYMMETRIZED)
              81X         81Y         81Z
 81X    -4.603984    0.487169   -0.261264
 81Y     0.446691   -5.322244    0.280984
 81Z    -0.278070    0.213100  -13.009015

 Eigenvectors and eigenvalues of the dynamical matrix

   1 f  =   14.106071 THz    88.631057 2PiTHz  470.527863 cm-1    58.338041 meV
             X         Y         Z           dx          dy          dz
     12.929983  8.024613  7.016862            0           0           0
      5.101667  8.065226  6.940398            0           0           0
      4.959063  3.445836  7.081306            0           0           0
     14.351177  8.804763  9.297802            0           0           0
      3.714752  4.257628  9.414252            0           0           0
      6.396540  8.799271  9.269551            0           0           0
     11.663308  4.213209  9.351632            0           0           0
      9.004795  8.780154  9.187184            0           0           0
     10.347730  1.946808  9.224383            0           0           0
      2.438469  1.942749  9.252348            0           0           0
     11.692743  8.759030  9.379272            0           0           0
     12.993757  6.502270  9.383121            0           0           0
      5.039723  1.978335  9.425668            0           0           0
      7.729846  6.524959  9.308334            0           0           0
      9.061569  4.251082  9.301463            0           0           0
      5.064314  6.512860  9.395525            0           0           0
      7.755727  1.988150  9.497635            0           0           0
      7.778167  3.406182  7.029935            0           0           0
      6.308224  1.131863  6.927025            0           0           0
      6.428579  1.129740  0.878720            0           0           0
      3.705484  4.208436  2.816869            0           0           0
      1.172569  1.246887  6.902586            0           0           0
      1.135691  1.190800  0.725566            0           0           0
      6.436066  8.760995  2.900314            0           0           0
      6.400936  4.280566  9.372289            0           0           0
      7.681351  4.990728  4.814740            0           0           0
     10.338984  6.521158  9.291111            0           0           0
     14.264242  7.225928  4.862987            0           0           0
     11.672056  5.688669  7.005117            0           0           0
      6.399822  5.757582  6.990858            0           0           0
      3.621194  2.565893  4.960228            0           0           0
     10.360912  5.024302  4.856517            0           0           0
      3.755953  5.762615  7.154922            0           0           0
     12.969068  7.879772  0.925674            0           0           0
      5.163396  7.917194  0.830298            0           0           0
      3.807011  5.745024  0.813805            0           0           0
      7.798522  2.032451  2.832513            0           0           0
      9.077547  8.733730  2.857427            0           0           0
      2.402093  3.513117  7.112739            0           0           0
      2.344093  3.490514  0.825101            0           0           0
     10.348141  1.969830  2.822490            0           0           0
     12.960353  4.985870  4.925592            0           0           0
      3.744731  1.049773  7.043509            0           0           0
      9.027171  5.747596  7.071230            0           0           0
      3.748243  1.091821  0.867003            0           0           0
      9.091210  5.718673  0.960427            0           0           0
      5.124479  3.470454  0.855627            0           0           0
     11.620923  8.687580  2.905895            0           0           0
     11.653130  7.264496  4.842290            0           0           0
     12.867560  6.452796  2.833790            0           0           0
      9.042010  4.207796  2.796278            0           0           0
      7.760399  7.992816  6.979699            0           0           0
      7.813155  7.939223  0.886525            0           0           0
     10.391439  6.535663  2.821980            0           0           0
      2.513474  0.258257  5.000827            0           0           0
      7.742638  3.484538  0.761574            0           0           0
      5.078354  1.877603  2.917008            0           0           0
      5.160365  6.447147  2.899226            0           0           0
      7.708921  0.459858  4.847993            0           0           0
      9.041862  1.174915  6.985398            0           0           0
[...]
      9.073503  2.652522  4.913605            0           0           0
      6.371693  2.665576  4.858272            0           0           0
     11.658911  4.174860  2.814827            0           0           0
      2.440982  1.892366  2.832794            0           0           0
     11.649530  5.686214  0.885461            0           0           0
      6.447433  5.719494  0.925972            0           0           0
      7.829267  6.506514  2.836212            0           0           0
      6.419224  4.130068  2.782896            0           0           0
     10.374423  3.469119  7.026171            0           0           0
     10.344097  3.450125  0.868038            0           0           0
     10.370626  0.484098  4.871515            0           0           0
      9.040790  7.290173  4.936995            0           0           0
      6.462653  7.295032  4.940739            0           0           0
      5.042471  0.276335  4.884059            0           0           0
      6.343934  1.136881 10.758643     0.033869   -0.034081    0.998845

[...]

   3 f  =    8.172031 THz    51.346385 2PiTHz  272.589603 cm-1    33.796816 meV
             X         Y         Z           dx          dy          dz
     12.929983  8.024613  7.016862            0           0           0
      5.101667  8.065226  6.940398            0           0           0
      4.959063  3.445836  7.081306            0           0           0
     14.351177  8.804763  9.297802            0           0           0
      3.714752  4.257628  9.414252            0           0           0
      6.396540  8.799271  9.269551            0           0           0
     11.663308  4.213209  9.351632            0           0           0
      9.004795  8.780154  9.187184            0           0           0
     10.347730  1.946808  9.224383            0           0           0
      2.438469  1.942749  9.252348            0           0           0
     11.692743  8.759030  9.379272            0           0           0
     12.993757  6.502270  9.383121            0           0           0
      5.039723  1.978335  9.425668            0           0           0
      7.729846  6.524959  9.308334            0           0           0
      9.061569  4.251082  9.301463            0           0           0
      5.064314  6.512860  9.395525            0           0           0
      7.755727  1.988150  9.497635            0           0           0
      7.778167  3.406182  7.029935            0           0           0
      6.308224  1.131863  6.927025            0           0           0
      6.428579  1.129740  0.878720            0           0           0
      3.705484  4.208436  2.816869            0           0           0
      1.172569  1.246887  6.902586            0           0           0
      1.135691  1.190800  0.725566            0           0           0
      6.436066  8.760995  2.900314            0           0           0
      6.400936  4.280566  9.372289            0           0           0
      7.681351  4.990728  4.814740            0           0           0
     10.338984  6.521158  9.291111            0           0           0
     14.264242  7.225928  4.862987            0           0           0
     11.672056  5.688669  7.005117            0           0           0
      6.399822  5.757582  6.990858            0           0           0
      3.621194  2.565893  4.960228            0           0           0
     10.360912  5.024302  4.856517            0           0           0
      3.755953  5.762615  7.154922            0           0           0
     12.969068  7.879772  0.925674            0           0           0
      5.163396  7.917194  0.830298            0           0           0
      3.807011  5.745024  0.813805            0           0           0
      7.798522  2.032451  2.832513            0           0           0
      9.077547  8.733730  2.857427            0           0           0
      2.402093  3.513117  7.112739            0           0           0
      2.344093  3.490514  0.825101            0           0           0
     10.348141  1.969830  2.822490            0           0           0
     12.960353  4.985870  4.925592            0           0           0
      3.744731  1.049773  7.043509            0           0           0
      9.027171  5.747596  7.071230            0           0           0
      3.748243  1.091821  0.867003            0           0           0
      9.091210  5.718673  0.960427            0           0           0
      5.124479  3.470454  0.855627            0           0           0
     11.620923  8.687580  2.905895            0           0           0
     11.653130  7.264496  4.842290            0           0           0
     12.867560  6.452796  2.833790            0           0           0
      9.042010  4.207796  2.796278            0           0           0
      7.760399  7.992816  6.979699            0           0           0
      7.813155  7.939223  0.886525            0           0           0
     10.391439  6.535663  2.821980            0           0           0
      2.513474  0.258257  5.000827            0           0           0
      7.742638  3.484538  0.761574            0           0           0
      5.078354  1.877603  2.917008            0           0           0
      5.160365  6.447147  2.899226            0           0           0
      7.708921  0.459858  4.847993            0           0           0
      9.041862  1.174915  6.985398            0           0           0
[...]
      9.073503  2.652522  4.913605            0           0           0
      6.371693  2.665576  4.858272            0           0           0
     11.658911  4.174860  2.814827            0           0           0
      2.440982  1.892366  2.832794            0           0           0
     11.649530  5.686214  0.885461            0           0           0
      6.447433  5.719494  0.925972            0           0           0
      7.829267  6.506514  2.836212            0           0           0
      6.419224  4.130068  2.782896            0           0           0
     10.374423  3.469119  7.026171            0           0           0
     10.344097  3.450125  0.868038            0           0           0
     10.370626  0.484098  4.871515            0           0           0
      9.040790  7.290173  4.936995            0           0           0
      6.462653  7.295032  4.940739            0           0           0
      5.042471  0.276335  4.884059            0           0           0
      6.343934  1.136881 10.758643     0.898989    0.437695   -0.015549

 Finite differences POTIM=  1.500000000000000E-002
  LATTYP: Found a hexagonal cell.
 ALAT       =    10.5600004196
 C/A-ratio  =     2.0833332505

  Lattice vectors:

 A1 = (   5.2800002098,  -9.1452286274,   0.0000000000)
 A2 = ( -10.5600004196,   0.0000000000,   0.0000000000)
 A3 = (   0.0000000000,   0.0000000000, -22.0000000000)

Analysis of symmetry for initial positions (statically):
 Subroutine PRICEL returns:
 Original cell was already a primitive cell.

[...]

The static configuration has the point symmetry C_1 .

Analysis of symmetry for dynamics (positions and initial velocities):
 Subroutine PRICEL returns:
 Original cell was already a primitive cell.

[...]

The dynamic configuration has the point symmetry C_1 .

Analysis of constrained symmetry for selective dynamics:
 Subroutine PRICEL returns:
 Original cell was already a primitive cell.

[...]

The constrained configuration has the point symmetry C_1 .

Analysis of structural, dynamic, and magnetic symmetry:
 Subroutine PRICEL returns:
 Original cell was already a primitive cell.

 Routine SETGRP: Setting up the symmetry group for a
 hexagonal supercell.

 Subroutine GETGRP returns: Found  1 space group operations
 (whereof  1 operations were pure point group operations)
 out of a pool of 24 trial point group operations.

The magnetic configuration has the point symmetry C_1 .

 Subroutine INISYM returns: Found  1 space group operations
 (whereof  1 operations are pure point group operations),
 and found     1 'primitive' translations

 KPOINTS: mesh auto

Automatic generation of k-mesh.
Space group operators:
 irot       det(A)        alpha          n_x          n_y          n_z        tau_x        tau_y        tau_z
    1     1.000000     0.000001     1.000000     0.000000     0.000000     0.000000     0.000000     0.000000

 Subroutine IBZKPT returns following result:

 Found      4 irreducible k-points:

 Following reciprocal coordinates:
            Coordinates               Weight
  0.000000  0.000000  0.000000      1.000000
  0.500000  0.000000  0.000000      1.000000
  0.000000  0.500000  0.000000      1.000000
  0.500000  0.500000  0.000000      1.000000

 Following cartesian coordinates:
            Coordinates               Weight
  0.000000  0.000000  0.000000      1.000000
  0.047348 -0.027337  0.000000      1.000000
  0.000000  0.054673  0.000000      1.000000
  0.047348  0.027337  0.000000      1.000000

 TETIRR: Found     12 inequivalent tetrahedra from       24
 BZINTS: Fermi energy:  2.038099;783.000000 electrons
         Band energy:-730.555187;  BLOECHL correction: -0.069958