 vasp.5.4.4.18Apr17-6-g9f103f2a35 (build Nov 30 2020 22:55:02) complex

 executed on             LinuxIFC date 2022.09.17  16:37:19

 INCAR:
 POTCAR:    PAW_PBE Pt 04Feb2005
 POTCAR:    PAW_PBE Fe 06Sep2000
 POTCAR:    PAW_PBE Co 02Aug2007
 POTCAR:    PAW_PBE Cu 22Jun2005
 POTCAR:    PAW_PBE Ni 02Aug2007
 POTCAR:    PAW_PBE N 08Apr2002

 POTCAR:    PAW_PBE Pt 04Feb2005
   VRHFIN =Pt: s1d9

   TITEL  = PAW_PBE Pt 04Feb2005
   POMASS =  195.080; ZVAL   =   10.000    mass and valenz
   ENMAX  =  230.283; ENMIN  =  172.712 eV

 POTCAR:    PAW_PBE Fe 06Sep2000
   VRHFIN =Fe:  d7 s1

   TITEL  = PAW_PBE Fe 06Sep2000
   POMASS =   55.847; ZVAL   =    8.000    mass and valenz
   ENMAX  =  267.882; ENMIN  =  200.911 eV

 POTCAR:    PAW_PBE Co 02Aug2007
   VRHFIN =Co: d8 s1

   TITEL  = PAW_PBE Co 02Aug2007
   POMASS =   58.933; ZVAL   =    9.000    mass and valenz
   ENMAX  =  267.968; ENMIN  =  200.976 eV

 POTCAR:    PAW_PBE Cu 22Jun2005
   VRHFIN =Cu: d10 p1

   TITEL  = PAW_PBE Cu 22Jun2005
   POMASS =   63.546; ZVAL   =   11.000    mass and valenz
   ENMAX  =  295.446; ENMIN  =  221.585 eV

 POTCAR:    PAW_PBE Ni 02Aug2007
   VRHFIN =Ni:

   TITEL  = PAW_PBE Ni 02Aug2007
   POMASS =   58.690; ZVAL   =   10.000    mass and valenz
   ENMAX  =  269.532; ENMIN  =  202.149 eV

 POTCAR:    PAW_PBE N 08Apr2002
   VRHFIN =N: s2p3

   TITEL  = PAW_PBE N 08Apr2002
   POMASS =   14.001; ZVAL   =    5.000    mass and valenz
   ENMAX  =  400.000; ENMIN  =  300.000 eV

 Optimization of the real space projectors (new method)

 maximal supplied QI-value         = 14.36
 optimisation between [QCUT,QGAM] = [ 11.92, 23.98] = [ 39.79,161.09] Ry
 Optimized for a Real-space Cutoff    1.49 Angstroem

   l    n(q)    QCUT    max X(q) W(low)/X(q) W(high)/X(q)  e(spline)
   2     10    11.920    66.195    0.79E-04    0.18E-03    0.24E-06
   2     10    11.920    64.643    0.81E-04    0.19E-03    0.24E-06
   0     11    11.920    95.520    0.28E-04    0.54E-04    0.18E-06
   0     11    11.920    63.403    0.27E-04    0.52E-04    0.17E-06
   1     10    11.920    19.961    0.18E-04    0.11E-03    0.23E-06
   1     10    11.920    13.289    0.25E-04    0.87E-04    0.19E-06
 Optimization of the real space projectors (new method)

[...]

   l    n(q)    QCUT    max X(q) W(low)/X(q) W(high)/X(q)  e(spline)
   2      9    11.864    60.317    0.21E-03    0.51E-03    0.25E-06
   2      9    11.864    55.921    0.21E-03    0.51E-03    0.26E-06
   0      9    11.864    51.690    0.22E-03    0.30E-04    0.17E-06
   0      9    11.864    30.015    0.20E-03    0.28E-04    0.15E-06
   1      9    11.864    18.849    0.76E-04    0.33E-03    0.17E-06
   1      9    11.864    14.624    0.60E-04    0.28E-03    0.15E-06
 Optimization of the real space projectors (new method)

 maximal supplied QI-value         = 25.13
 optimisation between [QCUT,QGAM] = [ 11.81, 23.88] = [ 39.08,159.64] Ry
 Optimized for a Real-space Cutoff    1.41 Angstroem

   l    n(q)    QCUT    max X(q) W(low)/X(q) W(high)/X(q)  e(spline)
   0     10    11.813    79.467    0.48E-04    0.30E-04    0.67E-06
   0     10    11.813    66.151    0.47E-04    0.30E-04    0.67E-06
   1     10    11.813    20.169    0.11E-03    0.17E-03    0.11E-05
   1     10    11.813    14.454    0.11E-03    0.17E-03    0.11E-05
  PAW_PBE Pt 04Feb2005                  :
  PAW_PBE Fe 06Sep2000                  :
  PAW_PBE Co 02Aug2007                  :
  PAW_PBE Cu 22Jun2005                  :
  PAW_PBE Ni 02Aug2007                  :
  PAW_PBE N 08Apr2002                   :

 POSCAR: 10.56
  positions in cartesian coordinates
 exchange correlation table for  LEXCH =        8
   RHO(1)=    0.500       N(1)  =     2000
   RHO(2)=  100.500       N(2)  =     4000

 ion  position               nearest neighbor table
   1  0.786  0.880  0.319-  19 2.61  49 2.64  61 2.65  28 2.65  33 2.66  60 2.67  59 2.67  29 2.67
                             2 2.70  12 2.84   4 2.91  11 2.92
   2  0.040  0.883  0.317-  79 2.57  77 2.61  60 2.61  30 2.66  28 2.66  33 2.67  52 2.68  22 2.69
                             1 2.70   6 2.74   4 2.88  16 2.88
   3  0.280  0.380  0.319-  39 2.56  64 2.57  33 2.59  31 2.63  30 2.71  43 2.71  19 2.71  68 2.71
                            13 2.75  18 2.81   5 2.81  25 2.84
   4  0.881  0.958  0.429-  81 1.95   6 2.61  16 2.61   9 2.69  12 2.70  11 2.73  17 2.73   2 2.88
                             1 2.91  60 2.91
   5  0.124  0.461  0.430-  12 2.58  13 2.61   7 2.64  16 2.64  10 2.64  25 2.65  39 2.76  33 2.78
                             3 2.81
   6  0.126  0.961  0.421-   4 2.61   8 2.63  10 2.63  14 2.64  16 2.65   9 2.65   2 2.74  52 2.76
                            22 2.86
   7  0.875  0.460  0.428-   9 2.59  12 2.60  15 2.61   5 2.64  10 2.64  27 2.65  39 2.70  75 2.81
                            29 2.82
   8  0.375  0.960  0.419-  43 2.59  14 2.61  11 2.62   6 2.63  27 2.63  13 2.63  10 2.64  52 2.67
                            61 2.70
   9  0.876  0.214  0.419-   7 2.59  10 2.61  15 2.63   6 2.65  75 2.66  17 2.68   4 2.69  60 2.71
                            22 2.77
  10  0.125  0.210  0.423-  13 2.58   9 2.61   6 2.63   5 2.64   7 2.64   8 2.64  39 2.67  43 2.74
                            22 2.79
  11  0.623  0.958  0.433-  81 1.96  27 2.62   8 2.62  13 2.69  12 2.70  17 2.73   4 2.73   1 2.92
                            19 2.98  61 2.98
  12  0.879  0.704  0.425-   5 2.58   7 2.60  16 2.65  27 2.65  33 2.66  11 2.70   4 2.70  29 2.79
                             1 2.84
  13  0.369  0.212  0.423-  10 2.58   5 2.61   8 2.63  25 2.68  11 2.69  17 2.70  43 2.73   3 2.75
                            19 2.81
  14  0.376  0.712  0.422-  27 2.60   8 2.61   6 2.64  15 2.64  25 2.65  16 2.66  44 2.68  52 2.74
                            30 2.75
  15  0.626  0.462  0.422-   7 2.61  27 2.61  17 2.62   9 2.63  14 2.64  25 2.67  44 2.70  75 2.73
                            18 2.74
  16  0.126  0.709  0.426-   4 2.61  25 2.61   5 2.64  12 2.65   6 2.65  14 2.66  33 2.68  30 2.82
                             2 2.88
  17  0.622  0.217  0.429-  81 1.95  25 2.60  15 2.62   9 2.68  13 2.70  11 2.73   4 2.73  18 2.82
                            60 2.90  19 2.98
  18  0.549  0.374  0.319-  60 2.58  67 2.58  75 2.60  44 2.65  68 2.68  26 2.70  19 2.72  30 2.72
                            15 2.74   3 2.81  17 2.82  25 2.85
  19  0.536  0.123  0.316-  43 2.57  80 2.57  68 2.60   1 2.61  59 2.61  61 2.63   3 2.71  18 2.72
                            60 2.73  13 2.81  11 2.98  17 2.98
  20  0.547  0.124  0.040-  37 2.55  57 2.56  48 2.58  62 2.64  63 2.68  47 2.68  45 2.68  56 2.70
                            34 2.71
  21  0.121  0.460  0.128-  40 2.52  36 2.53  47 2.53  42 2.60  69 2.61  64 2.62  70 2.64  50 2.64
                            58 2.67  31 2.70  57 2.71  74 2.72
  22  0.043  0.136  0.314-  65 2.51  55 2.53  77 2.56  39 2.58  43 2.59  75 2.61   2 2.69  60 2.69
                            52 2.72   9 2.77  10 2.79   6 2.86  31 3.39
  23  0.042  0.130  0.033-  70 2.58  40 2.60  41 2.61  45 2.62  62 2.64  76 2.64  24 2.69  35 2.73
                            53 2.78
  24  0.130  0.958  0.132-  79 2.51  77 2.54  35 2.57  53 2.57  55 2.58  70 2.62  38 2.64  58 2.64
                            73 2.65  23 2.69  66 2.70  41 2.72
  25  0.374  0.462  0.426-  17 2.60  16 2.61   5 2.65  14 2.65  15 2.67  13 2.68  30 2.83   3 2.84
                            18 2.85
  26  0.455  0.546  0.219-  73 2.50  74 2.54  51 2.56  79 2.61  64 2.63  30 2.64  68 2.67  78 2.67
                            32 2.68  18 2.70  67 2.72  44 2.74
  27  0.624  0.711  0.423-  14 2.60  15 2.61  11 2.62   8 2.63   7 2.65  12 2.65  44 2.70  61 2.77
                            29 2.77
  28  0.956  0.790  0.221-  58 2.57  66 2.57  50 2.58  42 2.59  49 2.61  64 2.63   1 2.65   2 2.66
                            59 2.70  33 2.71  79 2.76  77 2.77
  29  0.794  0.623  0.319-  39 2.54  42 2.56  75 2.58  32 2.61  44 2.64  33 2.65  61 2.67   1 2.67
                            49 2.68  27 2.77  12 2.79   7 2.82
  30  0.291  0.631  0.318-  79 2.56  64 2.59  52 2.62  44 2.63  26 2.64  33 2.65   2 2.66   3 2.71
                            18 2.72  14 2.75  16 2.82  25 2.83
  31  0.203  0.281  0.225-  70 2.52  55 2.56  65 2.57  43 2.59  57 2.60   3 2.63  39 2.67  80 2.70
                            21 2.70  42 2.71  68 2.75  64 2.79  22 3.39
  32  0.706  0.549  0.221-  54 2.53  69 2.56  51 2.58  49 2.59  42 2.60  29 2.61  78 2.62  65 2.63
                            75 2.67  26 2.68  44 2.68  67 2.70
  33  0.040  0.631  0.325-   3 2.59  39 2.64  30 2.65  29 2.65  12 2.66   1 2.66   2 2.67  16 2.68
                            64 2.69  28 2.71  42 2.72   5 2.78
  34  0.797  0.862  0.042-  50 2.38  66 2.51  48 2.53  36 2.55  71 2.56  63 2.61  20 2.71  35 2.76
                            62 2.76
  35  0.056  0.866  0.038-  58 2.54  72 2.55  36 2.56  24 2.57  66 2.62  53 2.65  23 2.73  62 2.73
                            34 2.76
  36  0.046  0.628  0.037-  21 2.53  34 2.55  35 2.56  58 2.58  50 2.61  47 2.63  72 2.64  40 2.69
                            71 2.72
  37  0.627  0.222  0.129-  51 2.51  74 2.51  67 2.52  56 2.53  41 2.55  20 2.55  68 2.56  59 2.56
                            62 2.59  66 2.66  57 2.73  48 2.89
  38  0.382  0.955  0.130-  53 2.47  80 2.48  45 2.49  78 2.53  48 2.54  73 2.55  63 2.55  54 2.56
                            55 2.59  57 2.62  24 2.64  70 2.67
  39  0.036  0.383  0.325-  29 2.54   3 2.56  22 2.58  75 2.59  33 2.64  42 2.67  31 2.67  10 2.67
                             7 2.70   5 2.76  65 2.76  43 2.80
  40  0.031  0.382  0.038-  69 2.44  21 2.52  71 2.53  76 2.56  70 2.57  23 2.60  36 2.69  45 2.78
                            47 2.78
  41  0.872  0.215  0.128-  76 2.45  65 2.52  77 2.53  67 2.54  37 2.55  69 2.57  62 2.57  51 2.59
                            23 2.61  70 2.65  66 2.66  24 2.72
  42  0.955  0.545  0.224-  29 2.56  50 2.56  28 2.59  21 2.60  32 2.60  69 2.61  49 2.63  65 2.64
                            64 2.65  39 2.67  31 2.71  33 2.72
  43  0.297  0.116  0.321-  55 2.53  52 2.53  61 2.56  19 2.57  31 2.59  22 2.59   8 2.59  80 2.64
                             3 2.71  13 2.73  10 2.74  39 2.80
  44  0.541  0.629  0.321-  61 2.57  52 2.59  78 2.63  30 2.63  29 2.64  75 2.65  18 2.65  14 2.68
                            32 2.68  15 2.70  27 2.70  26 2.74
  45  0.295  0.119  0.039-  70 2.49  38 2.49  57 2.57  53 2.60  23 2.62  63 2.64  20 2.68  47 2.75
                            40 2.78
  46  0.548  0.625  0.044-  51 2.38  73 2.39  54 2.41  71 2.56  53 2.56  63 2.58  76 2.59  56 2.62
                            72 2.64
  47  0.296  0.379  0.039-  74 2.41  21 2.53  57 2.61  72 2.61  56 2.62  36 2.63  20 2.68  45 2.75
                            40 2.78
  48  0.625  0.950  0.132-  49 2.40  80 2.48  54 2.48  34 2.53  38 2.54  59 2.55  50 2.56  63 2.57
                            20 2.58  57 2.65  66 2.68  37 2.89
  49  0.706  0.794  0.220-  48 2.40  50 2.48  54 2.49  80 2.53  32 2.59  28 2.61  78 2.61  61 2.62
                            42 2.63   1 2.64  29 2.68  59 2.69
  50  0.866  0.706  0.129-  34 2.38  71 2.42  54 2.48  49 2.48  42 2.56  48 2.56  69 2.58  28 2.58
[...]
     12.86756      6.45280      2.83379         0.032573      0.123103     -0.027693
      9.04201      4.20780      2.79628         0.009106     -0.045394      0.002068
      7.76490      8.00983      6.99459         0.011456     -0.017063      0.005021
      7.81315      7.93922      0.88653        -0.167317     -0.129795     -0.004124
     10.39144      6.53566      2.82198         0.005371      0.067253      0.075864
      2.51347      0.25826      5.00083         0.044679     -0.047987     -0.126912
      7.74264      3.48454      0.76157         0.017584      0.009139     -0.014324
      5.07835      1.87760      2.91701        -0.029740     -0.007524     -0.011741
      5.16037      6.44715      2.89923        -0.042755     -0.010841     -0.021169
      7.70892      0.45986      4.84799         0.002940      0.001415      0.079599
      9.04341      1.18134      6.99419         0.009893     -0.002389      0.009910
[...]
      9.07350      2.65252      4.91360        -0.044775     -0.022363      0.056682
      6.37169      2.66558      4.85827         0.012731     -0.006836      0.081183
     11.65891      4.17486      2.81483        -0.007609     -0.014130     -0.000264
      2.44098      1.89237      2.83279         0.003161      0.037701      0.081971
     11.64953      5.68621      0.88546         0.072131      0.071524     -0.056593
      6.44743      5.71949      0.92597        -0.080104      0.097037     -0.012569
      7.82927      6.50651      2.83621        -0.024668      0.013335     -0.066894
      6.41922      4.13007      2.78290        -0.026905     -0.061829      0.042597
     10.37050      3.46722      7.02780         0.012015      0.025140      0.020319
     10.34410      3.45013      0.86804        -0.027728     -0.016948     -0.041351
     10.37063      0.48410      4.87151        -0.022800     -0.057630      0.009058
      9.04079      7.29017      4.93700         0.026452      0.002324     -0.019023
      6.46265      7.29503      4.94074         0.021552      0.045382     -0.029103
      5.04247      0.27633      4.88406        -0.000568      0.005897      0.035675
      7.75388      0.43125     10.60899         0.028379      0.021243      0.283473
    total drift:                                0.005012     -0.014917     -0.010642

  FREE ENERGIE OF THE ION-ELECTRON SYSTEM (eV)
  free  energy   TOTEN  =      -513.59751626 eV

  energy  without entropy=     -513.59751626  energy(sigma->0) =     -513.59751626

 d Force =-0.1024512E-02[-0.850E-02, 0.646E-02]  d Energy = 0.1043476E-02-0.207E-02
 d Force =-0.5163462E+02[-0.517E+02,-0.516E+02]  d Ewald  =-0.5163557E+02 0.946E-03

 Finite differences progress:
  Degree of freedom:   3/  3
  Displacement:        2/  2
  Total:               6/  6

 SECOND DERIVATIVES (NOT SYMMETRIZED)
              81X         81Y         81Z
 81X   -11.188240    0.258177   -0.156872
 81Y     0.192761  -11.486667   -0.256580
 81Z    -0.144824   -0.253865  -16.621502

 Eigenvectors and eigenvalues of the dynamical matrix

   1 f  =   17.041911 THz   107.077483 2PiTHz  568.456937 cm-1    70.479703 meV
             X         Y         Z           dx          dy          dz
     12.945050  8.043806  7.011620            0           0           0
      5.088187  8.078182  6.970018            0           0           0
      4.962294  3.479488  7.028812            0           0           0
     14.361548  8.764569  9.448093            0           0           0
      3.738260  4.214171  9.451809            0           0           0
      6.402236  8.786122  9.271104            0           0           0
     11.663107  4.203932  9.409502            0           0           0
      9.027733  8.775544  9.221281            0           0           0
     10.385577  1.956999  9.216369            0           0           0
      2.432711  1.922481  9.298518            0           0           0
     11.633988  8.764555  9.516587            0           0           0
     12.993251  6.436094  9.352988            0           0           0
      5.010162  1.934724  9.309216            0           0           0
      7.735295  6.512214  9.284380            0           0           0
      9.053419  4.224761  9.292122            0           0           0
      5.079858  6.488485  9.372362            0           0           0
      7.710494  1.984795  9.438651            0           0           0
      7.772750  3.421599  7.008875            0           0           0
      6.314060  1.129144  6.953139            0           0           0
      6.428579  1.129740  0.878720            0           0           0
      3.705484  4.208436  2.816869            0           0           0
      1.174768  1.245298  6.903359            0           0           0
      1.135691  1.190800  0.725566            0           0           0
      6.436066  8.760995  2.900314            0           0           0
      6.388941  4.227244  9.364730            0           0           0
      7.681351  4.990728  4.814740            0           0           0
     10.339547  6.501504  9.306021            0           0           0
     14.264242  7.225928  4.862987            0           0           0
     11.671573  5.693431  7.015552            0           0           0
      6.402294  5.769709  6.993385            0           0           0
      3.621194  2.565893  4.960228            0           0           0
     10.360912  5.024302  4.856517            0           0           0
      3.757129  5.767964  7.150482            0           0           0
     12.969068  7.879772  0.925674            0           0           0
      5.163396  7.917194  0.830298            0           0           0
      3.807011  5.745024  0.813805            0           0           0
      7.798522  2.032451  2.832513            0           0           0
      9.077547  8.733730  2.857427            0           0           0
      2.402413  3.506326  7.145318            0           0           0
      2.344093  3.490514  0.825101            0           0           0
     10.348141  1.969830  2.822490            0           0           0
     12.960353  4.985870  4.925592            0           0           0
      3.749555  1.056543  7.054906            0           0           0
      9.033280  5.750848  7.070699            0           0           0
      3.748243  1.091821  0.867003            0           0           0
      9.091210  5.718673  0.960427            0           0           0
      5.124479  3.470454  0.855627            0           0           0
     11.620923  8.687580  2.905895            0           0           0
     11.653130  7.264496  4.842290            0           0           0
     12.867560  6.452796  2.833790            0           0           0
      9.042010  4.207796  2.796278            0           0           0
      7.764901  8.009834  6.994585            0           0           0
      7.813155  7.939223  0.886525            0           0           0
     10.391439  6.535663  2.821980            0           0           0
      2.513474  0.258257  5.000827            0           0           0
      7.742638  3.484538  0.761574            0           0           0
      5.078354  1.877603  2.917008            0           0           0
      5.160365  6.447147  2.899226            0           0           0
      7.708921  0.459858  4.847993            0           0           0
      9.043407  1.181338  6.994190            0           0           0
[...]
      9.073503  2.652522  4.913605            0           0           0
      6.371693  2.665576  4.858272            0           0           0
     11.658911  4.174860  2.814827            0           0           0
      2.440982  1.892366  2.832794            0           0           0
     11.649530  5.686214  0.885461            0           0           0
      6.447433  5.719494  0.925972            0           0           0
      7.829267  6.506514  2.836212            0           0           0
      6.419224  4.130068  2.782896            0           0           0
     10.370503  3.467225  7.027800            0           0           0
     10.344097  3.450125  0.868038            0           0           0
     10.370626  0.484098  4.871515            0           0           0
      9.040790  7.290173  4.936995            0           0           0
      6.462653  7.295032  4.940739            0           0           0
      5.042471  0.276335  4.884059            0           0           0
      7.753876  0.431245 10.623992     0.025639    0.048351    0.998501

[...]

   3 f  =   13.891816 THz    87.284851 2PiTHz  463.381073 cm-1    57.451952 meV
             X         Y         Z           dx          dy          dz
     12.945050  8.043806  7.011620            0           0           0
      5.088187  8.078182  6.970018            0           0           0
      4.962294  3.479488  7.028812            0           0           0
     14.361548  8.764569  9.448093            0           0           0
      3.738260  4.214171  9.451809            0           0           0
      6.402236  8.786122  9.271104            0           0           0
     11.663107  4.203932  9.409502            0           0           0
      9.027733  8.775544  9.221281            0           0           0
     10.385577  1.956999  9.216369            0           0           0
      2.432711  1.922481  9.298518            0           0           0
     11.633988  8.764555  9.516587            0           0           0
     12.993251  6.436094  9.352988            0           0           0
      5.010162  1.934724  9.309216            0           0           0
      7.735295  6.512214  9.284380            0           0           0
      9.053419  4.224761  9.292122            0           0           0
      5.079858  6.488485  9.372362            0           0           0
      7.710494  1.984795  9.438651            0           0           0
      7.772750  3.421599  7.008875            0           0           0
      6.314060  1.129144  6.953139            0           0           0
      6.428579  1.129740  0.878720            0           0           0
      3.705484  4.208436  2.816869            0           0           0
      1.174768  1.245298  6.903359            0           0           0
      1.135691  1.190800  0.725566            0           0           0
      6.436066  8.760995  2.900314            0           0           0
      6.388941  4.227244  9.364730            0           0           0
      7.681351  4.990728  4.814740            0           0           0
     10.339547  6.501504  9.306021            0           0           0
     14.264242  7.225928  4.862987            0           0           0
     11.671573  5.693431  7.015552            0           0           0
      6.402294  5.769709  6.993385            0           0           0
      3.621194  2.565893  4.960228            0           0           0
     10.360912  5.024302  4.856517            0           0           0
      3.757129  5.767964  7.150482            0           0           0
     12.969068  7.879772  0.925674            0           0           0
      5.163396  7.917194  0.830298            0           0           0
      3.807011  5.745024  0.813805            0           0           0
      7.798522  2.032451  2.832513            0           0           0
      9.077547  8.733730  2.857427            0           0           0
      2.402413  3.506326  7.145318            0           0           0
      2.344093  3.490514  0.825101            0           0           0
     10.348141  1.969830  2.822490            0           0           0
     12.960353  4.985870  4.925592            0           0           0
      3.749555  1.056543  7.054906            0           0           0
      9.033280  5.750848  7.070699            0           0           0
      3.748243  1.091821  0.867003            0           0           0
      9.091210  5.718673  0.960427            0           0           0
      5.124479  3.470454  0.855627            0           0           0
     11.620923  8.687580  2.905895            0           0           0
     11.653130  7.264496  4.842290            0           0           0
     12.867560  6.452796  2.833790            0           0           0
      9.042010  4.207796  2.796278            0           0           0
      7.764901  8.009834  6.994585            0           0           0
      7.813155  7.939223  0.886525            0           0           0
     10.391439  6.535663  2.821980            0           0           0
      2.513474  0.258257  5.000827            0           0           0
      7.742638  3.484538  0.761574            0           0           0
      5.078354  1.877603  2.917008            0           0           0
      5.160365  6.447147  2.899226            0           0           0
      7.708921  0.459858  4.847993            0           0           0
      9.043407  1.181338  6.994190            0           0           0
[...]
      9.073503  2.652522  4.913605            0           0           0
      6.371693  2.665576  4.858272            0           0           0
     11.658911  4.174860  2.814827            0           0           0
      2.440982  1.892366  2.832794            0           0           0
     11.649530  5.686214  0.885461            0           0           0
      6.447433  5.719494  0.925972            0           0           0
      7.829267  6.506514  2.836212            0           0           0
      6.419224  4.130068  2.782896            0           0           0
     10.370503  3.467225  7.027800            0           0           0
     10.344097  3.450125  0.868038            0           0           0
     10.370626  0.484098  4.871515            0           0           0
      9.040790  7.290173  4.936995            0           0           0
      6.462653  7.295032  4.940739            0           0           0
      5.042471  0.276335  4.884059            0           0           0
      7.753876  0.431245 10.623992     0.873845    0.484035   -0.045877

 Finite differences POTIM=  1.500000000000000E-002
  LATTYP: Found a hexagonal cell.
 ALAT       =    10.5600004196
 C/A-ratio  =     2.0833332505

  Lattice vectors:

 A1 = (   5.2800002098,  -9.1452286274,   0.0000000000)
 A2 = ( -10.5600004196,   0.0000000000,   0.0000000000)
 A3 = (   0.0000000000,   0.0000000000, -22.0000000000)

Analysis of symmetry for initial positions (statically):
 Subroutine PRICEL returns:
 Original cell was already a primitive cell.

[...]

The static configuration has the point symmetry C_1 .

Analysis of symmetry for dynamics (positions and initial velocities):
 Subroutine PRICEL returns:
 Original cell was already a primitive cell.

[...]

The dynamic configuration has the point symmetry C_1 .

Analysis of constrained symmetry for selective dynamics:
 Subroutine PRICEL returns:
 Original cell was already a primitive cell.

[...]

The constrained configuration has the point symmetry C_1 .

Analysis of structural, dynamic, and magnetic symmetry:
 Subroutine PRICEL returns:
 Original cell was already a primitive cell.

 Routine SETGRP: Setting up the symmetry group for a
 hexagonal supercell.

 Subroutine GETGRP returns: Found  1 space group operations
 (whereof  1 operations were pure point group operations)
 out of a pool of 24 trial point group operations.

The magnetic configuration has the point symmetry C_1 .

 Subroutine INISYM returns: Found  1 space group operations
 (whereof  1 operations are pure point group operations),
 and found     1 'primitive' translations

 KPOINTS: mesh auto

Automatic generation of k-mesh.
Space group operators:
 irot       det(A)        alpha          n_x          n_y          n_z        tau_x        tau_y        tau_z
    1     1.000000     0.000001     1.000000     0.000000     0.000000     0.000000     0.000000     0.000000

 Subroutine IBZKPT returns following result:

 Found      4 irreducible k-points:

 Following reciprocal coordinates:
            Coordinates               Weight
  0.000000  0.000000  0.000000      1.000000
  0.500000  0.000000  0.000000      1.000000
  0.000000  0.500000  0.000000      1.000000
  0.500000  0.500000  0.000000      1.000000

 Following cartesian coordinates:
            Coordinates               Weight
  0.000000  0.000000  0.000000      1.000000
  0.047348 -0.027337  0.000000      1.000000
  0.000000  0.054673  0.000000      1.000000
  0.047348  0.027337  0.000000      1.000000

 TETIRR: Found     12 inequivalent tetrahedra from       24
 BZINTS: Fermi energy:  2.060855;782.000000 electrons
         Band energy:-721.857839;  BLOECHL correction: -0.110057