 vasp.5.4.4.18Apr17-6-g9f103f2a35 (build Oct 25 2019 11:13:22) complex

 executed on             LinuxIFC date 2022.02.22  05:37:47

 INCAR:
 POTCAR:    PAW_PBE Pt 04Feb2005
 POTCAR:    PAW_PBE Fe 06Sep2000
 POTCAR:    PAW_PBE Co 02Aug2007
 POTCAR:    PAW_PBE Cu 22Jun2005
 POTCAR:    PAW_PBE Ni 02Aug2007
 POTCAR:    PAW_PBE O 08Apr2002
 POTCAR:    PAW_PBE Pt 04Feb2005
   VRHFIN =Pt: s1d9

   TITEL  = PAW_PBE Pt 04Feb2005
   POMASS =  195.080; ZVAL   =   10.000    mass and valenz
   ENMAX  =  230.283; ENMIN  =  172.712 eV

 POTCAR:    PAW_PBE Fe 06Sep2000
   VRHFIN =Fe:  d7 s1

   TITEL  = PAW_PBE Fe 06Sep2000
   POMASS =   55.847; ZVAL   =    8.000    mass and valenz
   ENMAX  =  267.882; ENMIN  =  200.911 eV

 POTCAR:    PAW_PBE Co 02Aug2007
   VRHFIN =Co: d8 s1

   TITEL  = PAW_PBE Co 02Aug2007
   POMASS =   58.933; ZVAL   =    9.000    mass and valenz
   ENMAX  =  267.968; ENMIN  =  200.976 eV

 POTCAR:    PAW_PBE Cu 22Jun2005
   VRHFIN =Cu: d10 p1

   TITEL  = PAW_PBE Cu 22Jun2005
   POMASS =   63.546; ZVAL   =   11.000    mass and valenz
   ENMAX  =  295.446; ENMIN  =  221.585 eV

 POTCAR:    PAW_PBE Ni 02Aug2007
   VRHFIN =Ni:

   TITEL  = PAW_PBE Ni 02Aug2007
   POMASS =   58.690; ZVAL   =   10.000    mass and valenz
   ENMAX  =  269.532; ENMIN  =  202.149 eV

 POTCAR:    PAW_PBE O 08Apr2002
   VRHFIN =O: s2p4

   TITEL  = PAW_PBE O 08Apr2002
   POMASS =   16.000; ZVAL   =    6.000    mass and valenz
   ENMAX  =  400.000; ENMIN  =  300.000 eV

 Optimization of the real space projectors (new method)

 maximal supplied QI-value         = 14.36
 optimisation between [QCUT,QGAM] = [ 11.92, 23.98] = [ 39.79,161.09] Ry
 Optimized for a Real-space Cutoff    1.49 Angstroem

   l    n(q)    QCUT    max X(q) W(low)/X(q) W(high)/X(q)  e(spline)
   2     10    11.920    66.195    0.79E-04    0.18E-03    0.24E-06
   2     10    11.920    64.643    0.81E-04    0.19E-03    0.24E-06
   0     11    11.920    95.520    0.28E-04    0.54E-04    0.18E-06
   0     11    11.920    63.403    0.27E-04    0.52E-04    0.17E-06
   1     10    11.920    19.961    0.18E-04    0.11E-03    0.23E-06
   1     10    11.920    13.289    0.25E-04    0.87E-04    0.19E-06
 Optimization of the real space projectors (new method)

[...]

   l    n(q)    QCUT    max X(q) W(low)/X(q) W(high)/X(q)  e(spline)
   2      9    11.864    60.317    0.21E-03    0.51E-03    0.25E-06
   2      9    11.864    55.921    0.21E-03    0.51E-03    0.26E-06
   0      9    11.864    51.690    0.22E-03    0.30E-04    0.17E-06
   0      9    11.864    30.015    0.20E-03    0.28E-04    0.15E-06
   1      9    11.864    18.849    0.76E-04    0.33E-03    0.17E-06
   1      9    11.864    14.624    0.60E-04    0.28E-03    0.15E-06
 Optimization of the real space projectors (new method)

 maximal supplied QI-value         = 24.76
 optimisation between [QCUT,QGAM] = [ 11.88, 24.01] = [ 39.54,161.47] Ry
 Optimized for a Real-space Cutoff    1.18 Angstroem

   l    n(q)    QCUT    max X(q) W(low)/X(q) W(high)/X(q)  e(spline)
   0      8    11.883    20.381    0.86E-04    0.11E-03    0.31E-06
   0      8    11.883    15.268    0.94E-04    0.12E-03    0.33E-06
   1      8    11.883     5.964    0.19E-03    0.18E-04    0.33E-06
   1      8    11.883     5.382    0.17E-03    0.20E-04    0.29E-06
  PAW_PBE Pt 04Feb2005                  :
  PAW_PBE Fe 06Sep2000                  :
  PAW_PBE Co 02Aug2007                  :
  PAW_PBE Cu 22Jun2005                  :
  PAW_PBE Ni 02Aug2007                  :
  PAW_PBE O 08Apr2002                   :

 POSCAR: 10.56
  positions in direct lattice
  velocities in cartesian coordinates
 exchange correlation table for  LEXCH =        8
   RHO(1)=    0.500       N(1)  =     2000
   RHO(2)=  100.500       N(2)  =     4000

 ion  position               nearest neighbor table
   1  0.788  0.878  0.317-  28 2.61  49 2.62  19 2.64  33 2.65  59 2.65  61 2.66  29 2.67  60 2.68
                             2 2.72   4 2.77  11 2.78  12 2.84
   2  0.044  0.881  0.317-  79 2.56  30 2.62  77 2.62  60 2.63  52 2.65  28 2.67  33 2.67  22 2.68
                             1 2.72   4 2.82   6 2.89  16 3.13
   3  0.279  0.380  0.320-  39 2.56  64 2.57  33 2.59  31 2.63  30 2.70  19 2.70  43 2.72  68 2.72
                             5 2.78  13 2.80  18 2.82  25 2.83
   4  0.868  0.965  0.422-  17 2.58  11 2.60   9 2.65  12 2.67   6 2.70  16 2.76  60 2.77   1 2.77
                             2 2.82
   5  0.122  0.463  0.428-  16 2.61  12 2.62   7 2.63  10 2.63  25 2.66  13 2.67  33 2.71  39 2.74
                             3 2.78
   6  0.122  0.967  0.429-  10 2.61   9 2.64   8 2.65   4 2.70  14 2.73  16 2.75   2 2.89  22 2.93
                            52 2.94
   7  0.875  0.460  0.427-   9 2.61  15 2.62   5 2.63  10 2.63  12 2.63  27 2.65  39 2.69  75 2.78
                            29 2.79
   8  0.376  0.960  0.419-  43 2.58  11 2.62  13 2.62  14 2.62  27 2.63   6 2.65  10 2.66  52 2.70
                            61 2.70
   9  0.871  0.214  0.420-  15 2.59   7 2.61  17 2.63   6 2.64   4 2.65  75 2.66  10 2.68  60 2.72
                            22 2.80
  10  0.125  0.212  0.422-   6 2.61  13 2.61   5 2.63   7 2.63   8 2.66  39 2.66   9 2.68  43 2.73
                            22 2.77
  11  0.624  0.960  0.424-   4 2.60   8 2.62  27 2.63  13 2.63  12 2.64  17 2.65   1 2.78  19 2.83
                            61 2.84
  12  0.874  0.710  0.426-   5 2.62  27 2.63   7 2.63  11 2.64  16 2.66   4 2.67  33 2.67  29 2.80
                             1 2.84
  13  0.374  0.209  0.425-  10 2.61   8 2.62  11 2.63  25 2.65  17 2.65   5 2.67  43 2.77   3 2.80
                            19 2.83
  14  0.381  0.709  0.422-  81 2.17  27 2.58  15 2.61   8 2.62  44 2.65  25 2.67   6 2.73  16 2.74
                            30 2.74  52 2.75
  15  0.627  0.461  0.423-  81 2.21   9 2.59  14 2.61   7 2.62  27 2.63  17 2.65  25 2.66  44 2.70
                            75 2.72  18 2.76
  16  0.126  0.706  0.439-   5 2.61  25 2.64  12 2.66  14 2.74   6 2.75   4 2.76  33 2.90  30 3.04
                             2 3.13
  17  0.624  0.211  0.423-   4 2.58  25 2.62   9 2.63  13 2.65  15 2.65  11 2.65  18 2.77  60 2.80
                            19 2.87
  18  0.548  0.375  0.317-  67 2.56  60 2.59  75 2.61  44 2.64  68 2.65  26 2.67  30 2.71  19 2.73
                            15 2.76  17 2.77   3 2.82  25 2.86
  19  0.535  0.124  0.315-  80 2.55  43 2.57  68 2.57  59 2.60   1 2.64  61 2.64   3 2.70  18 2.73
                            60 2.76  13 2.83  11 2.83  17 2.87
  20  0.547  0.124  0.040-  37 2.55  57 2.56  48 2.58  62 2.64  63 2.68  47 2.68  45 2.68  56 2.70
                            34 2.71
  21  0.121  0.460  0.128-  40 2.52  36 2.53  47 2.53  42 2.60  69 2.61  64 2.62  70 2.64  50 2.64
                            58 2.67  31 2.70  57 2.71  74 2.72
  22  0.045  0.134  0.315-  55 2.54  65 2.55  43 2.57  77 2.59  39 2.59  75 2.61   2 2.68  60 2.68
                            52 2.71  10 2.77   9 2.80   6 2.93  31 3.42
  23  0.042  0.130  0.033-  70 2.58  40 2.60  41 2.61  45 2.62  62 2.64  76 2.64  24 2.69  35 2.73
                            53 2.78
  24  0.130  0.958  0.132-  79 2.51  77 2.54  35 2.57  53 2.57  55 2.58  70 2.62  38 2.64  58 2.64
                            73 2.65  23 2.69  66 2.70  41 2.72
  25  0.375  0.459  0.426-  81 2.13  17 2.62  16 2.64  13 2.65   5 2.66  15 2.66  14 2.67  30 2.82
                             3 2.83  18 2.86
  26  0.455  0.546  0.219-  73 2.50  74 2.54  51 2.56  79 2.61  64 2.63  18 2.67  68 2.67  78 2.67
                            30 2.67  32 2.68  67 2.72  44 2.75
  27  0.624  0.711  0.424-  14 2.58   8 2.63  15 2.63  11 2.63  12 2.63   7 2.65  44 2.71  61 2.79
                            29 2.79
  28  0.956  0.790  0.221-  58 2.57  66 2.57  50 2.58  42 2.59  49 2.61   1 2.61  64 2.63   2 2.67
                            59 2.70  33 2.73  79 2.76  77 2.77
  29  0.794  0.622  0.319-  39 2.54  42 2.56  75 2.58  32 2.61  44 2.64  33 2.65   1 2.67  61 2.67
                            49 2.69   7 2.79  27 2.79  12 2.80
  30  0.290  0.631  0.319-  79 2.58  52 2.61  64 2.61   2 2.62  33 2.64  44 2.64  26 2.67   3 2.70
                            18 2.71  14 2.74  25 2.82  16 3.04
  31  0.203  0.281  0.225-  70 2.52  55 2.56  65 2.57  43 2.60  57 2.60   3 2.63  39 2.66  80 2.70
                            21 2.70  42 2.71  68 2.75  64 2.79  22 3.42
  32  0.706  0.549  0.221-  54 2.53  69 2.56  51 2.58  49 2.59  42 2.60  29 2.61  78 2.62  65 2.63
                            26 2.68  44 2.69  75 2.69  67 2.70
  33  0.040  0.630  0.326-   3 2.59  30 2.64  39 2.64   1 2.65  29 2.65  12 2.67   2 2.67  64 2.71
                             5 2.71  28 2.73  42 2.74  16 2.90
  34  0.797  0.862  0.042-  50 2.38  66 2.51  48 2.53  36 2.55  71 2.56  63 2.61  20 2.71  35 2.76
                            62 2.76
  35  0.056  0.866  0.038-  58 2.54  72 2.55  36 2.56  24 2.57  66 2.62  53 2.65  23 2.73  62 2.73
                            34 2.76
  36  0.046  0.628  0.037-  21 2.53  34 2.55  35 2.56  58 2.58  50 2.61  47 2.63  72 2.64  40 2.69
                            71 2.72
  37  0.627  0.222  0.129-  51 2.51  74 2.51  67 2.52  56 2.53  41 2.55  20 2.55  68 2.56  59 2.56
                            62 2.59  66 2.66  57 2.73  48 2.89
  38  0.382  0.955  0.130-  53 2.47  80 2.48  45 2.49  78 2.53  48 2.54  73 2.55  63 2.55  54 2.56
                            55 2.59  57 2.62  24 2.64  70 2.67
  39  0.036  0.382  0.324-  29 2.54   3 2.56  75 2.58  22 2.59  33 2.64  10 2.66  31 2.66  42 2.67
                             7 2.69   5 2.74  65 2.75  43 2.79
  40  0.031  0.382  0.038-  69 2.44  21 2.52  71 2.53  76 2.56  70 2.57  23 2.60  36 2.69  45 2.78
                            47 2.78
  41  0.872  0.215  0.128-  76 2.45  65 2.52  77 2.53  67 2.54  37 2.55  69 2.57  62 2.57  51 2.59
                            23 2.61  70 2.65  66 2.66  24 2.72
  42  0.955  0.545  0.224-  29 2.56  50 2.56  28 2.59  21 2.60  32 2.60  69 2.61  49 2.63  65 2.64
                            64 2.65  39 2.67  31 2.71  33 2.74
  43  0.297  0.115  0.321-  55 2.53  52 2.54  61 2.56  19 2.57  22 2.57   8 2.58  31 2.60  80 2.66
                             3 2.72  10 2.73  13 2.77  39 2.79
  44  0.541  0.629  0.322-  61 2.56  52 2.58  78 2.64  29 2.64  18 2.64  30 2.64  14 2.65  75 2.66
                            32 2.69  15 2.70  27 2.71  26 2.75
  45  0.295  0.119  0.039-  70 2.49  38 2.49  57 2.57  53 2.60  23 2.62  63 2.64  20 2.68  47 2.75
                            40 2.78
  46  0.548  0.625  0.044-  51 2.38  73 2.39  54 2.41  71 2.56  53 2.56  63 2.58  76 2.59  56 2.62
                            72 2.64
  47  0.296  0.379  0.039-  74 2.41  21 2.53  57 2.61  72 2.61  56 2.62  36 2.63  20 2.68  45 2.75
                            40 2.78
  48  0.625  0.950  0.132-  49 2.40  80 2.48  54 2.48  34 2.53  38 2.54  59 2.55  50 2.56  63 2.57
                            20 2.58  57 2.65  66 2.68  37 2.89
  49  0.706  0.794  0.220-  48 2.40  50 2.48  54 2.49  80 2.53  32 2.59  28 2.61  78 2.61   1 2.62
                            61 2.62  42 2.63  29 2.69  59 2.69
[...]

 FORCES acting on ions
    electron-ion (+dipol)            ewald-force                    non-local-force                 convergence-correction
   -.364E+02 0.820E+02 -.149E+04   0.360E+02 -.822E+02 0.149E+04   0.322E+00 0.285E+00 0.231E+01   -.108E-01 -.242E-02 -.269E-01
   0.252E+02 0.639E+02 -.146E+04   -.247E+02 -.641E+02 0.146E+04   -.457E+00 0.234E+00 0.252E+01   0.475E-02 -.482E-02 -.410E-01
   0.456E+02 -.825E+01 -.152E+04   -.466E+02 0.891E+01 0.152E+04   0.101E+01 -.656E+00 0.126E+01   -.560E-02 -.542E-02 -.358E-01
   -.891E+00 0.254E+02 -.293E+04   0.107E+01 -.252E+02 0.293E+04   -.180E+00 -.137E+00 0.630E+00   -.121E-01 0.107E-01 0.761E-02
   0.103E+02 0.122E+02 -.291E+04   -.110E+02 -.117E+02 0.291E+04   0.713E+00 -.459E+00 0.138E+01   -.952E-02 -.911E-02 0.525E-02
   0.751E+01 -.183E+02 -.288E+04   -.768E+01 0.181E+02 0.288E+04   0.171E+00 0.103E+00 0.808E+00   0.138E-01 0.755E-02 0.329E-02
   -.389E+02 -.324E+01 -.293E+04   0.395E+02 0.284E+01 0.293E+04   -.579E+00 0.369E+00 0.134E+01   -.511E-02 0.258E-02 0.115E-02
   0.382E+01 -.367E+02 -.290E+04   -.404E+01 0.371E+02 0.289E+04   0.220E+00 -.397E+00 0.176E+01   0.880E-02 -.500E-02 0.111E-02
   -.384E+02 0.324E+02 -.292E+04   0.383E+02 -.326E+02 0.292E+04   0.770E-01 0.157E+00 0.101E+01   -.126E-02 0.103E-01 0.463E-02
   -.106E+02 0.119E+01 -.289E+04   0.110E+02 -.845E+00 0.289E+04   -.365E+00 -.340E+00 0.151E+01   0.436E-02 0.304E-02 0.529E-02
   -.866E+01 -.472E-02 -.293E+04   0.893E+01 -.184E+00 0.293E+04   -.273E+00 0.128E+00 0.557E+00   -.793E-02 -.580E-02 0.337E-02
   -.751E+01 -.443E+01 -.292E+04   0.776E+01 0.422E+01 0.292E+04   -.230E+00 0.208E+00 0.965E+00   -.200E-01 0.932E-03 0.369E-02
   0.218E+02 -.283E+01 -.290E+04   -.221E+02 0.224E+01 0.290E+04   0.270E+00 0.606E+00 0.847E+00   -.378E-02 -.629E-02 0.451E-02
   0.196E+02 -.100E+03 -.284E+04   -.193E+02 0.103E+03 0.284E+04   -.334E+00 -.294E+01 0.186E+01   0.159E-01 0.862E-04 -.469E-02
   -.691E+02 0.331E+02 -.281E+04   0.717E+02 -.343E+02 0.281E+04   -.260E+01 0.121E+01 0.157E+01   0.415E-02 0.899E-03 0.533E-02
   0.224E+02 -.146E+02 -.288E+04   -.233E+02 0.145E+02 0.288E+04   0.100E+01 -.275E-01 0.113E+01   0.399E-02 -.773E-02 0.102E-01
   0.277E+02 0.235E+02 -.288E+04   -.276E+02 -.242E+02 0.288E+04   -.108E+00 0.659E+00 0.102E+01   0.588E-03 0.579E-02 0.672E-02
   0.726E+02 -.699E+02 -.149E+04   -.712E+02 0.701E+02 0.149E+04   -.134E+01 -.293E+00 0.193E+01   0.147E-02 0.334E-02 -.322E-01
   0.335E+02 -.379E+02 -.149E+04   -.346E+02 0.374E+02 0.149E+04   0.106E+01 0.416E+00 0.246E+01   -.451E-02 -.182E-02 -.324E-01
   0.335E+02 0.316E+02 0.304E+04   -.336E+02 -.317E+02 -.304E+04   0.118E+00 0.175E+00 -.239E+01   0.191E-02 -.127E-01 -.144E-01
   0.357E+02 -.815E+01 0.161E+04   -.365E+02 0.885E+01 -.161E+04   0.955E+00 -.650E+00 0.895E+00   -.313E-01 -.794E-03 -.408E-01
   -.728E+02 0.617E+01 -.145E+04   0.738E+02 -.547E+01 0.145E+04   -.900E+00 -.697E+00 0.273E+01   0.939E-02 0.783E-02 -.353E-01
   -.543E+02 0.509E+02 0.309E+04   0.549E+02 -.501E+02 -.309E+04   -.646E+00 -.816E+00 -.205E+01   0.373E-02 0.617E-02 0.453E-03
   -.559E+00 -.531E+02 0.161E+04   0.820E+00 0.526E+02 -.161E+04   -.321E+00 0.421E+00 -.771E+00   0.122E-01 -.100E-02 -.498E-01
   0.105E+03 0.507E+02 -.281E+04   -.107E+03 -.519E+02 0.281E+04   0.252E+01 0.128E+01 0.665E+00   0.822E-02 -.495E-02 0.206E-02
   -.220E+02 -.913E+01 0.321E+02   0.219E+02 0.941E+01 -.334E+02   -.239E-01 -.337E+00 0.138E+01   0.125E-01 0.131E-01 -.547E-01
   -.377E+02 -.692E+01 -.289E+04   0.379E+02 0.718E+01 0.289E+04   -.194E+00 -.259E+00 0.149E+01   -.110E-02 0.446E-02 -.282E-03
   0.197E+02 0.677E+02 0.270E+02   -.207E+02 -.689E+02 -.273E+02   0.999E+00 0.108E+01 0.240E+00   0.450E-02 -.584E-02 -.579E-01
   -.720E+02 0.757E+01 -.146E+04   0.724E+02 -.874E+01 0.145E+04   -.427E+00 0.125E+01 0.282E+01   -.389E-02 -.202E-02 -.304E-01
   0.336E+02 0.259E+02 -.152E+04   -.332E+02 -.252E+02 0.152E+04   -.468E+00 -.668E+00 0.252E+01   0.787E-02 -.326E-02 -.367E-01
   0.192E+02 -.674E+02 -.578E+02   -.202E+02 0.669E+02 0.583E+02   0.109E+01 0.500E+00 -.312E+00   -.950E-02 -.343E-02 -.559E-01
   -.246E+02 -.166E+02 0.243E+02   0.254E+02 0.173E+02 -.251E+02   -.897E+00 -.825E+00 0.849E+00   -.178E-02 0.342E-02 -.709E-01
   0.226E+02 0.139E+02 -.123E+04   -.227E+02 -.142E+02 0.123E+04   0.924E-01 0.430E+00 0.413E+00   -.274E-02 -.344E-02 -.216E-01
   -.598E+02 -.255E+01 0.244E+04   0.602E+02 0.128E+01 -.244E+04   -.405E+00 0.132E+01 -.272E+01   -.477E-03 -.144E-01 -.113E-01
   0.306E+02 -.140E+02 0.248E+04   -.304E+02 0.127E+02 -.247E+04   -.116E+00 0.145E+01 -.231E+01   -.165E-04 0.361E-02 -.739E-02
   0.230E+02 -.390E+01 0.248E+04   -.231E+02 0.444E+01 -.248E+04   0.118E+00 -.603E+00 -.289E+01   -.179E-01 0.105E-01 -.650E-02
   0.671E+01 0.515E+02 0.130E+04   -.586E+01 -.508E+02 -.130E+04   -.916E+00 -.700E+00 -.136E+00   0.116E-01 0.238E-02 -.330E-01
   0.340E+02 -.544E+02 0.129E+04   -.339E+02 0.542E+02 -.129E+04   -.122E+00 0.245E+00 -.422E+00   -.803E-02 -.114E-01 -.386E-01
   -.515E+02 -.225E+02 -.121E+04   0.517E+02 0.227E+02 0.121E+04   -.224E+00 -.229E+00 0.739E+00   0.135E-03 -.321E-03 -.272E-01
   -.933E+02 0.205E+02 0.248E+04   0.930E+02 -.203E+02 -.248E+04   0.238E+00 -.255E+00 -.268E+01   -.196E-01 0.373E-02 0.202E-02
   -.341E+02 0.455E+02 0.131E+04   0.333E+02 -.450E+02 -.131E+04   0.807E+00 -.523E+00 -.386E+00   0.100E-01 0.118E-01 -.418E-01
   -.434E+02 0.456E+01 -.275E+02   0.432E+02 -.423E+01 0.275E+02   0.247E+00 -.383E+00 -.962E-01   -.771E-02 -.824E-02 -.480E-01
   0.179E+02 -.814E+02 -.122E+04   -.180E+02 0.813E+02 0.122E+04   0.131E+00 0.158E+00 0.113E+01   0.143E-02 -.109E-02 -.269E-01
   0.128E+02 0.267E+02 -.121E+04   -.129E+02 -.266E+02 0.121E+04   0.750E-01 -.134E+00 0.608E+00   0.464E-02 0.379E-02 -.250E-01
   0.147E+02 -.466E+02 0.246E+04   -.154E+02 0.459E+02 -.245E+04   0.671E+00 0.713E+00 -.275E+01   -.139E-01 -.931E-02 -.246E-02
   0.429E+01 -.195E+02 0.276E+04   -.440E+01 0.198E+02 -.276E+04   0.936E-01 -.234E+00 -.233E+01   0.202E-01 0.575E-02 -.109E-02
   0.119E+03 0.291E+02 0.280E+04   -.120E+03 -.284E+02 -.279E+04   0.501E+00 -.685E+00 -.235E+01   -.130E-01 -.244E-02 -.101E-01
   -.362E+02 -.274E+02 0.144E+04   0.358E+02 0.264E+02 -.144E+04   0.437E+00 0.109E+01 -.423E+00   -.109E-01 -.153E-01 -.484E-01
   -.605E+02 0.689E+02 0.435E+02   0.606E+02 -.687E+02 -.443E+02   -.302E-01 -.215E+00 0.806E+00   -.147E-01 -.125E-01 -.524E-01
   -.886E+02 0.198E+02 0.142E+04   0.881E+02 -.193E+02 -.142E+04   0.529E+00 -.477E+00 -.107E+00   -.153E-01 -.160E-01 -.559E-01
   -.215E+02 0.958E+01 0.140E+04   0.216E+02 -.982E+01 -.140E+04   -.159E+00 0.318E+00 -.810E-01   0.220E-01 0.179E-01 -.498E-01
   0.439E+02 -.645E+00 -.137E+04   -.437E+02 0.131E-01 0.137E+04   -.288E+00 0.687E+00 0.110E+01   0.105E-01 -.483E-02 -.336E-01
   0.529E+02 -.806E+02 0.277E+04   -.526E+02 0.806E+02 -.277E+04   -.327E+00 0.130E+00 -.240E+01   0.111E-01 -.465E-02 -.191E-02
   -.138E+02 0.256E+01 0.139E+04   0.139E+02 -.232E+01 -.139E+04   -.123E+00 -.262E+00 -.432E+00   -.118E-01 -.176E-01 -.576E-01
   0.181E+02 -.659E+02 0.556E+00   -.172E+02 0.653E+02 -.253E+00   -.804E+00 0.614E+00 -.319E+00   0.553E-02 -.468E-02 -.572E-01
   0.307E+02 0.339E+02 0.345E+04   -.309E+02 -.331E+02 -.345E+04   0.127E+00 -.834E+00 -.353E+01   0.366E-01 0.105E-01 -.112E-01
   0.638E+02 0.777E+01 0.176E+04   -.640E+02 -.844E+01 -.176E+04   0.132E+00 0.716E+00 -.176E+00   -.206E-01 -.112E-01 -.386E-01
   0.102E+03 -.309E+02 0.173E+04   -.102E+03 0.309E+02 -.173E+04   -.212E+00 0.663E-02 0.353E-01   0.193E-02 0.155E-01 -.492E-01
   0.143E+02 0.718E+02 0.111E+03   -.149E+02 -.716E+02 -.112E+03   0.603E+00 -.308E+00 0.680E+00   -.316E-03 0.943E-02 -.553E-01
   0.796E+01 0.595E+02 -.167E+04   -.759E+01 -.592E+02 0.167E+04   -.376E+00 -.381E+00 0.152E+01   -.524E-02 0.668E-02 -.341E-01
[...]
   0.594E+02 -.404E+02 0.288E+02   -.589E+02 0.399E+02 -.292E+02   -.549E+00 0.553E+00 0.455E+00   0.802E-03 -.231E-02 -.510E-01
   -.734E+02 0.163E+01 0.156E+04   0.730E+02 -.151E+01 -.156E+04   0.406E+00 -.628E-01 -.121E+00   -.728E-02 0.683E-02 -.572E-01
   -.124E+02 0.189E+02 0.163E+04   0.127E+02 -.191E+02 -.163E+04   -.290E+00 0.257E+00 -.253E+00   -.772E-02 0.332E-02 -.481E-01
   -.101E+03 -.406E+01 0.309E+04   0.101E+03 0.412E+01 -.309E+04   -.516E+00 -.273E-01 -.131E+01   -.182E-01 -.626E-02 0.360E-02
   0.702E+02 -.524E+02 0.309E+04   -.706E+02 0.530E+02 -.309E+04   0.407E+00 -.594E+00 -.839E+00   0.194E-01 0.229E-01 -.108E-01
   0.149E+02 -.403E+02 0.156E+04   -.145E+02 0.401E+02 -.156E+04   -.375E+00 0.176E+00 0.331E-01   0.268E-01 0.850E-02 -.463E-01
   0.516E+02 0.187E+01 0.161E+04   -.511E+02 -.190E+01 -.161E+04   -.465E+00 0.682E-01 -.769E-01   0.154E-01 0.632E-02 -.296E-01
   -.536E+02 -.618E+02 -.153E+04   0.530E+02 0.622E+02 0.153E+04   0.685E+00 -.359E+00 0.213E+00   0.213E-02 0.640E-02 -.306E-01
   -.541E+02 0.294E+02 0.307E+04   0.546E+02 -.290E+02 -.307E+04   -.476E+00 -.493E+00 -.189E+01   0.919E-02 0.198E-01 -.188E-02
   -.477E+02 0.712E+02 0.996E+02   0.481E+02 -.708E+02 -.997E+02   -.373E+00 -.360E+00 0.586E-01   0.837E-02 0.352E-02 -.622E-01
   0.256E+01 0.609E+02 0.214E+02   -.258E+01 -.601E+02 -.214E+02   0.131E-01 -.901E+00 0.966E-02   -.485E-02 -.579E-02 -.649E-01
   0.447E+02 0.630E+01 -.953E+01   -.443E+02 -.565E+01 0.943E+01   -.362E+00 -.674E+00 0.122E+00   0.153E-01 -.200E-02 -.623E-01
   0.263E+02 -.503E+02 0.590E+02   -.267E+02 0.499E+02 -.592E+02   0.363E+00 0.490E+00 0.171E+00   -.156E-01 -.182E-02 -.486E-01
   -.459E+01 0.326E+01 -.201E+04   0.591E+01 -.329E+01 0.204E+04   -.132E+01 0.166E-01 -.313E+02   0.667E-02 -.438E-02 0.143E-01
   -.415E+00 -.700E+00 0.243E+02   0.423E-12 0.350E-12 0.125E-10   0.391E+00 0.670E+00 -.221E+02   0.242E-01 0.295E-02 -.219E+01

 POSITION                                       TOTAL-FORCE (eV/Angst)
     12.94921      8.03583      6.98577        -0.000521      0.007428     -0.017967
      5.10526      8.07239      6.93639         0.013277     -0.002475      0.025134
      4.97785      3.50047      7.06441        -0.008564      0.000142     -0.006362
     14.31202      8.79003      9.35013        -0.015329      0.005654     -0.019525
      3.70613      4.22847      9.42023        -0.018214     -0.006445     -0.028553
      6.38866      8.79636      9.24455         0.000967     -0.006051      0.026752
     11.67334      4.19696      9.36713        -0.004918     -0.007282      0.006317
      9.01672      8.79098      9.21783        -0.013245     -0.026636     -0.003228
     10.34603      1.91094      9.25294         0.006795     -0.011419     -0.003157
      2.43508      1.92857      9.27362         0.010131     -0.016027     -0.002815
     11.65685      8.77905      9.33211         0.028161     -0.028394     -0.000257
     12.97140      6.49765      9.41505        -0.009812      0.001250     -0.026035
      5.05231      1.88970      9.33285        -0.036568     -0.006501      0.010394
      7.71314      6.56952      9.44132        -0.003202      0.031068      0.031536
      9.07491      4.17470      9.33917         0.033217     -0.011670     -0.010854
      5.02223      6.52000      9.36602         0.025864     -0.027190     -0.008880
      7.70414      1.87408      9.25623         0.013606      0.016858     -0.007868
      7.77342      3.44315      6.98029         0.005955      0.018697      0.033669
      6.30152      1.14417      6.92120         0.000913     -0.016412     -0.014501
      6.42858      1.12974      0.87872        -0.018356     -0.003703      0.000150
      3.70548      4.20844      2.81687         0.038801      0.000050     -0.011572
      1.16778      1.25966      6.90185        -0.003812     -0.009900      0.002636
      1.13569      1.19080      0.72557        -0.039397     -0.005770      0.016750
      6.43607      8.76100      2.90031         0.000708      0.001590     -0.005273
      6.31993      4.17201      9.43950        -0.005332     -0.009366      0.004579
      7.68135      4.99073      4.81474         0.010730      0.002388      0.038736
     10.35050      6.51965      9.28904        -0.029976     -0.021807      0.019377
     14.26424      7.22593      4.86299        -0.013299     -0.073721     -0.051406
     11.67971      5.68888      7.01492        -0.025894     -0.002967     -0.005857
      6.43487      5.77936      7.02519         0.004255      0.016088      0.042633
      3.62119      2.56589      4.96023         0.085408      0.037997      0.058927
     10.36091      5.02430      4.85652        -0.011270     -0.059260      0.040211
      3.76041      5.77227      7.16761         0.003218     -0.012264     -0.047906
     12.96907      7.87977      0.92567        -0.013580      0.004062      0.010147
      5.16340      7.91719      0.83030         0.018978      0.024081     -0.003110
      3.80701      5.74502      0.81381         0.010190     -0.024828     -0.018712
      7.79852      2.03245      2.83251        -0.034029     -0.025614     -0.007527
      9.07755      8.73373      2.85743        -0.006544      0.005315     -0.000349
      2.41187      3.50775      7.13945         0.010821     -0.001508     -0.017323
      2.34409      3.49051      0.82510         0.004762      0.013850     -0.027505
     10.34814      1.96983      2.82249        -0.025790      0.009779      0.024936
     12.96035      4.98587      4.92559         0.028161     -0.038802     -0.061826
      3.74376      1.07156      7.05561        -0.007643      0.013338     -0.004453
      9.03513      5.76878      7.09269        -0.021709      0.002660     -0.000265
      3.74824      1.09182      0.86700        -0.011090     -0.007772     -0.011349
      9.09121      5.71867      0.96043        -0.014577      0.013731     -0.034958
      5.12448      3.47045      0.85563         0.002743      0.033271     -0.000561
     11.62092      8.68758      2.90590        -0.003489     -0.004928      0.017222
     11.65313      7.26450      4.84229         0.016186     -0.001913     -0.030835
     12.86756      6.45280      2.83379         0.024910      0.016008     -0.003231
      9.04201      4.20780      2.79628         0.000864      0.052720     -0.001821
      7.76292      7.99023      7.01752         0.001702      0.001904     -0.004412
      7.81315      7.93922      0.88653        -0.009079      0.018504      0.015442
     10.39144      6.53566      2.82198         0.006645     -0.023544      0.022493
      2.51347      0.25826      5.00083         0.023119      0.020028      0.016587
      7.74264      3.48454      0.76157         0.000374     -0.007153     -0.000672
      5.07835      1.87760      2.91701        -0.004302     -0.008338     -0.000106
      5.16037      6.44715      2.89923        -0.016354      0.000695     -0.014091
      7.70892      0.45986      4.84799         0.016965      0.000800     -0.008177
      9.05290      1.18706      6.96861         0.007428      0.000933     -0.006355
[...]
      9.07350      2.65252      4.91360         0.026452     -0.000798      0.032654
      6.37169      2.66558      4.85827        -0.034646      0.038805      0.002858
     11.65891      4.17486      2.81483        -0.023723      0.001254     -0.024858
      2.44098      1.89237      2.83279         0.014870      0.024115     -0.019981
     11.64953      5.68621      0.88546         0.000783      0.026198      0.004351
      6.44743      5.71949      0.92597        -0.001384      0.014413     -0.015344
      7.82927      6.50651      2.83621         0.008227     -0.020292     -0.000510
      6.41922      4.13007      2.78290         0.004476      0.005932     -0.003776
     10.34583      3.48781      7.11237        -0.010228      0.008019      0.002083
     10.34410      3.45013      0.86804         0.007619     -0.018277     -0.014743
     10.37063      0.48410      4.87151        -0.003865      0.018283     -0.035858
      9.04079      7.29017      4.93700        -0.031800     -0.023319      0.005001
      6.46265      7.29503      4.94074         0.067898      0.001695      0.026036
      5.04247      0.27633      4.88406        -0.020842      0.050842      0.008577
      7.73532      4.92390     10.70516        -0.002998     -0.018825     -0.001551
    total drift:                                0.000063     -0.027133     -0.027443

  FREE ENERGIE OF THE ION-ELECTRON SYSTEM (eV)
  free  energy   TOTEN  =      -512.92073442 eV

  energy  without entropy=     -512.94788133  energy(sigma->0) =     -512.92978339

 d Force = 0.3280407E-05[-0.153E-04, 0.219E-04]  d Energy = 0.3638592E-04-0.331E-04
 d Force = 0.2275883E+01[ 0.228E+01, 0.228E+01]  d Ewald  = 0.2275884E+01-0.687E-06

 reached required accuracy - stopping structural energy minimisation