 vasp.5.4.4.18Apr17-6-g9f103f2a35 (build Oct 25 2019 11:13:22) complex

 executed on             LinuxIFC date 2022.02.09  09:14:24

 INCAR:
 POTCAR:    PAW_PBE Pt 04Feb2005
 POTCAR:    PAW_PBE Fe 06Sep2000
 POTCAR:    PAW_PBE Co 02Aug2007
 POTCAR:    PAW_PBE Ni 02Aug2007
 POTCAR:    PAW_PBE H 15Jun2001
 POTCAR:    PAW_PBE Pt 04Feb2005
   VRHFIN =Pt: s1d9

   TITEL  = PAW_PBE Pt 04Feb2005
   POMASS =  195.080; ZVAL   =   10.000    mass and valenz
   ENMAX  =  230.283; ENMIN  =  172.712 eV

 POTCAR:    PAW_PBE Fe 06Sep2000
   VRHFIN =Fe:  d7 s1

   TITEL  = PAW_PBE Fe 06Sep2000
   POMASS =   55.847; ZVAL   =    8.000    mass and valenz
   ENMAX  =  267.882; ENMIN  =  200.911 eV

 POTCAR:    PAW_PBE Co 02Aug2007
   VRHFIN =Co: d8 s1

   TITEL  = PAW_PBE Co 02Aug2007
   POMASS =   58.933; ZVAL   =    9.000    mass and valenz
   ENMAX  =  267.968; ENMIN  =  200.976 eV

 POTCAR:    PAW_PBE Ni 02Aug2007
   VRHFIN =Ni:

   TITEL  = PAW_PBE Ni 02Aug2007
   POMASS =   58.690; ZVAL   =   10.000    mass and valenz
   ENMAX  =  269.532; ENMIN  =  202.149 eV

 POTCAR:    PAW_PBE H 15Jun2001
   VRHFIN =H: ultrasoft test

   TITEL  = PAW_PBE H 15Jun2001
   POMASS =    1.000; ZVAL   =    1.000    mass and valenz
   ENMAX  =  250.000; ENMIN  =  200.000 eV

 Optimization of the real space projectors (new method)

 maximal supplied QI-value         = 14.36
 optimisation between [QCUT,QGAM] = [ 11.92, 23.98] = [ 39.79,161.09] Ry
 Optimized for a Real-space Cutoff    1.49 Angstroem

   l    n(q)    QCUT    max X(q) W(low)/X(q) W(high)/X(q)  e(spline)
   2     10    11.920    66.195    0.79E-04    0.18E-03    0.24E-06
   2     10    11.920    64.643    0.81E-04    0.19E-03    0.24E-06
   0     11    11.920    95.520    0.28E-04    0.54E-04    0.18E-06
   0     11    11.920    63.403    0.27E-04    0.52E-04    0.17E-06
   1     10    11.920    19.961    0.18E-04    0.11E-03    0.23E-06
   1     10    11.920    13.289    0.25E-04    0.87E-04    0.19E-06
 Optimization of the real space projectors (new method)

[...]

   l    n(q)    QCUT    max X(q) W(low)/X(q) W(high)/X(q)  e(spline)
   2      9    11.864    60.317    0.21E-03    0.51E-03    0.25E-06
   2      9    11.864    55.921    0.21E-03    0.51E-03    0.26E-06
   0      9    11.864    51.690    0.22E-03    0.30E-04    0.17E-06
   0      9    11.864    30.015    0.20E-03    0.28E-04    0.15E-06
   1      9    11.864    18.849    0.76E-04    0.33E-03    0.17E-06
   1      9    11.864    14.624    0.60E-04    0.28E-03    0.15E-06
 Optimization of the real space projectors (new method)

 maximal supplied QI-value         = 34.20
 optimisation between [QCUT,QGAM] = [ 11.97, 23.94] = [ 40.13,160.53] Ry
 Optimized for a Real-space Cutoff    1.18 Angstroem

   l    n(q)    QCUT    max X(q) W(low)/X(q) W(high)/X(q)  e(spline)
   0      8    11.971    19.460    0.15E-03    0.31E-03    0.25E-06
   0      8    11.971    12.209    0.13E-03    0.29E-03    0.25E-06
   1      8    11.971     4.655    0.22E-03    0.24E-03    0.21E-06
  PAW_PBE Pt 04Feb2005                  :
  PAW_PBE Fe 06Sep2000                  :
  PAW_PBE Co 02Aug2007                  :
  PAW_PBE Ni 02Aug2007                  :
  PAW_PBE H 15Jun2001                   :

 POSCAR: 11.26
  positions in direct lattice
  velocities in cartesian coordinates
 exchange correlation table for  LEXCH =        8
   RHO(1)=    0.500       N(1)  =     2000
   RHO(2)=  100.500       N(2)  =     4000

 ion  position               nearest neighbor table
   1  0.783  0.870  0.304-  52 2.53  59 2.56  28 2.70  19 2.74   2 2.76  61 2.77   4 2.79  29 2.79
                            60 2.81  33 2.81  11 2.86  12 2.86
   2  0.029  0.871  0.301-  79 2.51  77 2.53   1 2.76  30 2.77  33 2.80   4 2.80  28 2.81  60 2.85
                             6 2.86  16 2.95  22 2.95
   3  0.281  0.360  0.311-  64 2.53  68 2.61  31 2.64   5 2.73  43 2.74  13 2.77  39 2.78  25 2.79
                            30 2.79  19 2.84  33 2.85  18 2.92
   4  0.866  0.958  0.406-  60 2.60  17 2.75   9 2.76  11 2.78   1 2.79   2 2.80  12 2.83  16 2.87
                             6 2.87
   5  0.111  0.457  0.410-  39 2.62  33 2.69  12 2.73   3 2.73  16 2.73   7 2.78  10 2.79  25 2.88
                            13 2.89
   6  0.125  0.952  0.405-  55 2.68  22 2.73  14 2.80  10 2.81   9 2.83   8 2.83   2 2.86   4 2.87
                            16 2.90
   7  0.869  0.447  0.411-  39 2.59  75 2.66  29 2.73   9 2.74  15 2.75   5 2.78  10 2.80  27 2.85
                            12 2.89
   8  0.375  0.954  0.417-  55 2.51  43 2.60  61 2.69  13 2.76  11 2.77  27 2.77  10 2.82   6 2.83
                            14 2.88
   9  0.871  0.202  0.406-  75 2.58  60 2.65   7 2.74  17 2.76   4 2.76  22 2.79  15 2.82   6 2.83
                            10 2.84
  10  0.123  0.203  0.411-  43 2.63  39 2.64  22 2.74  13 2.78   5 2.79   7 2.80   6 2.81   8 2.82
                             9 2.84
  11  0.625  0.947  0.413-  61 2.64  19 2.72  12 2.75  27 2.76   8 2.77   4 2.78  13 2.85   1 2.86
                            17 2.88
  12  0.871  0.703  0.411-  29 2.68  33 2.71  16 2.73   5 2.73  11 2.75  27 2.82   4 2.83   1 2.86
                             7 2.89
  13  0.371  0.202  0.415-  43 2.64   8 2.76  19 2.77   3 2.77  10 2.78  25 2.79  17 2.85  11 2.85
                             5 2.89
  14  0.372  0.700  0.404-  44 2.52  55 2.59  15 2.77  25 2.80   6 2.80  27 2.81  30 2.84  16 2.88
                             8 2.88
  15  0.620  0.455  0.408-  81 1.65  75 2.62  44 2.62   7 2.75  14 2.77  18 2.77  17 2.79  27 2.80
                            25 2.81   9 2.82
  16  0.117  0.698  0.411-  33 2.71  30 2.72  12 2.73   5 2.73  25 2.82   4 2.87  14 2.88   6 2.90
                             2 2.95
  17  0.624  0.205  0.411-  81 1.73  60 2.61   4 2.75  19 2.76   9 2.76  18 2.76  15 2.79  25 2.79
                            13 2.85  11 2.88
  18  0.539  0.365  0.307-  67 2.51  68 2.60  26 2.68  60 2.69  25 2.76  17 2.76  15 2.77  75 2.79
                            19 2.85   3 2.92  30 2.94  44 3.01
  19  0.538  0.112  0.313-  68 2.49  80 2.53  59 2.55  43 2.69  61 2.70  11 2.72  60 2.74   1 2.74
                            17 2.76  13 2.77   3 2.84  18 2.85
  20  0.538  0.117  0.053-  47 2.51  37 2.56  51 2.64  63 2.67  50 2.71  62 2.73  34 2.74  46 2.79
                            45 2.87
  21  0.106  0.420  0.118-  40 2.50  36 2.51  50 2.54  70 2.60  47 2.66  42 2.66  64 2.70  69 2.71
                            31 2.79  53 3.03
  22  0.049  0.123  0.306-  77 2.51  65 2.52  58 2.54  39 2.69   6 2.73  10 2.74  43 2.76   9 2.79
                            75 2.86  55 2.92   2 2.95  60 3.07  31 3.27
  23  0.025  0.110  0.043-  40 2.54  41 2.55  70 2.56  35 2.67  62 2.71  24 2.74  56 2.77  76 2.83
                            45 2.93
  24  0.117  0.952  0.146-  79 2.49  35 2.51  70 2.62  77 2.62  58 2.62  56 2.64  48 2.66  73 2.70
                            66 2.72  23 2.74  41 2.84  38 2.93
  25  0.372  0.450  0.409-  18 2.76  30 2.78   3 2.79  17 2.79  13 2.79  14 2.80  15 2.81  16 2.82
                             5 2.88
  26  0.451  0.562  0.222-  73 2.52  74 2.53  54 2.55  79 2.59  30 2.62  44 2.62  32 2.67  18 2.68
                            78 2.68  67 2.98  48 2.99
  27  0.620  0.704  0.413-  44 2.55  61 2.65  11 2.76   8 2.77  29 2.79  15 2.80  14 2.81  12 2.82
                             7 2.85
  28  0.949  0.756  0.207-  48 2.55  53 2.56  66 2.63  42 2.65  33 2.65   1 2.70  64 2.70   2 2.81
                            52 2.85  36 2.90  59 3.15
  29  0.797  0.616  0.313-  42 2.58  52 2.59  32 2.62  39 2.67  12 2.68  33 2.68   7 2.73  44 2.79
                             1 2.79  27 2.79  75 2.85  61 2.89
  30  0.266  0.616  0.306-  79 2.51  33 2.58  26 2.62  64 2.70  16 2.72   2 2.77  25 2.78   3 2.79
                            14 2.84  18 2.94  44 3.19  55 3.29
  31  0.191  0.261  0.224-  70 2.48  58 2.52  47 2.57  39 2.61  43 2.61   3 2.64  65 2.68  64 2.74
                            21 2.79  80 2.81  42 2.83  68 3.00  22 3.27
  32  0.700  0.539  0.222-  69 2.53  54 2.60  44 2.62  29 2.62  75 2.63  57 2.63  65 2.66  26 2.67
                            52 2.68  42 2.70  67 2.73  78 2.76
  33  0.034  0.620  0.311-  64 2.55  30 2.58  28 2.65  29 2.68   5 2.69  16 2.71  12 2.71  42 2.73
                             2 2.80   1 2.81  39 2.82   3 2.85
  34  0.791  0.885  0.059-  51 2.33  66 2.39  53 2.60  62 2.68  35 2.73  20 2.74  36 2.75  63 2.89

  35  0.043  0.865  0.057-  36 2.40  24 2.51  66 2.52  23 2.67  34 2.73  48 2.84  72 2.85  56 2.85
                            62 3.00
  36  0.042  0.658  0.084-  48 2.40  35 2.40  53 2.47  21 2.51  72 2.75  34 2.75  28 2.90
  37  0.624  0.211  0.138-  59 2.38  62 2.40  67 2.45  46 2.46  68 2.48  74 2.55  20 2.56  66 2.66
                            41 2.68  54 2.71  47 2.99  51 3.04
  38  0.377  0.954  0.136-  63 2.36  45 2.39  56 2.40  58 2.42  80 2.45  73 2.50  78 2.54  57 2.61
                            47 2.77  70 2.82  51 2.87  24 2.93
  39  0.028  0.372  0.317-   7 2.59  65 2.61  31 2.61   5 2.62  42 2.64  10 2.64  29 2.67  22 2.69
                            75 2.74   3 2.78  33 2.82  43 3.01
  40  0.983  0.354  0.043-  69 2.31  76 2.42  21 2.50  23 2.54  70 2.62  71 2.63  45 3.12
  41  0.866  0.206  0.135-  77 2.42  76 2.43  67 2.44  62 2.46  65 2.52  23 2.55  69 2.55  66 2.57
                            70 2.65  37 2.68  24 2.84  54 2.87
  42  0.948  0.521  0.217-  53 2.52  69 2.54  64 2.55  65 2.57  29 2.58  39 2.64  28 2.65  21 2.66
                            32 2.70  33 2.73  31 2.83  52 2.97
  43  0.300  0.108  0.320-  58 2.48  55 2.49   8 2.60  31 2.61  80 2.61  10 2.63  13 2.64  61 2.65
                            19 2.69   3 2.74  22 2.76  39 3.01
  44  0.541  0.631  0.318-  14 2.52  78 2.55  27 2.55  32 2.62  15 2.62  26 2.62  55 2.64  61 2.67
                            29 2.79  75 2.86  18 3.01  30 3.19
  45  0.285  0.111  0.053-  38 2.39  70 2.47  47 2.48  56 2.53  63 2.71  20 2.87  23 2.93  40 3.12

  46  0.535  0.367  0.050-  54 2.40  50 2.43  37 2.46  74 2.47  76 2.54  62 2.67  72 2.72  20 2.79
                            49 2.82
  47  0.359  0.209  0.135-  50 2.40  68 2.41  45 2.48  20 2.51  31 2.57  80 2.60  21 2.66  74 2.74
                            38 2.77  70 2.92  37 2.99
  48  0.180  0.691  0.158-  79 2.40  36 2.40  72 2.41  64 2.41  73 2.49  28 2.55  24 2.66  74 2.70
                            35 2.84  26 2.99
  49  0.521  0.625  0.052-  54 2.35  73 2.38  71 2.44  57 2.44  72 2.53  56 2.78  46 2.82  76 2.90
                            63 2.95
  50  0.315  0.374  0.056-  74 2.35  47 2.40  46 2.43  21 2.54  72 2.65  20 2.71
  51  0.642  0.932  0.141-  34 2.33  52 2.34  63 2.45  59 2.53  53 2.55  80 2.56  20 2.64  57 2.67
                            66 2.78  38 2.87  37 3.04
  52  0.683  0.786  0.223-  51 2.34  78 2.41  57 2.48  61 2.52   1 2.53  53 2.55  29 2.59  80 2.65
                            32 2.68  28 2.85  42 2.97  59 3.12
  53  0.830  0.681  0.129-  57 2.36  71 2.40  36 2.47  42 2.52  52 2.55  51 2.55  28 2.56  69 2.59
                            34 2.60  21 3.03
  54  0.609  0.460  0.130-  49 2.35  46 2.40  76 2.41  26 2.55  74 2.58  32 2.60  67 2.61  69 2.68
[...]
   0.724E+01 -.563E+02 -.129E+04   -.854E+01 0.561E+02 0.129E+04   0.128E+01 0.141E+00 0.204E+01   0.245E-01 0.831E-01 -.583E-01
   -.297E+02 0.392E+02 -.262E+04   0.298E+02 -.386E+02 0.261E+04   -.144E+00 -.531E+00 0.178E+01   -.102E-01 -.522E-01 -.321E-01
   -.269E+02 -.169E+02 -.264E+04   0.260E+02 0.174E+02 0.263E+04   0.937E+00 -.559E+00 0.241E+01   -.381E-02 0.107E+00 -.676E-02
   0.516E+02 0.154E+02 -.259E+04   -.512E+02 -.158E+02 0.259E+04   -.387E+00 0.439E+00 0.188E+01   -.274E-01 -.528E-01 -.262E-01
   -.232E+02 -.147E+02 -.270E+04   0.232E+02 0.138E+02 0.270E+04   -.579E-01 0.758E+00 0.271E+01   -.224E-01 0.557E-01 -.296E-01
   0.356E+02 -.458E+01 -.279E+04   -.353E+02 0.500E+01 0.279E+04   -.238E+00 -.316E+00 0.343E+01   -.921E-02 -.101E+00 -.194E-01
   -.129E+02 0.395E+02 -.266E+04   0.133E+02 -.399E+02 0.265E+04   -.410E+00 0.394E+00 0.272E+01   -.378E-01 -.412E-01 -.313E-01
   0.207E+02 -.556E+01 -.268E+04   -.199E+02 0.597E+01 0.268E+04   -.722E+00 -.373E+00 0.261E+01   -.472E-01 -.374E-01 0.461E-01
   -.522E+02 0.933E+01 -.271E+04   0.519E+02 -.963E+01 0.270E+04   0.281E+00 0.356E+00 0.201E+01   0.418E-01 -.754E-01 -.381E-01
   -.313E+02 -.316E+01 -.265E+04   0.316E+02 0.276E+01 0.265E+04   -.347E+00 0.356E+00 0.214E+01   0.222E-01 0.547E-01 -.625E-01
   -.117E+02 -.567E+02 -.271E+04   0.111E+02 0.562E+02 0.271E+04   0.632E+00 0.542E+00 0.231E+01   0.296E-01 -.334E-01 0.251E-01
   0.712E+02 0.398E+02 -.263E+04   -.706E+02 -.393E+02 0.263E+04   -.607E+00 -.525E+00 0.259E+01   0.182E-01 0.543E-01 -.679E-01
   0.381E+02 -.147E+02 -.266E+04   -.375E+02 0.154E+02 0.266E+04   -.687E+00 -.769E+00 0.136E+01   0.225E-01 0.276E-01 -.659E-01
   -.101E+02 -.140E+02 -.262E+04   0.979E+01 0.133E+02 0.262E+04   0.358E+00 0.559E+00 0.207E+01   -.486E-01 0.539E-01 -.505E-01
   0.107E+02 -.522E+00 -.269E+04   -.101E+02 0.112E+01 0.269E+04   -.645E+00 -.508E+00 0.374E+00   0.489E-01 -.603E-01 -.161E-01
   0.729E+02 -.818E+02 -.130E+04   -.718E+02 0.811E+02 0.129E+04   -.113E+01 0.667E+00 0.207E+01   0.545E-01 -.239E-02 -.568E-01
   -.152E+02 -.352E+02 -.138E+04   0.149E+02 0.347E+02 0.138E+04   0.229E+00 0.658E+00 0.255E+01   0.974E-01 -.967E-01 -.835E-01
   0.508E+02 0.206E+02 0.274E+04   -.508E+02 -.208E+02 -.274E+04   -.647E-01 0.106E+00 -.274E+01   0.940E-02 0.915E-01 0.179E-01
   -.962E+02 -.110E+03 0.185E+04   0.960E+02 0.110E+03 -.185E+04   0.210E+00 -.207E+00 0.133E+01   0.123E+00 0.470E-01 -.938E-01
   -.244E+01 0.388E+02 -.127E+04   0.318E+01 -.379E+02 0.127E+04   -.638E+00 -.846E+00 0.221E+01   -.121E+00 -.409E-01 0.186E-01
   -.432E+02 0.102E+03 0.286E+04   0.434E+02 -.101E+03 -.286E+04   -.211E+00 -.866E+00 -.232E+01   -.537E-01 0.326E-02 -.295E-01
   0.879E+02 0.240E+02 0.133E+04   -.880E+02 -.249E+02 -.133E+04   0.150E+00 0.904E+00 -.395E+00   -.104E+00 -.426E-01 -.201E-01
   0.313E+00 -.240E+02 -.262E+04   -.114E+01 0.241E+02 0.262E+04   0.847E+00 -.167E+00 0.208E+01   0.438E-02 0.570E-01 -.119E-01
   0.100E+03 0.928E+02 -.526E+01   -.100E+03 -.924E+02 0.473E+01   -.378E+00 -.597E+00 0.207E+00   -.150E-01 0.118E-01 0.244E-01
   -.242E+02 0.309E+02 -.271E+04   0.236E+02 -.308E+02 0.271E+04   0.625E+00 -.136E+00 0.279E+01   0.981E-02 0.476E-01 -.631E-01
   -.490E+02 0.102E+02 0.370E+03   0.491E+02 -.122E+02 -.371E+03   -.985E-01 0.192E+01 0.390E+00   -.644E-01 0.262E-01 0.127E-02
   -.698E+02 -.490E+00 -.132E+04   0.707E+02 -.349E+00 0.132E+04   -.101E+01 0.740E+00 0.255E+01   0.908E-02 0.974E-01 -.660E-01
   0.316E+02 0.274E+02 -.122E+04   -.324E+02 -.271E+02 0.122E+04   0.883E+00 -.321E+00 0.187E+01   -.261E-01 0.761E-01 -.410E-01
   -.449E+02 -.990E+02 0.614E+02   0.445E+02 0.983E+02 -.614E+02   0.396E+00 0.748E+00 0.206E-01   0.473E-01 0.104E+00 -.957E-01
   -.273E+02 -.208E+02 0.287E+02   0.277E+02 0.206E+02 -.290E+02   -.283E+00 0.418E-01 0.193E+00   0.431E-01 0.422E-01 0.568E-01
   0.297E+00 -.711E+01 -.998E+03   -.107E+00 0.698E+01 0.998E+03   -.151E+00 0.111E+00 0.406E+00   -.234E-01 0.831E-01 -.333E-01
   -.367E+02 0.128E+03 0.221E+04   0.381E+02 -.127E+03 -.221E+04   -.131E+01 -.127E+01 -.382E+01   0.148E-01 0.280E-01 0.551E-01
   0.578E+02 0.102E+03 0.219E+04   -.587E+02 -.102E+03 -.218E+04   0.102E+01 -.472E-01 -.354E+01   -.595E-01 0.289E-02 0.154E-01
   0.459E+02 0.444E+02 0.193E+04   -.454E+02 -.429E+02 -.193E+04   -.500E+00 -.133E+01 -.191E+01   -.157E-01 -.432E-01 0.188E-01
   0.776E+02 0.399E+02 0.117E+04   -.769E+02 -.396E+02 -.117E+04   -.640E+00 -.279E+00 -.324E+00   -.262E-01 -.714E-01 -.196E-01
   -.211E+02 -.117E+03 0.123E+04   0.213E+02 0.117E+03 -.123E+04   -.294E+00 0.783E-01 -.900E-01   0.673E-01 0.583E-02 -.403E-01
   -.635E+02 -.337E+02 -.109E+04   0.633E+02 0.337E+02 0.109E+04   0.254E+00 -.139E+00 0.618E-01   -.315E-01 0.876E-01 -.358E-01
   -.245E+03 -.491E+02 0.234E+04   0.243E+03 0.483E+02 -.234E+04   0.238E+01 0.762E+00 -.456E+01   0.555E-01 0.124E-01 -.150E-01
   -.211E+02 0.631E+02 0.120E+04   0.205E+02 -.630E+02 -.120E+04   0.717E+00 -.122E+00 -.482E+00   -.678E-01 -.405E-01 -.232E-01
   -.106E+03 -.439E+02 0.123E+03   0.106E+03 0.440E+02 -.123E+03   0.285E+00 -.137E+00 -.200E+00   -.194E-03 0.998E-01 -.288E-01
   0.812E+01 -.973E+02 -.116E+04   -.810E+01 0.970E+02 0.116E+04   -.488E-01 0.391E+00 0.390E+00   0.288E-01 -.771E-01 0.185E-01
   0.347E+02 0.825E+02 -.114E+04   -.346E+02 -.818E+02 0.114E+04   -.192E+00 -.898E+00 -.340E+00   0.207E-01 0.374E-01 -.195E-01
   -.438E+02 -.108E+03 0.224E+04   0.442E+02 0.105E+03 -.224E+04   -.393E+00 0.263E+01 -.418E+01   0.632E-01 0.711E-01 -.295E-01
   0.835E+02 0.144E+02 0.229E+04   -.832E+02 -.144E+02 -.228E+04   -.209E+00 0.104E+00 -.334E+01   -.140E+00 -.801E-01 -.148E-02
   0.318E+02 -.159E+02 0.123E+04   -.322E+02 0.158E+02 -.123E+04   0.304E+00 -.726E-01 0.323E+00   0.720E-01 0.816E-01 -.120E+00
   0.154E+03 0.151E+01 0.902E+03   -.154E+03 -.145E+01 -.904E+03   0.650E+00 -.550E-01 0.110E+01   -.549E-01 -.214E-01 0.481E-02
   0.508E+02 -.406E+02 0.260E+04   -.509E+02 0.408E+02 -.259E+04   0.199E+00 -.218E+00 -.286E+01   -.189E-01 -.128E-01 -.132E-01
   0.190E+03 -.512E+02 0.250E+04   -.188E+03 0.509E+02 -.250E+04   -.180E+01 0.435E+00 -.372E+01   -.261E-01 -.805E-02 -.133E-01
   -.717E+02 -.551E+02 0.129E+04   0.712E+02 0.545E+02 -.129E+04   0.461E+00 0.650E+00 -.108E+00   0.883E-01 -.379E-02 0.586E-01
   -.164E+03 0.295E+02 0.359E+02   0.164E+03 -.293E+02 -.358E+02   0.311E+00 -.231E+00 -.199E+00   0.773E-01 0.110E-01 0.377E-02
   -.220E+03 -.602E+01 0.150E+04   0.220E+03 0.694E+01 -.150E+04   -.177E+00 -.102E+01 0.801E-01   0.587E-01 0.437E-01 0.576E-01
   0.460E+02 0.877E+01 0.134E+04   -.459E+02 -.916E+01 -.134E+04   0.276E-01 0.474E+00 -.235E+00   -.263E-01 -.650E-01 0.497E-01
   0.120E+03 0.215E+02 -.136E+04   -.119E+03 -.213E+02 0.136E+04   -.907E+00 -.137E+00 0.279E+00   0.293E-02 -.123E+00 0.405E-01
   0.668E+02 -.236E+02 0.256E+04   -.660E+02 0.240E+02 -.256E+04   -.914E+00 -.515E+00 -.276E+01   -.216E-01 0.436E-01 -.229E-01
   -.632E+02 -.674E+01 0.139E+04   0.632E+02 0.717E+01 -.139E+04   -.964E-01 -.501E+00 -.110E-01   0.122E+00 0.371E-01 0.953E-01
   0.842E+02 -.117E+03 0.980E+01   -.839E+02 0.117E+03 -.928E+01   -.428E+00 0.776E-01 -.723E+00   -.137E-01 -.901E-01 0.150E-01
   0.239E+02 0.101E+03 0.932E+02   -.239E+02 -.101E+03 -.931E+02   0.653E-02 -.320E+00 -.604E-01   0.790E-02 -.710E-01 -.469E-01
   0.111E+01 0.513E+02 -.127E+04   -.123E+01 -.510E+02 0.127E+04   0.170E+00 -.297E+00 0.241E+00   -.123E-01 -.487E-01 -.571E-01
[...]
   0.531E+02 -.861E+02 0.968E+02   -.527E+02 0.859E+02 -.964E+02   -.496E+00 0.286E+00 -.158E+00   0.592E-01 -.328E-01 -.980E-01
   -.146E+03 -.478E+02 0.150E+04   0.146E+03 0.481E+02 -.150E+04   0.306E+00 -.270E+00 -.833E+00   0.526E-01 0.447E-01 0.262E-01
   -.904E+02 0.115E+00 0.153E+04   0.908E+02 -.524E+00 -.153E+04   -.495E+00 0.317E+00 -.677E+00   0.142E-01 0.565E-01 -.809E-01
   -.229E+03 -.130E+03 0.291E+04   0.228E+03 0.129E+03 -.291E+04   0.146E+01 0.981E+00 -.353E+01   0.124E+00 0.681E-02 0.235E-01
   0.213E+03 -.337E+02 0.271E+04   -.212E+03 0.335E+02 -.271E+04   -.502E-01 0.283E+00 -.159E+01   -.156E+00 -.120E+00 0.952E-02
   0.106E+03 0.825E+01 0.149E+04   -.106E+03 -.836E+01 -.149E+04   -.241E+00 0.164E+00 0.680E-01   -.615E-01 0.135E-02 0.626E-01
   0.142E+03 -.319E+02 0.130E+04   -.141E+03 0.318E+02 -.130E+04   -.486E+00 0.246E+00 -.432E+00   -.120E+00 -.580E-01 -.115E+00
   -.122E+01 -.462E+02 -.141E+04   0.911E+00 0.459E+02 0.141E+04   0.392E+00 0.324E+00 0.280E+00   -.407E-01 0.324E-01 -.438E-01
   0.244E+02 0.222E+02 0.287E+04   -.249E+02 -.218E+02 -.287E+04   0.547E+00 -.307E+00 -.859E+00   -.124E-01 -.100E+00 -.180E-01
   -.588E+02 0.168E+03 -.121E+02   0.590E+02 -.168E+03 0.125E+02   0.328E-01 -.313E-01 -.484E+00   -.118E+00 -.471E-01 -.141E-01
   -.257E+02 0.563E+02 -.140E+02   0.256E+02 -.554E+02 0.140E+02   0.117E+00 -.778E+00 -.997E-01   0.771E-01 -.668E-01 0.879E-01
   0.208E+03 0.321E+02 -.174E+03   -.208E+03 -.316E+02 0.174E+03   0.110E+00 -.479E+00 -.527E+00   -.550E-01 -.717E-01 0.597E-01
   -.631E+02 -.897E+02 0.125E+03   0.630E+02 0.894E+02 -.125E+03   0.234E-01 0.318E+00 0.180E+00   0.177E+00 -.773E-01 -.544E-01
   -.208E+01 -.437E+01 -.320E+03   0.233E+01 0.474E+01 0.322E+03   -.233E+00 -.384E+00 -.172E+01   0.134E-02 -.328E-02 0.190E-02
   -.444E+00 0.354E+00 -.105E+01   0.461E-12 -.426E-13 0.154E-10   0.531E+00 -.138E+00 0.231E+01   -.893E-01 -.183E+00 -.124E+01

 POSITION                                       TOTAL-FORCE (eV/Angst)
     13.67267      8.46744      6.69162         0.004702     -0.007390     -0.007757
      5.21297      8.45803      6.58545         0.003192     -0.002653     -0.009883
      5.17167      3.49989      6.83713        -0.001083      0.011825     -0.006221
     15.14794      9.27129      8.92299        -0.016856      0.018989      0.001799
      3.82410      4.44823      9.02378         0.007718      0.005277     -0.000926
      6.72502      9.20974      8.84692         0.020961      0.004314      0.005101
     12.28043      4.34821      9.05502         0.001889     -0.001576      0.000561
      9.55832      9.26360      9.15201        -0.011710      0.003934     -0.001742
     10.94451      1.92165      8.91878        -0.001633      0.004965     -0.014512
      2.53244      1.97426      9.03838         0.007214     -0.008218     -0.000667
     12.33676      9.23065      9.09033         0.015362     -0.002355      0.011988
     13.74185      6.84652      9.04344         0.004161      0.005107     -0.002671
      5.28273      1.95584      9.13987        -0.004098     -0.001318      0.015121
      8.07806      6.83805      8.91224        -0.000983     -0.002957      0.003035
      9.53847      4.46430      9.03303        -0.015054     -0.020104      0.015179
      5.25678      6.84069      8.96813        -0.007236     -0.013465      0.000520
      8.10331      1.94797      9.10877         0.017702      0.017084     -0.016669
      8.11138      3.55204      6.78994        -0.003954     -0.006447      0.010677
      6.67170      1.09801      6.89260         0.018328      0.008405     -0.008452
      6.68830      1.13624      1.16869         0.005194     -0.025398     -0.038040
      3.54481      4.07903      2.60632        -0.003226      0.006858     -0.039938
      1.25660      1.21218      6.73747         0.001629      0.007940      0.002685
      0.89178      1.06685      0.94626        -0.006036     -0.002879     -0.015972
      6.65662      9.25676      3.21225         0.006402      0.029541     -0.039955
      6.64243      4.41975      8.99689         0.002993      0.007426      0.002803
      8.21162      5.46055      4.88522        -0.205050     -0.105766     -0.240219
     10.90760      6.83882      9.05738        -0.012778     -0.003412     -0.005096
     14.89052      7.35140      4.54429        -0.018307      0.003465      0.036076
     12.41305      5.98173      6.87557        -0.001990     -0.003213      0.004553
      6.45538      5.96702      6.72745         0.004150      0.002726      0.007741
      3.61025      2.53567      4.92929        -0.110392      0.182182     -0.070434
     10.87699      5.23710      4.87771         0.197517     -0.033205     -0.041398
      3.86381      6.04080      6.84644         0.006445     -0.000038      0.003756
     13.83953      8.59728      1.29834         0.013529      0.008989      0.013903
      5.33586      8.40288      1.25445         0.010192     -0.012526      0.050022
      4.16277      6.39081      1.85096         0.019124     -0.016838      0.012433
      8.19107      2.05273      3.03386         0.005487     -0.004270     -0.024431
      9.58169      9.27602      2.99468         0.051047      0.010415      0.045443
      2.41208      3.62070      6.97892         0.000128      0.002964     -0.011318
     13.01773      3.43953      0.94254        -0.029143      0.004111      0.003955
     10.87071      1.99839      2.96738         0.024655      0.000357     -0.007922
     13.56890      5.06817      4.77058         0.025658      0.010549     -0.001737
      3.99378      1.05425      7.03851        -0.008577     -0.010631     -0.001916
      9.59064      6.16142      6.98758        -0.001808     -0.033901      0.025768
      3.81646      1.07543      1.16136        -0.015864     -0.017003     -0.003922
      8.06104      3.56771      1.10023         0.000220     -0.005641     -0.005471
      5.20370      2.03419      2.97809         0.010303     -0.067926      0.103714
      5.89506      6.72021      3.47528        -0.019628     -0.009604     -0.032434
      9.35391      6.06988      1.14808         0.012856     -0.027176      0.017061
      5.63380      3.63292      1.23723         0.050762      0.069119      0.006766
     12.43866      9.06023      3.09611         0.009547      0.011697     -0.026141
     12.07766      7.63668      4.91324         0.028465     -0.032351      0.025305
     13.13008      6.61689      2.83040        -0.055145      0.010593     -0.030500
      9.41148      4.47169      2.86934         0.019617     -0.034211      0.005232
      8.50169      8.52913      7.00973         0.015645      0.000354     -0.009434
      8.18243      8.58957      1.16315        -0.013157      0.007625     -0.029650
     10.79405      6.97057      2.90238        -0.008580      0.008366      0.036441
      2.82111      0.14512      5.04740        -0.202327     -0.050140     -0.062327
      8.14725      0.55026      4.88481         0.022374     -0.007236      0.084944
      9.40298      1.22385      6.89821        -0.003312      0.029634      0.013231
[...]
      9.60048      2.82018      4.87865        -0.087976      0.056355      0.095484
      6.60502      2.54502      4.87077         0.042702      0.022739      0.081139
     12.08196      4.24602      2.88896         0.012446      0.007395     -0.054727
      2.28916      1.82528      2.94996        -0.009211     -0.034748      0.028431
     11.76886      5.74999      1.05362        -0.000627     -0.003605     -0.016193
      6.84033      5.98705      1.38644        -0.010506      0.003908      0.004122
      8.30437      7.12497      3.00063         0.003310      0.040177      0.034590
      6.85459      4.22009      3.15394        -0.050741     -0.034177     -0.003481
     10.87371      3.56748      6.91886        -0.011313      0.007862      0.005517
     10.60151      3.45495      1.03917        -0.004631     -0.002482     -0.026460
     10.73179      0.68889      4.99664        -0.014168      0.013976     -0.008474
      9.67006      7.71157      4.99333         0.054392      0.143248      0.085901
      7.17143      7.81748      5.18228         0.028574     -0.040570     -0.007624
      5.29940      0.29561      4.91544         0.119017     -0.088325     -0.113490
      8.81917      3.16942     10.05571         0.019172     -0.020662      0.023060
    total drift:                               -0.001554      0.033085      0.014480

  FREE ENERGIE OF THE ION-ELECTRON SYSTEM (eV)
  free  energy   TOTEN  =      -538.38559806 eV

  energy  without entropy=     -538.40134935  energy(sigma->0) =     -538.39084849

 d Force = 0.1387315E-02[ 0.102E-02, 0.176E-02]  d Energy = 0.1315847E-02 0.715E-04
 d Force = 0.2015573E+02[ 0.201E+02, 0.202E+02]  d Ewald  = 0.2015573E+02-0.426E-07

 Conjugate gradient step on ions:
 trial-energy change:   -0.001316  1 .order   -0.001387   -0.001755   -0.001020
  (g-gl).g = 0.111E-02      g.g   = 0.103E-02  gl.gl    = 0.147E-02
 g(Force)  = 0.103E-02   g(Stress)= 0.000E+00 ortho     = 0.756E-05
 gamma     =   0.75700
 trial     =   1.69650
 opt step  =   4.04799  (harmonic =   4.04799) maximal distance =0.01817329
 next E    =  -538.386376   (d E  =  -0.00209)

 reached required accuracy - stopping structural energy minimisation