 vasp.5.4.4.18Apr17-6-g9f103f2a35 (build Oct 25 2019 11:13:22) complex

 executed on             LinuxIFC date 2021.10.13  23:33:17

 INCAR:
 POTCAR:    PAW_PBE Pt 04Feb2005
 POTCAR:    PAW_PBE Fe 06Sep2000
 POTCAR:    PAW_PBE Co 02Aug2007
 POTCAR:    PAW_PBE Cu 22Jun2005
 POTCAR:    PAW_PBE Ni 02Aug2007
 POTCAR:    PAW_PBE H 15Jun2001
 POTCAR:    PAW_PBE Pt 04Feb2005
   VRHFIN =Pt: s1d9

   TITEL  = PAW_PBE Pt 04Feb2005
   POMASS =  195.080; ZVAL   =   10.000    mass and valenz
   ENMAX  =  230.283; ENMIN  =  172.712 eV

 POTCAR:    PAW_PBE Fe 06Sep2000
   VRHFIN =Fe:  d7 s1

   TITEL  = PAW_PBE Fe 06Sep2000
   POMASS =   55.847; ZVAL   =    8.000    mass and valenz
   ENMAX  =  267.882; ENMIN  =  200.911 eV

 POTCAR:    PAW_PBE Co 02Aug2007
   VRHFIN =Co: d8 s1

   TITEL  = PAW_PBE Co 02Aug2007
   POMASS =   58.933; ZVAL   =    9.000    mass and valenz
   ENMAX  =  267.968; ENMIN  =  200.976 eV

 POTCAR:    PAW_PBE Cu 22Jun2005
   VRHFIN =Cu: d10 p1

   TITEL  = PAW_PBE Cu 22Jun2005
   POMASS =   63.546; ZVAL   =   11.000    mass and valenz
   ENMAX  =  295.446; ENMIN  =  221.585 eV

 POTCAR:    PAW_PBE Ni 02Aug2007
   VRHFIN =Ni:

   TITEL  = PAW_PBE Ni 02Aug2007
   POMASS =   58.690; ZVAL   =   10.000    mass and valenz
   ENMAX  =  269.532; ENMIN  =  202.149 eV

 POTCAR:    PAW_PBE H 15Jun2001
   VRHFIN =H: ultrasoft test

   TITEL  = PAW_PBE H 15Jun2001
   POMASS =    1.000; ZVAL   =    1.000    mass and valenz
   ENMAX  =  250.000; ENMIN  =  200.000 eV

 Optimization of the real space projectors (new method)

 maximal supplied QI-value         = 14.36
 optimisation between [QCUT,QGAM] = [ 11.92, 23.98] = [ 39.79,161.09] Ry
 Optimized for a Real-space Cutoff    1.49 Angstroem

   l    n(q)    QCUT    max X(q) W(low)/X(q) W(high)/X(q)  e(spline)
   2     10    11.920    66.195    0.79E-04    0.18E-03    0.24E-06
   2     10    11.920    64.643    0.81E-04    0.19E-03    0.24E-06
   0     11    11.920    95.520    0.28E-04    0.54E-04    0.18E-06
   0     11    11.920    63.403    0.27E-04    0.52E-04    0.17E-06
   1     10    11.920    19.961    0.18E-04    0.11E-03    0.23E-06
   1     10    11.920    13.289    0.25E-04    0.87E-04    0.19E-06
 Optimization of the real space projectors (new method)

[...]

   l    n(q)    QCUT    max X(q) W(low)/X(q) W(high)/X(q)  e(spline)
   2      9    11.864    60.317    0.21E-03    0.51E-03    0.25E-06
   2      9    11.864    55.921    0.21E-03    0.51E-03    0.26E-06
   0      9    11.864    51.690    0.22E-03    0.30E-04    0.17E-06
   0      9    11.864    30.015    0.20E-03    0.28E-04    0.15E-06
   1      9    11.864    18.849    0.76E-04    0.33E-03    0.17E-06
   1      9    11.864    14.624    0.60E-04    0.28E-03    0.15E-06
 Optimization of the real space projectors (new method)

 maximal supplied QI-value         = 34.20
 optimisation between [QCUT,QGAM] = [ 11.97, 23.94] = [ 40.13,160.53] Ry
 Optimized for a Real-space Cutoff    1.18 Angstroem

   l    n(q)    QCUT    max X(q) W(low)/X(q) W(high)/X(q)  e(spline)
   0      8    11.971    19.460    0.15E-03    0.31E-03    0.25E-06
   0      8    11.971    12.209    0.13E-03    0.29E-03    0.25E-06
   1      8    11.971     4.655    0.22E-03    0.24E-03    0.21E-06
  PAW_PBE Pt 04Feb2005                  :
  PAW_PBE Fe 06Sep2000                  :
  PAW_PBE Co 02Aug2007                  :
  PAW_PBE Cu 22Jun2005                  :
  PAW_PBE Ni 02Aug2007                  :
  PAW_PBE H 15Jun2001                   :

 POSCAR: 10.66
  positions in direct lattice
  velocities in cartesian coordinates
 exchange correlation table for  LEXCH =        8
   RHO(1)=    0.500       N(1)  =     2000
   RHO(2)=  100.500       N(2)  =     4000

 ion  position               nearest neighbor table
   1  0.787  0.879  0.317-  49 2.62  28 2.62  59 2.64  19 2.66  33 2.68  61 2.68  29 2.70  60 2.70
                             2 2.74  11 2.76   4 2.84  12 2.84
   2  0.042  0.882  0.316-  79 2.56  77 2.60  60 2.65  30 2.66  28 2.67  52 2.69  33 2.69  22 2.71
                             1 2.74   6 2.79   4 2.87  16 2.94
   3  0.279  0.381  0.319-  64 2.57  39 2.59  33 2.61  31 2.63  68 2.71  19 2.73  43 2.73  30 2.73
                             5 2.77  13 2.79  25 2.84  18 2.84
   4  0.870  0.964  0.425-  81 1.81  17 2.63  11 2.64   9 2.67  12 2.70   6 2.72  16 2.74  60 2.83
                             1 2.84   2 2.87
   5  0.121  0.462  0.426-  16 2.63  12 2.64  10 2.65   7 2.65  13 2.70  25 2.70  39 2.71  33 2.72
                             3 2.77
   6  0.125  0.964  0.422-   8 2.63  10 2.65   9 2.68  14 2.69   4 2.72  16 2.74   2 2.79  52 2.80
                            22 2.86
   7  0.874  0.460  0.425-   9 2.64  15 2.64   5 2.65  10 2.66  12 2.66  39 2.69  27 2.69  75 2.75
                            29 2.79
   8  0.374  0.960  0.419-  43 2.60   6 2.63  14 2.64  27 2.65  13 2.66  11 2.67  10 2.67  52 2.68
                            61 2.71
   9  0.872  0.213  0.419-  81 1.86  15 2.64   7 2.64  17 2.66  75 2.66   4 2.67   6 2.68  10 2.69
                            60 2.71  22 2.80
  10  0.125  0.212  0.421-  13 2.64   5 2.65   6 2.65   7 2.66  39 2.66   8 2.67   9 2.69  43 2.72
                            22 2.77
  11  0.624  0.961  0.422-   4 2.64  13 2.66  27 2.66  12 2.66   8 2.67  17 2.67   1 2.76  19 2.81
                            61 2.82
  12  0.873  0.710  0.424-   5 2.64   7 2.66  27 2.66  11 2.66  33 2.69  16 2.69   4 2.70  29 2.78
                             1 2.84
  13  0.374  0.209  0.423-  10 2.64  11 2.66   8 2.66  17 2.67  25 2.69   5 2.70  43 2.75   3 2.79
                            19 2.81
  14  0.377  0.712  0.422-  27 2.61   8 2.64  15 2.65  44 2.67  25 2.68   6 2.69  16 2.70  52 2.73
                            30 2.75
  15  0.626  0.462  0.421-   9 2.64   7 2.64  27 2.65  14 2.65  25 2.68  17 2.68  44 2.69  75 2.71
                            18 2.76
  16  0.127  0.707  0.427-  25 2.63   5 2.63  12 2.69  14 2.70  33 2.71   4 2.74   6 2.74  30 2.84
                             2 2.94
  17  0.624  0.211  0.421-  81 1.88   4 2.63   9 2.66  25 2.66  11 2.67  13 2.67  15 2.68  18 2.75
                            60 2.77  19 2.85
  18  0.548  0.376  0.316-  67 2.56  60 2.62  75 2.63  68 2.65  26 2.66  44 2.66  30 2.74  17 2.75
                            19 2.75  15 2.76   3 2.84  25 2.86
  19  0.534  0.125  0.314-  80 2.55  68 2.57  43 2.58  59 2.60   1 2.66  61 2.66   3 2.73  18 2.75
                            60 2.78  13 2.81  11 2.81  17 2.85
  20  0.549  0.122  0.042-  37 2.55  57 2.55  48 2.57  62 2.66  63 2.70  34 2.71  45 2.73  47 2.74
                            56 2.74
  21  0.120  0.460  0.128-  40 2.52  36 2.53  47 2.53  42 2.60  64 2.62  69 2.62  70 2.66  50 2.67
                            31 2.71  58 2.71  57 2.74  74 2.75
  22  0.044  0.136  0.314-  65 2.52  55 2.54  77 2.57  43 2.60  39 2.61  75 2.64   2 2.71  60 2.71
                            52 2.75  10 2.77   9 2.80   6 2.86  31 3.41
  23  0.042  0.131  0.034-  70 2.57  40 2.60  41 2.61  45 2.64  62 2.65  76 2.65  24 2.69  35 2.76
                            53 2.81
  24  0.131  0.958  0.132-  79 2.52  77 2.55  35 2.57  53 2.58  55 2.59  70 2.64  38 2.66  58 2.66
                            73 2.67  23 2.69  66 2.73  41 2.75
  25  0.375  0.461  0.424-  16 2.63  17 2.66  15 2.68  14 2.68  13 2.69   5 2.70  30 2.82   3 2.84
                            18 2.86
  26  0.455  0.546  0.219-  73 2.50  74 2.54  51 2.55  79 2.63  64 2.65  30 2.66  18 2.66  68 2.69
                            78 2.69  32 2.70  44 2.74  67 2.75
  27  0.622  0.712  0.423-  14 2.61   8 2.65  15 2.65  11 2.66  12 2.66   7 2.69  44 2.70  61 2.77
                            29 2.78
  28  0.956  0.789  0.221-  58 2.56  66 2.58  50 2.58  42 2.61   1 2.62  49 2.64  64 2.66   2 2.67
                            33 2.70  59 2.74  79 2.80  77 2.81
  29  0.794  0.623  0.319-  42 2.56  39 2.56  75 2.60  32 2.62  44 2.67  33 2.67  49 2.68  61 2.70
                             1 2.70  12 2.78  27 2.78   7 2.79
  30  0.290  0.631  0.318-  79 2.56  64 2.61  52 2.63  26 2.66  44 2.66   2 2.66  33 2.67   3 2.73
                            18 2.74  14 2.75  25 2.82  16 2.84
  31  0.202  0.280  0.225-  70 2.51  55 2.58  43 2.58  65 2.59  57 2.60   3 2.63  39 2.66  21 2.71
                            80 2.72  42 2.74  68 2.79  64 2.83  22 3.41
  32  0.706  0.550  0.221-  54 2.53  69 2.56  51 2.58  49 2.60  29 2.62  42 2.62  78 2.64  65 2.65
                            75 2.68  44 2.69  26 2.70  67 2.72
  33  0.040  0.632  0.325-   3 2.61  30 2.67  39 2.67  29 2.67   1 2.68  12 2.69   2 2.69  28 2.70
                            64 2.70  16 2.71   5 2.72  42 2.73
  34  0.796  0.862  0.044-  50 2.39  66 2.51  48 2.52  36 2.55  71 2.58  63 2.62  20 2.71  62 2.79
                            35 2.80
  35  0.057  0.865  0.039-  58 2.54  72 2.55  36 2.56  24 2.57  66 2.62  53 2.68  23 2.76  62 2.76
                            34 2.80
  36  0.044  0.632  0.039-  21 2.53  34 2.55  35 2.56  58 2.58  50 2.59  47 2.67  72 2.69  71 2.74
                            40 2.76
  37  0.628  0.224  0.129-  51 2.51  67 2.52  56 2.52  74 2.53  20 2.55  68 2.56  59 2.56  41 2.57
                            62 2.59  66 2.69  57 2.76  48 2.95
  38  0.383  0.954  0.131-  53 2.46  45 2.47  80 2.47  78 2.53  73 2.56  63 2.56  48 2.56  54 2.58
                            55 2.58  57 2.65  24 2.66  70 2.70
  39  0.035  0.384  0.324-  29 2.56   3 2.59  75 2.60  22 2.61  42 2.65  10 2.66  31 2.66  33 2.67
                             7 2.69   5 2.71  65 2.74  43 2.82
  40  0.028  0.381  0.039-  69 2.42  21 2.52  71 2.54  76 2.54  70 2.56  23 2.60  36 2.76  45 2.84
                            47 2.85
  41  0.872  0.215  0.129-  76 2.45  65 2.52  77 2.53  67 2.53  37 2.57  62 2.57  69 2.59  23 2.61
                            51 2.61  70 2.68  66 2.68  24 2.75
  42  0.955  0.545  0.224-  50 2.55  29 2.56  69 2.60  21 2.60  28 2.61  32 2.62  49 2.65  39 2.65
                            65 2.65  64 2.69  33 2.73  31 2.74
  43  0.296  0.116  0.320-  55 2.52  52 2.57  31 2.58  19 2.58  61 2.59   8 2.60  22 2.60  80 2.64
                            10 2.72   3 2.73  13 2.75  39 2.82
  44  0.541  0.629  0.321-  61 2.59  52 2.60  78 2.63  30 2.66  18 2.66  14 2.67  29 2.67  75 2.68
                            15 2.69  32 2.69  27 2.70  26 2.74
  45  0.296  0.116  0.041-  38 2.47  70 2.49  57 2.57  53 2.58  23 2.64  63 2.65  20 2.73  47 2.83
                            40 2.84
  46  0.549  0.625  0.045-  51 2.38  73 2.39  54 2.41  71 2.57  53 2.59  63 2.60  76 2.62  56 2.63
                            72 2.66
  47  0.294  0.382  0.040-  74 2.41  21 2.53  57 2.64  72 2.65  56 2.66  36 2.67  20 2.74  45 2.83
                            40 2.85
  48  0.626  0.948  0.133-  49 2.39  54 2.48  80 2.49  34 2.52  59 2.56  63 2.56  38 2.56  20 2.57
                            50 2.58  57 2.68  66 2.72  37 2.95
  49  0.707  0.793  0.220-  48 2.39  50 2.47  54 2.48  80 2.57  32 2.60   1 2.62  61 2.63  28 2.64
                            78 2.64  42 2.65  29 2.68  59 2.73
  50  0.865  0.704  0.130-  34 2.39  71 2.42  49 2.47  54 2.49  42 2.55  48 2.58  28 2.58  69 2.58
[...]

 FORCES acting on ions
    electron-ion (+dipol)            ewald-force                    non-local-force                 convergence-correction
   -.388E+02 0.748E+02 -.149E+04   0.386E+02 -.749E+02 0.149E+04   0.163E+00 0.957E-01 0.212E+01   -.288E-02 0.171E-01 -.680E-01
   0.251E+02 0.611E+02 -.147E+04   -.247E+02 -.611E+02 0.147E+04   -.305E+00 0.883E-01 0.234E+01   0.256E-02 0.161E-01 -.872E-01
   0.375E+02 -.988E+01 -.152E+04   -.392E+02 0.101E+02 0.152E+04   0.169E+01 -.249E+00 0.206E+01   0.308E-01 -.116E-01 -.498E-01
   -.603E+01 0.408E+02 -.290E+04   0.616E+01 -.413E+02 0.290E+04   -.105E+00 0.519E+00 0.366E-01   -.114E-01 0.228E-01 0.369E-03
   -.113E+02 0.594E+01 -.289E+04   0.108E+02 -.556E+01 0.289E+04   0.518E+00 -.368E+00 0.158E+01   -.112E-02 -.179E-01 0.151E-01
   0.276E+01 0.297E+01 -.287E+04   -.246E+01 -.345E+01 0.287E+04   -.307E+00 0.408E+00 0.121E+01   0.124E-01 0.248E-01 -.263E-01
   -.242E+02 -.909E+01 -.291E+04   0.242E+02 0.868E+01 0.291E+04   -.634E-01 0.368E+00 0.148E+01   -.107E-01 -.908E-02 0.204E-01
   0.126E+02 -.186E+02 -.290E+04   -.129E+02 0.187E+02 0.290E+04   0.315E+00 -.754E-01 0.192E+01   -.280E-02 -.193E-02 0.139E-01
   -.334E+02 0.500E+01 -.290E+04   0.340E+02 -.439E+01 0.290E+04   -.586E+00 -.629E+00 0.710E+00   -.691E-02 0.589E-03 0.371E-01
   -.141E+02 -.293E+01 -.287E+04   0.145E+02 0.325E+01 0.287E+04   -.383E+00 -.280E+00 0.167E+01   0.896E-02 -.872E-02 0.154E-01
   -.759E+01 -.483E+01 -.290E+04   0.753E+01 0.446E+01 0.290E+04   -.894E-02 0.302E+00 0.953E+00   0.136E-01 0.161E-01 0.108E-01
   -.107E+02 0.764E+01 -.289E+04   0.110E+02 -.786E+01 0.289E+04   -.270E+00 0.231E+00 0.119E+01   -.166E-01 -.755E-03 0.302E-01
   0.803E+01 -.236E+02 -.289E+04   -.831E+01 0.233E+02 0.289E+04   0.298E+00 0.336E+00 0.996E+00   0.498E-02 0.188E-02 0.371E-01
   0.227E+02 0.104E+02 -.290E+04   -.223E+02 -.103E+02 0.290E+04   -.491E+00 -.180E+00 0.148E+01   0.172E-01 0.308E-02 0.671E-02
   0.234E+02 -.115E+02 -.289E+04   -.231E+02 0.121E+02 0.289E+04   -.337E+00 -.541E+00 0.153E+01   0.163E-01 -.238E-01 0.135E-01
   -.274E+01 0.416E+01 -.288E+04   0.242E+01 -.457E+01 0.288E+04   0.310E+00 0.424E+00 0.118E+01   0.297E-02 -.104E-01 -.172E-01
   0.383E+02 -.167E+02 -.289E+04   -.390E+02 0.173E+02 0.289E+04   0.664E+00 -.626E+00 0.622E+00   -.127E-02 0.224E-02 0.374E-01
   0.676E+02 -.653E+02 -.151E+04   -.663E+02 0.653E+02 0.151E+04   -.125E+01 -.479E-01 0.166E+01   -.250E-02 -.363E-02 -.695E-01
   0.250E+02 -.432E+02 -.150E+04   -.260E+02 0.428E+02 0.150E+04   0.970E+00 0.386E+00 0.238E+01   0.186E-01 -.209E-02 -.411E-01
   0.374E+02 0.174E+02 0.299E+04   -.375E+02 -.176E+02 -.299E+04   0.255E-01 0.371E+00 -.257E+01   0.320E-01 -.407E-01 -.260E-01
   0.250E+02 -.285E+01 0.159E+04   -.258E+02 0.355E+01 -.160E+04   0.960E+00 -.691E+00 0.891E+00   -.380E-01 0.181E-01 -.742E-01
   -.654E+02 0.108E+02 -.147E+04   0.663E+02 -.101E+02 0.147E+04   -.745E+00 -.700E+00 0.254E+01   -.169E-01 0.666E-02 -.571E-01
   -.541E+02 0.531E+02 0.305E+04   0.548E+02 -.522E+02 -.305E+04   -.714E+00 -.100E+01 -.225E+01   -.709E-02 0.488E-03 -.119E-01
   0.588E+01 -.548E+02 0.157E+04   -.565E+01 0.543E+02 -.157E+04   -.290E+00 0.477E+00 -.786E+00   0.781E-02 -.220E-01 -.110E+00
   0.125E+02 -.126E+01 -.289E+04   -.127E+02 0.132E+01 0.289E+04   0.162E+00 -.380E-01 0.833E+00   0.126E-01 -.272E-01 0.143E-01
   -.173E+02 -.272E+01 0.139E+02   0.172E+02 0.306E+01 -.150E+02   -.485E-01 -.376E+00 0.125E+01   0.300E-01 -.727E-02 -.131E+00
   -.101E+02 0.969E+01 -.291E+04   0.968E+01 -.980E+01 0.291E+04   0.504E+00 0.167E+00 0.136E+01   -.197E-02 -.771E-02 0.111E-01
   0.147E+02 0.579E+02 0.138E+02   -.157E+02 -.591E+02 -.140E+02   0.107E+01 0.115E+01 0.220E+00   -.400E-02 0.302E-01 -.110E+00
   -.651E+02 0.768E+01 -.147E+04   0.655E+02 -.885E+01 0.147E+04   -.422E+00 0.123E+01 0.286E+01   -.275E-01 0.914E-02 -.645E-01
   0.284E+02 0.275E+02 -.152E+04   -.282E+02 -.268E+02 0.152E+04   -.267E+00 -.712E+00 0.228E+01   0.251E-01 0.168E-02 -.721E-01
   0.141E+02 -.645E+02 -.675E+02   -.151E+02 0.640E+02 0.679E+02   0.103E+01 0.547E+00 -.290E+00   -.366E-02 -.105E-01 -.969E-01
   -.207E+02 -.187E+02 0.260E+01   0.215E+02 0.193E+02 -.313E+01   -.783E+00 -.769E+00 0.668E+00   -.246E-01 0.752E-02 -.140E+00
   0.187E+02 0.141E+02 -.123E+04   -.188E+02 -.145E+02 0.123E+04   0.111E+00 0.423E+00 0.428E+00   -.139E-02 -.690E-04 -.584E-01
   -.636E+02 -.565E+01 0.241E+04   0.640E+02 0.439E+01 -.240E+04   -.370E+00 0.131E+01 -.280E+01   0.180E-02 -.215E-01 -.282E-01
   0.328E+02 -.165E+02 0.244E+04   -.327E+02 0.150E+02 -.244E+04   -.572E-01 0.161E+01 -.245E+01   0.211E-01 -.995E-02 -.154E-01
   0.172E+02 0.606E+01 0.244E+04   -.172E+02 -.537E+01 -.244E+04   0.153E+00 -.830E+00 -.296E+01   -.166E-01 0.401E-01 -.229E-01
   0.148E+02 0.545E+02 0.127E+04   -.139E+02 -.538E+02 -.127E+04   -.930E+00 -.764E+00 -.794E-01   0.353E-01 0.221E-01 -.558E-01
   0.313E+02 -.609E+02 0.126E+04   -.311E+02 0.607E+02 -.126E+04   -.111E+00 0.241E+00 -.409E+00   -.212E-01 -.497E-01 -.917E-01
   -.558E+02 -.226E+02 -.122E+04   0.559E+02 0.228E+02 0.122E+04   -.161E+00 -.231E+00 0.696E+00   -.585E-02 -.222E-01 -.355E-01
   -.110E+03 0.207E+02 0.245E+04   0.110E+03 -.205E+02 -.245E+04   0.573E+00 -.213E+00 -.282E+01   -.635E-01 0.134E-01 -.125E-01
   -.340E+02 0.486E+02 0.128E+04   0.332E+02 -.482E+02 -.128E+04   0.848E+00 -.528E+00 -.423E+00   -.429E-02 0.261E-01 -.764E-01
   -.491E+02 0.284E+01 -.411E+02   0.489E+02 -.244E+01 0.411E+02   0.211E+00 -.426E+00 -.103E+00   -.287E-01 -.233E-02 -.974E-01
   0.150E+02 -.819E+02 -.123E+04   -.152E+02 0.818E+02 0.123E+04   0.144E+00 0.203E+00 0.107E+01   0.157E-02 -.323E-02 -.217E-01
   0.134E+02 0.281E+02 -.122E+04   -.135E+02 -.282E+02 0.122E+04   0.114E+00 -.214E-01 0.312E+00   -.302E-02 -.775E-03 -.612E-01
   0.569E+01 -.628E+02 0.242E+04   -.639E+01 0.619E+02 -.242E+04   0.781E+00 0.103E+01 -.287E+01   -.393E-01 -.463E-01 -.177E-01
   0.858E+01 -.148E+02 0.272E+04   -.868E+01 0.150E+02 -.272E+04   0.883E-01 -.198E+00 -.239E+01   0.224E-02 0.633E-03 -.540E-02
   0.119E+03 0.346E+02 0.276E+04   -.119E+03 -.338E+02 -.276E+04   0.389E+00 -.838E+00 -.277E+01   0.523E-02 0.296E-01 -.159E-01
   -.428E+02 -.398E+02 0.140E+04   0.423E+02 0.388E+02 -.140E+04   0.476E+00 0.112E+01 -.412E+00   -.237E-02 -.364E-01 -.741E-01
   -.639E+02 0.588E+02 0.210E+02   0.640E+02 -.586E+02 -.216E+02   -.175E-01 -.204E+00 0.748E+00   -.280E-01 -.140E-02 -.945E-01
   -.979E+02 0.160E+02 0.139E+04   0.975E+02 -.156E+02 -.139E+04   0.491E+00 -.500E+00 -.147E+00   -.334E-01 0.548E-03 -.101E+00
   -.154E+02 0.100E+02 0.137E+04   0.156E+02 -.104E+02 -.137E+04   -.132E+00 0.314E+00 -.132E+00   0.170E-01 0.501E-01 -.119E+00
   0.434E+02 0.616E+01 -.139E+04   -.433E+02 -.633E+01 0.138E+04   -.200E+00 0.214E+00 0.136E+01   0.169E-02 -.233E-02 -.577E-01
   0.566E+02 -.799E+02 0.273E+04   -.564E+02 0.798E+02 -.273E+04   -.360E+00 0.186E+00 -.251E+01   0.130E-01 -.624E-01 -.111E-01
   -.129E+02 0.424E+01 0.136E+04   0.131E+02 -.396E+01 -.136E+04   -.129E+00 -.262E+00 -.440E+00   -.499E-01 -.456E-01 -.119E+00
   0.249E+02 -.714E+02 -.161E+02   -.241E+02 0.708E+02 0.165E+02   -.814E+00 0.627E+00 -.381E+00   -.132E-01 -.936E-02 -.824E-01
   0.458E+02 0.350E+02 0.340E+04   -.459E+02 -.342E+02 -.340E+04   -.828E-01 -.880E+00 -.388E+01   0.112E+00 0.789E-01 0.264E-02
   0.586E+02 -.149E+01 0.173E+04   -.588E+02 0.841E+00 -.173E+04   0.118E+00 0.763E+00 -.219E+00   -.343E-02 -.239E-01 -.578E-01
   0.104E+03 -.288E+02 0.169E+04   -.104E+03 0.288E+02 -.169E+04   -.150E+00 -.133E-01 -.563E-01   0.422E-01 0.236E-01 -.117E+00
   0.157E+02 0.662E+02 0.873E+02   -.163E+02 -.661E+02 -.878E+02   0.586E+00 -.212E+00 0.523E+00   0.284E-01 0.944E-02 -.806E-01
   0.139E+02 0.537E+02 -.171E+04   -.135E+02 -.534E+02 0.171E+04   -.451E+00 -.369E+00 0.170E+01   0.120E-01 0.150E-01 0.282E-03
[...]
   0.543E+02 -.299E+02 0.117E+02   -.537E+02 0.295E+02 -.118E+02   -.692E+00 0.362E+00 0.171E+00   0.385E-01 0.824E-02 -.923E-01
   -.760E+02 0.512E+01 0.153E+04   0.756E+02 -.501E+01 -.153E+04   0.435E+00 -.875E-01 -.189E+00   -.621E-01 0.980E-02 -.132E+00
   -.170E+02 0.158E+02 0.160E+04   0.174E+02 -.160E+02 -.160E+04   -.390E+00 0.262E+00 -.475E+00   -.368E-01 -.417E-02 -.976E-01
   -.104E+03 -.231E+01 0.305E+04   0.104E+03 0.242E+01 -.305E+04   -.519E+00 -.611E-01 -.145E+01   -.736E-01 -.179E-01 -.177E-01
   0.739E+02 -.369E+02 0.305E+04   -.743E+02 0.374E+02 -.305E+04   0.344E+00 -.675E+00 -.981E+00   0.886E-01 0.655E-01 -.117E-01
   0.207E+02 -.331E+02 0.153E+04   -.203E+02 0.330E+02 -.153E+04   -.391E+00 0.216E+00 -.196E-01   0.446E-01 -.276E-01 -.149E+00
   0.576E+02 0.700E+01 0.159E+04   -.572E+02 -.708E+01 -.159E+04   -.493E+00 0.648E-01 -.157E+00   0.826E-01 0.536E-01 -.491E-01
   -.351E+02 -.637E+02 -.153E+04   0.350E+02 0.636E+02 0.153E+04   0.143E+00 0.712E-01 0.654E+00   -.131E-01 -.118E-01 -.433E-01
   -.497E+02 0.301E+02 0.303E+04   0.501E+02 -.296E+02 -.303E+04   -.436E+00 -.596E+00 -.196E+01   -.171E-01 0.658E-01 -.652E-02
   -.446E+02 0.752E+02 0.737E+02   0.450E+02 -.750E+02 -.736E+02   -.388E+00 -.333E+00 -.433E-01   -.182E-01 0.213E-01 -.108E+00
   0.155E+01 0.594E+02 -.102E+02   -.165E+01 -.585E+02 0.103E+02   0.119E+00 -.849E+00 -.691E-01   0.863E-02 -.384E-01 -.134E+00
   0.556E+02 0.349E+01 -.304E+02   -.552E+02 -.289E+01 0.304E+02   -.450E+00 -.630E+00 -.161E-01   0.311E-01 -.156E-01 -.129E+00
   0.147E+02 -.566E+02 0.315E+02   -.151E+02 0.561E+02 -.316E+02   0.332E+00 0.511E+00 0.107E+00   0.213E-01 -.182E-01 -.794E-01
   -.638E+00 -.178E+01 -.347E+03   0.643E+00 0.191E+01 0.348E+03   -.176E-01 -.158E+00 -.164E+01   0.394E-04 0.255E-02 0.230E-02
   -.232E+01 -.539E+00 0.159E+01   0.268E-12 0.351E-12 0.978E-11   0.219E+01 0.568E+00 0.251E+01   0.154E+00 -.362E-01 -.411E+01

 POSITION                                       TOTAL-FORCE (eV/Angst)
     13.07946      8.12056      6.96781        -0.013747     -0.013565      0.010445
      5.14587      8.14765      6.93140         0.016877      0.005131     -0.019189
      5.00817      3.51393      7.00882         0.008646     -0.018906      0.002179
     14.44638      8.85097      9.36184         0.011609      0.006568     -0.008187
      3.76001      4.27181      9.37026        -0.002632     -0.015300     -0.016961
      6.47020      8.86743      9.22355        -0.016162     -0.016870      0.016517
     11.76925      4.24824      9.33419         0.010367     -0.030424      0.011642
      9.10806      8.86540      9.22416         0.026080      0.015885     -0.008090
     10.46755      1.96143      9.27843         0.016762     -0.010586      0.000026
      2.46816      1.95175      9.25948        -0.024028      0.008668     -0.006598
     11.76101      8.86130      9.27979        -0.023031     -0.015723      0.001788
     13.10206      6.56390      9.34495         0.009406      0.014244     -0.014140
      5.10282      1.93019      9.30704         0.017673     -0.013486      0.005866
      7.80001      6.57440      9.29265        -0.016535     -0.015503     -0.014547
      9.12977      4.27561      9.24399        -0.024534      0.004695      0.007383
      5.11429      6.55752      9.33858         0.000869      0.019284      0.004499
      7.75650      1.95815      9.31349         0.008425      0.001003     -0.000141
      7.84207      3.46313      6.96358         0.004127     -0.001462      0.041098
      6.36680      1.15208      6.92042        -0.008058      0.014669      0.029153
      6.49878      1.12701      0.91783        -0.023854      0.020942     -0.006915
      3.73329      4.24365      2.82304         0.015098     -0.012128     -0.047799
      1.18556      1.26117      6.90181         0.002979     -0.001496      0.002872
      1.14169      1.20489      0.75465        -0.013302      0.002270     -0.017513
      6.49937      8.84078      2.91411        -0.007532      0.029904      0.020738
      6.44627      4.26398      9.33488         0.023923      0.003419     -0.004959
      7.76267      5.03997      4.81298        -0.000262      0.015344     -0.021851
     10.43016      6.56661      9.29458         0.020811      0.014080     -0.002495
     14.39607      7.27992      4.85736         0.014424     -0.001706     -0.012985
     11.79396      5.75284      7.00589         0.002788      0.002479      0.016037
      6.46934      5.82750      6.98474         0.005402     -0.008616     -0.013748
      3.64662      2.57970      4.95694         0.010103     -0.002156      0.004584
     10.45842      5.07299      4.86201        -0.010029     -0.003332     -0.013350
      3.79821      5.82443      7.13521        -0.004577     -0.004156     -0.017788
     13.07897      7.95618      0.95883        -0.007429     -0.006978      0.028562
      5.21380      7.98656      0.86284         0.008698      0.009019      0.014441
      3.83131      5.83197      0.85600         0.029482     -0.018419     -0.009583
      7.88243      2.06346      2.84612        -0.022488     -0.006099      0.035349
      9.16289      8.80794      2.87612         0.018834      0.026360      0.028413
      2.42602      3.53975      7.11658        -0.000775     -0.002003     -0.003410
      2.32870      3.51838      0.86299         0.021489      0.005987     -0.029297
     10.44688      1.98709      2.84009        -0.010880      0.005288      0.002306
     13.08247      5.02567      4.92484        -0.000662     -0.006131     -0.005229
      3.78289      1.06805      7.05262         0.003577      0.008665      0.005441
      9.11729      5.80934      7.06866        -0.001226     -0.004990     -0.000827
      3.77122      1.06783      0.90415        -0.005483      0.019787      0.000951
      9.18715      5.77316      0.99286        -0.021351      0.016460     -0.035701
      5.17420      3.52548      0.87003         0.023189      0.007448      0.031978
     11.72362      8.75176      2.92245        -0.006869      0.018821      0.029131
     11.76488      7.32512      4.84284        -0.007975      0.002919      0.000308
     12.97800      6.50322      2.85234         0.008090     -0.007776     -0.032744
      9.13171      4.24465      2.81404         0.004514     -0.006938     -0.001847
      7.83191      8.08244      6.99675         0.009048     -0.002895     -0.009000
      7.89763      8.01872      0.91379        -0.008981      0.011012     -0.001113
     10.49038      6.60126      2.83869         0.014854     -0.008431      0.032275
      2.55361      0.25082      5.00436         0.000159     -0.003542      0.000644
      7.83460      3.52101      0.79067        -0.027431      0.005525     -0.000599
      5.12642      1.88462      2.93503        -0.017139      0.007439     -0.005520
      5.21667      6.50564      2.92065         0.024050     -0.007790     -0.021137
      7.78622      0.46749      4.85187         0.011464      0.003864      0.004748
      9.14471      1.19850      6.99319         0.002076      0.002518      0.012533
[...]
      9.17042      2.67353      4.92387         0.006566     -0.008975      0.006144
      6.43462      2.69842      4.86079        -0.005986     -0.013942     -0.007350
     11.76877      4.21925      2.83668        -0.012132     -0.023195     -0.031015
      2.46431      1.90348      2.84561        -0.012786      0.011351     -0.011836
     11.75684      5.74003      0.91295        -0.008053      0.020804     -0.011023
      6.52258      5.80409      0.95833         0.001486     -0.025657      0.000295
      7.91412      6.57792      2.85270        -0.002925     -0.022587      0.010603
      6.48211      4.16784      2.79146        -0.009996     -0.001282     -0.002698
     10.47838      3.50247      7.03917         0.002829      0.003907      0.008106
     10.44539      3.47942      0.90065        -0.004073     -0.012081     -0.034723
     10.46887      0.49110      4.87550        -0.005509      0.004490      0.010506
      9.13679      7.35215      4.94820         0.002505      0.000536     -0.003221
      6.54754      7.36605      4.94277         0.005548     -0.011901      0.000987
      5.08542      0.27215      4.89674         0.000164      0.002408     -0.006961
      9.12848      1.17469     10.30953        -0.013538     -0.017713      0.037677
    total drift:                                0.031842     -0.007383      0.000775

  FREE ENERGIE OF THE ION-ELECTRON SYSTEM (eV)
  free  energy   TOTEN  =      -510.30152189 eV

  energy  without entropy=     -510.32919712  energy(sigma->0) =     -510.31074697

 d Force = 0.2075585E-03[-0.355E-04, 0.451E-03]  d Energy = 0.1790115E-03 0.285E-04
 d Force =-0.3764970E+01[-0.376E+01,-0.377E+01]  d Ewald  =-0.3764970E+01-0.848E-07

 reached required accuracy - stopping structural energy minimisation