 vasp.5.4.4.18Apr17-6-g9f103f2a35 (build Oct 25 2019 11:13:22) complex

 executed on             LinuxIFC date 2022.02.13  02:24:30

 INCAR:
 POTCAR:    PAW_PBE Pt 04Feb2005
 POTCAR:    PAW_PBE Co 02Aug2007
 POTCAR:    PAW_PBE Ni 02Aug2007
 POTCAR:    PAW_PBE H 15Jun2001

 POTCAR:    PAW_PBE Pt 04Feb2005
   VRHFIN =Pt: s1d9

   TITEL  = PAW_PBE Pt 04Feb2005
   POMASS =  195.080; ZVAL   =   10.000    mass and valenz
   ENMAX  =  230.283; ENMIN  =  172.712 eV

 POTCAR:    PAW_PBE Co 02Aug2007
   VRHFIN =Co: d8 s1

   TITEL  = PAW_PBE Co 02Aug2007
   POMASS =   58.933; ZVAL   =    9.000    mass and valenz
   ENMAX  =  267.968; ENMIN  =  200.976 eV

 POTCAR:    PAW_PBE Ni 02Aug2007
   VRHFIN =Ni:

   TITEL  = PAW_PBE Ni 02Aug2007
   POMASS =   58.690; ZVAL   =   10.000    mass and valenz
   ENMAX  =  269.532; ENMIN  =  202.149 eV

 POTCAR:    PAW_PBE H 15Jun2001
   VRHFIN =H: ultrasoft test

   TITEL  = PAW_PBE H 15Jun2001
   POMASS =    1.000; ZVAL   =    1.000    mass and valenz
   ENMAX  =  250.000; ENMIN  =  200.000 eV

 Optimization of the real space projectors (new method)

 maximal supplied QI-value         = 14.36
 optimisation between [QCUT,QGAM] = [ 11.92, 23.98] = [ 39.79,161.09] Ry
 Optimized for a Real-space Cutoff    1.49 Angstroem

   l    n(q)    QCUT    max X(q) W(low)/X(q) W(high)/X(q)  e(spline)
   2     10    11.920    66.195    0.79E-04    0.18E-03    0.24E-06
   2     10    11.920    64.643    0.81E-04    0.19E-03    0.24E-06
   0     11    11.920    95.520    0.28E-04    0.54E-04    0.18E-06
   0     11    11.920    63.403    0.27E-04    0.52E-04    0.17E-06
   1     10    11.920    19.961    0.18E-04    0.11E-03    0.23E-06
   1     10    11.920    13.289    0.25E-04    0.87E-04    0.19E-06
 Optimization of the real space projectors (new method)

[...]

   l    n(q)    QCUT    max X(q) W(low)/X(q) W(high)/X(q)  e(spline)
   2      9    11.864    60.317    0.21E-03    0.51E-03    0.25E-06
   2      9    11.864    55.921    0.21E-03    0.51E-03    0.26E-06
   0      9    11.864    51.690    0.22E-03    0.30E-04    0.17E-06
   0      9    11.864    30.015    0.20E-03    0.28E-04    0.15E-06
   1      9    11.864    18.849    0.76E-04    0.33E-03    0.17E-06
   1      9    11.864    14.624    0.60E-04    0.28E-03    0.15E-06
 Optimization of the real space projectors (new method)

 maximal supplied QI-value         = 34.20
 optimisation between [QCUT,QGAM] = [ 11.97, 23.94] = [ 40.13,160.53] Ry
 Optimized for a Real-space Cutoff    1.18 Angstroem

   l    n(q)    QCUT    max X(q) W(low)/X(q) W(high)/X(q)  e(spline)
   0      8    11.971    19.460    0.15E-03    0.31E-03    0.25E-06
   0      8    11.971    12.209    0.13E-03    0.29E-03    0.25E-06
   1      8    11.971     4.655    0.22E-03    0.24E-03    0.21E-06
  PAW_PBE Pt 04Feb2005                  :
  PAW_PBE Co 02Aug2007                  :
  PAW_PBE Ni 02Aug2007                  :
  PAW_PBE H 15Jun2001                   :

 POSCAR: 11.26
  positions in cartesian coordinates
 exchange correlation table for  LEXCH =        8
   RHO(1)=    0.500       N(1)  =     2000
   RHO(2)=  100.500       N(2)  =     4000

 ion  position               nearest neighbor table
   1  0.789  0.879  0.302-  49 2.48  59 2.58  60 2.65  28 2.71   2 2.73  29 2.74   4 2.77  19 2.79
                            61 2.87  11 2.90  12 2.91  33 2.94
   2  0.031  0.880  0.292-  79 2.49  77 2.55  60 2.72   1 2.73  28 2.74   4 2.81   6 2.86  16 2.92
                            30 2.92  33 2.99  22 3.17  52 3.26
   3  0.277  0.361  0.311-  64 2.54  68 2.61  31 2.62  39 2.68   5 2.70  33 2.71  30 2.75  13 2.75
                            25 2.78  19 2.80  43 2.81  18 2.87
   4  0.880  0.965  0.401-  81 1.91   9 2.70  60 2.73   6 2.73  17 2.76   1 2.77  16 2.79   2 2.81
                            12 2.90  11 2.96
   5  0.117  0.465  0.410-  39 2.61  12 2.69   3 2.70  33 2.70  10 2.77  16 2.77   7 2.78  25 2.82
                            13 2.94
   6  0.130  0.951  0.398-  52 2.59  22 2.72   4 2.73  16 2.76  14 2.77   8 2.79   2 2.86  10 2.95
                             9 2.97
   7  0.874  0.456  0.412-  75 2.55  39 2.57   5 2.78  10 2.80   9 2.80  27 2.81  29 2.81  15 2.86
                            12 2.86
   8  0.374  0.954  0.415-  52 2.54  43 2.54  61 2.70   6 2.79  13 2.79  27 2.79  11 2.80  10 2.83
                            14 2.86
   9  0.864  0.214  0.397-  75 2.59  22 2.67   4 2.70  17 2.73  15 2.75  60 2.79   7 2.80   6 2.97
                            10 2.99
  10  0.128  0.213  0.413-  22 2.63  43 2.69  13 2.72   5 2.77  39 2.78   7 2.80   8 2.83   6 2.95
                             9 2.99
  11  0.623  0.954  0.412-  81 1.82  61 2.65  19 2.74  13 2.77  27 2.78   8 2.80  17 2.82  12 2.83
                             1 2.90   4 2.96
  12  0.880  0.708  0.411-  81 1.84  29 2.68   5 2.69  16 2.72  33 2.82  11 2.83   7 2.86  27 2.88
                             4 2.90   1 2.91
  13  0.376  0.201  0.413-  43 2.69  10 2.72  19 2.74   3 2.75  11 2.77   8 2.79  25 2.79  17 2.82
                             5 2.94
  14  0.374  0.701  0.401-  52 2.52  44 2.56  15 2.73   6 2.77  16 2.79  25 2.80  27 2.85  30 2.86
                             8 2.86
  15  0.618  0.459  0.399-  75 2.53  44 2.60  14 2.73   9 2.75  25 2.78  27 2.83  17 2.83  18 2.86
                             7 2.86
  16  0.121  0.710  0.401-  30 2.65  12 2.72  33 2.75   6 2.76   5 2.77   4 2.79  14 2.79  25 2.88
                             2 2.92
  17  0.626  0.203  0.404-  18 2.67   9 2.73   4 2.76  19 2.79  25 2.80  60 2.82  11 2.82  13 2.82
                            15 2.83
  18  0.539  0.347  0.301-  67 2.45  26 2.60  68 2.66  17 2.67  60 2.68  19 2.70  25 2.83  15 2.86
                             3 2.87  30 2.94  75 3.19
  19  0.528  0.113  0.309-  59 2.47  80 2.51  68 2.58  43 2.61  61 2.64  18 2.70  13 2.74  11 2.74
                            17 2.79   1 2.79   3 2.80  60 2.91
  20  0.546  0.126  0.067-  48 2.50  57 2.52  47 2.52  62 2.53  37 2.60  56 2.66  34 2.70  63 2.89

  21  0.118  0.408  0.119-  47 2.44  40 2.48  36 2.49  69 2.60  57 2.64  42 2.67  64 2.70  70 2.72
                            31 2.74  50 3.30
  22  0.054  0.147  0.311-  77 2.42  65 2.51  55 2.52  43 2.57  10 2.63  39 2.64   9 2.67   6 2.72
                            75 2.91  52 3.05  31 3.06   2 3.17  60 3.23
  23  0.009  0.102  0.049-  40 2.49  62 2.55  70 2.57  41 2.59  45 2.66  76 2.69  24 2.70  35 2.74
                            53 3.07
  24  0.138  0.927  0.142-  79 2.46  35 2.50  77 2.54  58 2.54  53 2.56  55 2.59  38 2.59  73 2.64
                            70 2.65  23 2.70  66 2.83
  25  0.375  0.450  0.406-  30 2.76  15 2.78   3 2.78  13 2.79  17 2.80  14 2.80   5 2.82  18 2.83
                            16 2.88
  26  0.480  0.554  0.230-  74 2.50  44 2.50  73 2.52  51 2.59  18 2.60  79 2.60  30 2.62  78 2.62
                            32 2.66  67 2.70
  27  0.624  0.706  0.413-  44 2.48  61 2.69  11 2.78   8 2.79   7 2.81  29 2.81  15 2.83  14 2.85
                            12 2.88
  28  0.953  0.759  0.204-  58 2.53  50 2.61  66 2.61  42 2.62  36 2.63  33 2.66   1 2.71   2 2.74
                            64 2.80  49 2.88  34 3.22  59 3.23  35 3.30
  29  0.796  0.632  0.311-  39 2.60  49 2.61  75 2.62  32 2.62  42 2.64  33 2.64  44 2.66  12 2.68
                             1 2.74   7 2.81  27 2.81  61 2.82
  30  0.275  0.607  0.302-  79 2.43  33 2.60  64 2.62  26 2.62  16 2.65   3 2.75  25 2.76  14 2.86
                             2 2.92  18 2.94  52 3.29
  31  0.187  0.262  0.225-  70 2.52  57 2.57  65 2.58  55 2.59  39 2.62   3 2.62  43 2.63  42 2.72
                            80 2.73  21 2.74  68 2.76  64 2.79  22 3.06
  32  0.711  0.561  0.214-  69 2.53  51 2.56  54 2.61  29 2.62  49 2.62  26 2.66  65 2.66  50 2.66
                            42 2.68  75 2.69  78 2.71  67 2.73  44 2.74
  33  0.042  0.609  0.305-  42 2.47  64 2.51  39 2.51  30 2.60  29 2.64  28 2.66   5 2.70   3 2.71
                            16 2.75  12 2.82   1 2.94   2 2.99
  34  0.782  0.884  0.080-  48 2.38  35 2.38  50 2.53  66 2.54  36 2.55  62 2.67  20 2.70  28 3.22

  35  0.002  0.866  0.072-  36 2.37  34 2.38  66 2.43  24 2.50  58 2.60  23 2.74  62 2.75  28 3.30

  36  0.006  0.657  0.094-  50 2.33  35 2.37  58 2.38  21 2.49  34 2.55  28 2.63
  37  0.628  0.234  0.150-  41 2.41  56 2.42  59 2.43  67 2.44  62 2.45  68 2.50  51 2.50  74 2.51
                            20 2.60  66 2.60
  38  0.361  0.942  0.135-  53 2.40  45 2.41  63 2.42  57 2.43  48 2.45  55 2.45  54 2.46  78 2.48
                            80 2.54  73 2.59  24 2.59  70 2.83
  39  0.023  0.396  0.316-  42 2.46  33 2.51   7 2.57  65 2.58  75 2.58  29 2.60   5 2.61  31 2.62
                            22 2.64   3 2.68  10 2.78
  40  0.013  0.321  0.044-  69 2.32  76 2.45  21 2.48  23 2.49  70 2.51  45 2.63  71 2.93
  41  0.844  0.228  0.139-  67 2.35  76 2.37  77 2.38  37 2.41  62 2.44  51 2.48  69 2.48  66 2.49
                            65 2.58  23 2.59  70 2.61
  42  0.967  0.520  0.219-  39 2.46  33 2.47  50 2.48  64 2.48  65 2.50  28 2.62  29 2.64  69 2.65
                            21 2.67  32 2.68  31 2.72
  43  0.303  0.099  0.319-  52 2.45  80 2.47  55 2.51   8 2.54  22 2.57  61 2.58  19 2.61  31 2.63
                            10 2.69  13 2.69   3 2.81
  44  0.552  0.648  0.317-  61 2.46  78 2.47  27 2.48  26 2.50  52 2.55  14 2.56  15 2.60  29 2.66
                            75 2.73  32 2.74
  45  0.251  0.091  0.049-  38 2.41  57 2.45  53 2.48  70 2.50  63 2.54  40 2.63  23 2.66
  46  0.529  0.612  0.047-  54 2.37  73 2.44  51 2.45  71 2.47  72 2.53  53 2.63  56 2.72  76 2.87
                            63 3.07
  47  0.334  0.361  0.072-  74 2.29  56 2.44  21 2.44  57 2.50  72 2.50  20 2.52
  48  0.581  0.937  0.137-  49 2.29  63 2.35  34 2.38  54 2.38  80 2.38  38 2.45  59 2.46  20 2.50
                            57 2.63  50 2.74
  49  0.677  0.809  0.223-  48 2.29  50 2.34  61 2.46  78 2.47   1 2.48  59 2.54  80 2.57  29 2.61
                            32 2.62  54 2.79  28 2.88
  50  0.810  0.679  0.140-  36 2.33  49 2.34  54 2.38  71 2.39  42 2.48  69 2.52  34 2.53  28 2.61
                            32 2.66  48 2.74  21 3.30
  51  0.629  0.454  0.133-  56 2.40  76 2.44  46 2.45  41 2.48  37 2.50  67 2.53  32 2.56  26 2.59
                            74 2.59  69 2.66  73 2.78  54 2.83
  52  0.321  0.873  0.316-  55 2.36  79 2.41  61 2.42  78 2.44  43 2.45  14 2.52   8 2.54  44 2.55
                             6 2.59  22 3.05   2 3.26  30 3.29
  53  0.299  0.850  0.050-  73 2.39  38 2.40  45 2.48  24 2.56  63 2.58  46 2.63  72 2.82  23 3.07

  54  0.581  0.726  0.124-  46 2.37  50 2.38  48 2.38  73 2.40  71 2.42  63 2.42  38 2.46  78 2.50
                            32 2.61  49 2.79  51 2.83
  55  0.229  0.013  0.230-  52 2.36  80 2.44  79 2.44  38 2.45  43 2.51  22 2.52  78 2.56  24 2.59
                            31 2.59  77 2.61  70 2.62
  56  0.549  0.361  0.055-  51 2.40  37 2.42  47 2.44  74 2.52  76 2.56  62 2.60  72 2.61  20 2.66
                            46 2.72
  57  0.344  0.167  0.132-  38 2.43  45 2.45  80 2.47  47 2.50  20 2.52  68 2.55  31 2.57  48 2.63
[...]
     12.89855      6.59993      3.08536        -0.006277     -0.007695      0.019123
      9.60902      4.40928      2.93166         0.002768      0.000110      0.018122
      8.50353      8.48183      6.96094         0.028951      0.005168     -0.029311
      8.12654      8.25967      1.10014        -0.011212      0.021923     -0.005988
     10.59532      7.05732      2.72628         0.004062     -0.001497      0.015130
      2.64345      0.12582      5.05287         0.006772     -0.003021     -0.021614
      8.18206      3.50560      1.21995        -0.014217     -0.040946     -0.001337
      4.79851      1.62222      2.89617        -0.014167      0.000474      0.028944
      5.80940      6.64990      3.24762        -0.019516      0.003100     -0.020822
      7.65468      0.41297      4.68699        -0.009968     -0.013500      0.041849
      9.45304      1.13140      6.52850        -0.006533     -0.002068     -0.008836
[...]
      9.85949      3.06130      5.05334         0.012480      0.011173     -0.004476
      6.31739      2.58312      4.70295         0.014622     -0.021678     -0.034563
     12.25313      4.17493      2.83324        -0.009549     -0.003855     -0.011420
      2.09525      1.75623      3.07324         0.029675      0.006468      0.038484
     11.83128      5.72145      1.13423         0.025100     -0.005093     -0.002331
      6.85743      5.74904      1.30355        -0.007893     -0.006109      0.012090
      8.21979      6.81570      3.00225         0.004015      0.002662      0.002612
      7.04013      4.41026      3.27464        -0.017792     -0.009266     -0.001429
     11.12635      3.90346      6.90461         0.003352     -0.015595     -0.032210
     10.73608      3.41609      1.01158         0.015601     -0.012389      0.012570
     11.35396      0.81935      4.88330        -0.006563      0.006211     -0.007467
      9.67608      7.72321      4.95729         0.029858      0.029259     -0.020143
      7.20385      7.63915      5.11888         0.003171      0.019427     -0.010679
      5.07803      0.26935      4.93904        -0.003339     -0.020987     -0.028975
     13.85509      8.55790      9.76049         0.037739      0.005603      0.112072
    total drift:                               -0.013196      0.036030     -0.012952

  FREE ENERGIE OF THE ION-ELECTRON SYSTEM (eV)
  free  energy   TOTEN  =      -503.46545560 eV

  energy  without entropy=     -503.46545560  energy(sigma->0) =     -503.46545560

 d Force =-0.1687603E-02[-0.336E-02,-0.130E-04]  d Energy =-0.1288729E-02-0.399E-03
 d Force =-0.9751262E+01[-0.974E+01,-0.976E+01]  d Ewald  =-0.9751508E+01 0.246E-03

 Finite differences progress:
  Degree of freedom:   3/  3
  Displacement:        2/  2
  Total:               6/  6

 SECOND DERIVATIVES (NOT SYMMETRIZED)
              81X         81Y         81Z
 81X    -1.677412    0.387905   -0.819473
 81Y     0.367133   -1.865815   -0.433147
 81Z    -0.819019   -0.431948   -3.721249

 Eigenvectors and eigenvalues of the dynamical matrix

   1 f  =   31.451476 THz   197.615449 2PiTHz 1049.108268 cm-1   130.072894 meV
             X         Y         Z           dx          dy          dz
     13.781488  8.540327  6.645197            0           0           0
      5.284470  8.550496  6.420082            0           0           0
      5.134549  3.508754  6.833654            0           0           0
     15.286872  9.380038  8.812285            0           0           0
      3.921097  4.522631  9.022999            0           0           0
      6.790900  9.239711  8.747462            0           0           0
     12.361541  4.430611  9.069326            0           0           0
      9.549695  9.273672  9.138136            0           0           0
     10.890233  2.076060  8.729804            0           0           0
      2.633692  2.067677  9.087048            0           0           0
     12.343577  9.274037  9.055006            0           0           0
     13.845554  6.878011  9.031318            0           0           0
      5.355279  1.957647  9.094088            0           0           0
      8.128356  6.810169  8.811948            0           0           0
      9.514652  4.457817  8.780374            0           0           0
      5.338911  6.897975  8.820935            0           0           0
      8.170159  1.974168  8.890412            0           0           0
      7.993732  3.371742  6.616974            0           0           0
      6.555035  1.094563  6.790987            0           0           0
      6.833851  1.229252  1.470327            0           0           0
      3.612352  3.964682  2.619950            0           0           0
      1.430619  1.431190  6.833573            0           0           0
      0.671266  0.989103  1.081883            0           0           0
      6.748073  9.008785  3.123421            0           0           0
      6.736860  4.378040  8.938830            0           0           0
      8.493301  5.384394  5.053784            0           0           0
     10.963023  6.862792  9.096823            0           0           0
     14.948842  7.376730  4.492489            0           0           0
     12.480305  6.141650  6.842620            0           0           0
      6.487193  5.896285  6.652493            0           0           0
      3.574220  2.546241  4.958776            0           0           0
     11.126137  5.452511  4.710247            0           0           0
      3.889125  5.916642  6.706466            0           0           0
     13.734382  8.588522  1.762771            0           0           0
      4.876633  8.413947  1.577885            0           0           0
      3.758771  6.384136  2.060921            0           0           0
      8.358503  2.272242  3.294054            0           0           0
      9.333665  9.158858  2.963491            0           0           0
      2.483382  3.847165  6.956721            0           0           0
      1.948917  3.123684  0.977335            0           0           0
     10.751866  2.212205  3.056235            0           0           0
     13.777989  5.058683  4.814702            0           0           0
      3.954700  0.965721  7.023672            0           0           0
      9.824963  6.297089  6.968710            0           0           0
      3.327475  0.887173  1.073320            0           0           0
      9.370381  5.944442  1.033549            0           0           0
      5.774364  3.511196  1.588832            0           0           0
     11.780804  9.102106  3.012746            0           0           0
     12.142208  7.864851  4.907167            0           0           0
     12.898551  6.599928  3.085357            0           0           0
      9.609021  4.409279  2.931659            0           0           0
      8.503533  8.481831  6.960939            0           0           0
      8.126536  8.259675  1.100142            0           0           0
     10.595320  7.057317  2.726279            0           0           0
      2.643452  0.125819  5.052866            0           0           0
      8.182065  3.505601  1.219953            0           0           0
      4.798505  1.622219  2.896171            0           0           0
      5.809398  6.649898  3.247617            0           0           0
      7.654684  0.412970  4.686986            0           0           0
      9.453037  1.131401  6.528503            0           0           0
[...]
      9.859490  3.061300  5.053340            0           0           0
      6.317386  2.583125  4.702954            0           0           0
     12.253127  4.174930  2.833240            0           0           0
      2.095248  1.756232  3.073240            0           0           0
     11.831281  5.721446  1.134235            0           0           0
      6.857430  5.749036  1.303551            0           0           0
      8.219787  6.815704  3.002248            0           0           0
      7.040131  4.410259  3.274640            0           0           0
     11.126353  3.903458  6.904607            0           0           0
     10.736077  3.416087  1.011578            0           0           0
     11.353957  0.819354  4.883300            0           0           0
      9.676082  7.723209  4.957292            0           0           0
      7.203849  7.639146  5.118877            0           0           0
      5.078032  0.269348  4.939043            0           0           0
     13.855093  8.557899  9.775493     0.304573    0.134258    0.942979

[...]

   3 f  =   16.143942 THz   101.435379 2PiTHz  538.503925 cm-1    66.766001 meV
             X         Y         Z           dx          dy          dz
     13.781488  8.540327  6.645197            0           0           0
      5.284470  8.550496  6.420082            0           0           0
      5.134549  3.508754  6.833654            0           0           0
     15.286872  9.380038  8.812285            0           0           0
      3.921097  4.522631  9.022999            0           0           0
      6.790900  9.239711  8.747462            0           0           0
     12.361541  4.430611  9.069326            0           0           0
      9.549695  9.273672  9.138136            0           0           0
     10.890233  2.076060  8.729804            0           0           0
      2.633692  2.067677  9.087048            0           0           0
     12.343577  9.274037  9.055006            0           0           0
     13.845554  6.878011  9.031318            0           0           0
      5.355279  1.957647  9.094088            0           0           0
      8.128356  6.810169  8.811948            0           0           0
      9.514652  4.457817  8.780374            0           0           0
      5.338911  6.897975  8.820935            0           0           0
      8.170159  1.974168  8.890412            0           0           0
      7.993732  3.371742  6.616974            0           0           0
      6.555035  1.094563  6.790987            0           0           0
      6.833851  1.229252  1.470327            0           0           0
      3.612352  3.964682  2.619950            0           0           0
      1.430619  1.431190  6.833573            0           0           0
      0.671266  0.989103  1.081883            0           0           0
      6.748073  9.008785  3.123421            0           0           0
      6.736860  4.378040  8.938830            0           0           0
      8.493301  5.384394  5.053784            0           0           0
     10.963023  6.862792  9.096823            0           0           0
     14.948842  7.376730  4.492489            0           0           0
     12.480305  6.141650  6.842620            0           0           0
      6.487193  5.896285  6.652493            0           0           0
      3.574220  2.546241  4.958776            0           0           0
     11.126137  5.452511  4.710247            0           0           0
      3.889125  5.916642  6.706466            0           0           0
     13.734382  8.588522  1.762771            0           0           0
      4.876633  8.413947  1.577885            0           0           0
      3.758771  6.384136  2.060921            0           0           0
      8.358503  2.272242  3.294054            0           0           0
      9.333665  9.158858  2.963491            0           0           0
      2.483382  3.847165  6.956721            0           0           0
      1.948917  3.123684  0.977335            0           0           0
     10.751866  2.212205  3.056235            0           0           0
     13.777989  5.058683  4.814702            0           0           0
      3.954700  0.965721  7.023672            0           0           0
      9.824963  6.297089  6.968710            0           0           0
      3.327475  0.887173  1.073320            0           0           0
      9.370381  5.944442  1.033549            0           0           0
      5.774364  3.511196  1.588832            0           0           0
     11.780804  9.102106  3.012746            0           0           0
     12.142208  7.864851  4.907167            0           0           0
     12.898551  6.599928  3.085357            0           0           0
      9.609021  4.409279  2.931659            0           0           0
      8.503533  8.481831  6.960939            0           0           0
      8.126536  8.259675  1.100142            0           0           0
     10.595320  7.057317  2.726279            0           0           0
      2.643452  0.125819  5.052866            0           0           0
      8.182065  3.505601  1.219953            0           0           0
      4.798505  1.622219  2.896171            0           0           0
      5.809398  6.649898  3.247617            0           0           0
      7.654684  0.412970  4.686986            0           0           0
      9.453037  1.131401  6.528503            0           0           0
[...]
      9.859490  3.061300  5.053340            0           0           0
      6.317386  2.583125  4.702954            0           0           0
     12.253127  4.174930  2.833240            0           0           0
      2.095248  1.756232  3.073240            0           0           0
     11.831281  5.721446  1.134235            0           0           0
      6.857430  5.749036  1.303551            0           0           0
      8.219787  6.815704  3.002248            0           0           0
      7.040131  4.410259  3.274640            0           0           0
     11.126353  3.903458  6.904607            0           0           0
     10.736077  3.416087  1.011578            0           0           0
     11.353957  0.819354  4.883300            0           0           0
      9.676082  7.723209  4.957292            0           0           0
      7.203849  7.639146  5.118877            0           0           0
      5.078032  0.269348  4.939043            0           0           0
     13.855093  8.557899  9.775493     0.773784    0.542428   -0.327154

 Finite differences POTIM=  1.500000000000000E-002
  LATTYP: Found a hexagonal cell.
 ALAT       =    11.2227001190
 C/A-ratio  =     1.9603125600

  Lattice vectors:

 A1 = (   5.6113500595,  -9.7191434021,   0.0000000000)
 A2 = ( -11.2227001190,   0.0000000000,   0.0000000000)
 A3 = (   0.0000000000,   0.0000000000, -22.0000000000)

Analysis of symmetry for initial positions (statically):
 Subroutine PRICEL returns:
 Original cell was already a primitive cell.

[...]

The static configuration has the point symmetry C_1 .

Analysis of symmetry for dynamics (positions and initial velocities):
 Subroutine PRICEL returns:
 Original cell was already a primitive cell.

[...]

The dynamic configuration has the point symmetry C_1 .

Analysis of constrained symmetry for selective dynamics:
 Subroutine PRICEL returns:
 Original cell was already a primitive cell.

[...]

The constrained configuration has the point symmetry C_1 .

Analysis of structural, dynamic, and magnetic symmetry:
 Subroutine PRICEL returns:
 Original cell was already a primitive cell.

 Routine SETGRP: Setting up the symmetry group for a
 hexagonal supercell.

 Subroutine GETGRP returns: Found  1 space group operations
 (whereof  1 operations were pure point group operations)
 out of a pool of 24 trial point group operations.

The magnetic configuration has the point symmetry C_1 .

 Subroutine INISYM returns: Found  1 space group operations
 (whereof  1 operations are pure point group operations),
 and found     1 'primitive' translations

 KPOINTS: mesh auto

Automatic generation of k-mesh.
Space group operators:
 irot       det(A)        alpha          n_x          n_y          n_z        tau_x        tau_y        tau_z
    1     1.000000     0.000000     1.000000     0.000000     0.000000     0.000000     0.000000     0.000000

 Subroutine IBZKPT returns following result:

 Found      4 irreducible k-points:

 Following reciprocal coordinates:
            Coordinates               Weight
  0.000000  0.000000  0.000000      1.000000
  0.500000  0.000000  0.000000      1.000000
  0.000000  0.500000  0.000000      1.000000
  0.500000  0.500000  0.000000      1.000000

 Following cartesian coordinates:
            Coordinates               Weight
  0.000000  0.000000  0.000000      1.000000
  0.044553 -0.025722  0.000000      1.000000
  0.000000  0.051445  0.000000      1.000000
  0.044553  0.025722  0.000000      1.000000

 TETIRR: Found     12 inequivalent tetrahedra from       24
 BZINTS: Fermi energy:  1.514960;778.000000 electrons
         Band energy:-899.628195;  BLOECHL correction: -0.228676