 vasp.5.4.4.18Apr17-6-g9f103f2a35 (build Oct 25 2019 11:13:22) complex

 executed on             LinuxIFC date 2021.10.14  17:16:27

 INCAR:
 POTCAR:    PAW_PBE Pt 04Feb2005
 POTCAR:    PAW_PBE Fe 06Sep2000
 POTCAR:    PAW_PBE Co 02Aug2007
 POTCAR:    PAW_PBE Cu 22Jun2005
 POTCAR:    PAW_PBE Ni 02Aug2007
 POTCAR:    PAW_PBE H 15Jun2001
 POTCAR:    PAW_PBE Pt 04Feb2005
   VRHFIN =Pt: s1d9

   TITEL  = PAW_PBE Pt 04Feb2005
   POMASS =  195.080; ZVAL   =   10.000    mass and valenz
   ENMAX  =  230.283; ENMIN  =  172.712 eV

 POTCAR:    PAW_PBE Fe 06Sep2000
   VRHFIN =Fe:  d7 s1

   TITEL  = PAW_PBE Fe 06Sep2000
   POMASS =   55.847; ZVAL   =    8.000    mass and valenz
   ENMAX  =  267.882; ENMIN  =  200.911 eV

 POTCAR:    PAW_PBE Co 02Aug2007
   VRHFIN =Co: d8 s1

   TITEL  = PAW_PBE Co 02Aug2007
   POMASS =   58.933; ZVAL   =    9.000    mass and valenz
   ENMAX  =  267.968; ENMIN  =  200.976 eV

 POTCAR:    PAW_PBE Cu 22Jun2005
   VRHFIN =Cu: d10 p1

   TITEL  = PAW_PBE Cu 22Jun2005
   POMASS =   63.546; ZVAL   =   11.000    mass and valenz
   ENMAX  =  295.446; ENMIN  =  221.585 eV

 POTCAR:    PAW_PBE Ni 02Aug2007
   VRHFIN =Ni:

   TITEL  = PAW_PBE Ni 02Aug2007
   POMASS =   58.690; ZVAL   =   10.000    mass and valenz
   ENMAX  =  269.532; ENMIN  =  202.149 eV

 POTCAR:    PAW_PBE H 15Jun2001
   VRHFIN =H: ultrasoft test

   TITEL  = PAW_PBE H 15Jun2001
   POMASS =    1.000; ZVAL   =    1.000    mass and valenz
   ENMAX  =  250.000; ENMIN  =  200.000 eV

 Optimization of the real space projectors (new method)

 maximal supplied QI-value         = 14.36
 optimisation between [QCUT,QGAM] = [ 11.92, 23.98] = [ 39.79,161.09] Ry
 Optimized for a Real-space Cutoff    1.49 Angstroem

   l    n(q)    QCUT    max X(q) W(low)/X(q) W(high)/X(q)  e(spline)
   2     10    11.920    66.195    0.79E-04    0.18E-03    0.24E-06
   2     10    11.920    64.643    0.81E-04    0.19E-03    0.24E-06
   0     11    11.920    95.520    0.28E-04    0.54E-04    0.18E-06
   0     11    11.920    63.403    0.27E-04    0.52E-04    0.17E-06
   1     10    11.920    19.961    0.18E-04    0.11E-03    0.23E-06
   1     10    11.920    13.289    0.25E-04    0.87E-04    0.19E-06
 Optimization of the real space projectors (new method)

[...]

   l    n(q)    QCUT    max X(q) W(low)/X(q) W(high)/X(q)  e(spline)
   2      9    11.864    60.317    0.21E-03    0.51E-03    0.25E-06
   2      9    11.864    55.921    0.21E-03    0.51E-03    0.26E-06
   0      9    11.864    51.690    0.22E-03    0.30E-04    0.17E-06
   0      9    11.864    30.015    0.20E-03    0.28E-04    0.15E-06
   1      9    11.864    18.849    0.76E-04    0.33E-03    0.17E-06
   1      9    11.864    14.624    0.60E-04    0.28E-03    0.15E-06
 Optimization of the real space projectors (new method)

 maximal supplied QI-value         = 34.20
 optimisation between [QCUT,QGAM] = [ 11.97, 23.94] = [ 40.13,160.53] Ry
 Optimized for a Real-space Cutoff    1.18 Angstroem

   l    n(q)    QCUT    max X(q) W(low)/X(q) W(high)/X(q)  e(spline)
   0      8    11.971    19.460    0.15E-03    0.31E-03    0.25E-06
   0      8    11.971    12.209    0.13E-03    0.29E-03    0.25E-06
   1      8    11.971     4.655    0.22E-03    0.24E-03    0.21E-06
  PAW_PBE Pt 04Feb2005                  :
  PAW_PBE Fe 06Sep2000                  :
  PAW_PBE Co 02Aug2007                  :
  PAW_PBE Cu 22Jun2005                  :
  PAW_PBE Ni 02Aug2007                  :
  PAW_PBE H 15Jun2001                   :

 POSCAR: 10.76
  positions in direct lattice
  velocities in cartesian coordinates
 exchange correlation table for  LEXCH =        8
   RHO(1)=    0.500       N(1)  =     2000
   RHO(2)=  100.500       N(2)  =     4000

 ion  position               nearest neighbor table
   1  0.786  0.880  0.316-  49 2.61  28 2.63  59 2.64  19 2.68  61 2.70  33 2.71  29 2.72  60 2.72
                            11 2.75   2 2.77   4 2.82  12 2.84
   2  0.042  0.882  0.314-  79 2.55  77 2.60  60 2.67  28 2.67  30 2.68  52 2.71  33 2.71  22 2.73
                             1 2.77   6 2.79   4 2.86  16 2.93
   3  0.279  0.381  0.318-  64 2.56  39 2.61  31 2.64  33 2.64  68 2.70  19 2.75  43 2.76  30 2.76
                             5 2.76  13 2.79  25 2.83  18 2.87
   4  0.871  0.964  0.422-  81 1.84  17 2.65  11 2.67   9 2.70  12 2.73   6 2.74  16 2.76  60 2.80
                             1 2.82   2 2.86
   5  0.120  0.463  0.424-  16 2.65  12 2.66   7 2.66  10 2.67  39 2.70  33 2.71  25 2.72  13 2.74
                             3 2.76
   6  0.125  0.964  0.420-   8 2.65  10 2.68   9 2.71  14 2.72   4 2.74  16 2.76  52 2.78   2 2.79
                            22 2.85
   7  0.874  0.459  0.423-   9 2.66  15 2.66   5 2.66  39 2.67  10 2.68  12 2.68  27 2.72  75 2.72
                            29 2.77
   8  0.374  0.960  0.418-  43 2.59   6 2.65  14 2.66  52 2.67  27 2.67  13 2.68  10 2.69  11 2.70
                            61 2.70
   9  0.872  0.214  0.417-  75 2.65   7 2.66  15 2.66  17 2.68   4 2.70  60 2.70   6 2.71  10 2.72
                            22 2.80
  10  0.125  0.212  0.419-  13 2.66  39 2.66   5 2.67   6 2.68   7 2.68   8 2.69  43 2.71   9 2.72
                            22 2.76
  11  0.624  0.960  0.420-  81 1.81   4 2.67  12 2.68  13 2.68  27 2.69  17 2.69   8 2.70   1 2.75
                            61 2.80  19 2.81
  12  0.872  0.710  0.423-  81 1.84   5 2.66  27 2.68  11 2.68   7 2.68  33 2.69  16 2.72   4 2.73
                            29 2.76   1 2.84
  13  0.374  0.209  0.421-  10 2.66   8 2.68  11 2.68  17 2.70  25 2.71   5 2.74  43 2.74   3 2.79
                            19 2.80
  14  0.378  0.711  0.420-  27 2.63  44 2.66   8 2.66  15 2.67  25 2.71   6 2.72  52 2.72  16 2.73
                            30 2.75
  15  0.626  0.462  0.420-   9 2.66   7 2.66  44 2.67  27 2.67  14 2.67  75 2.70  17 2.71  25 2.71
                            18 2.75
  16  0.126  0.707  0.425-   5 2.65  25 2.66  33 2.70  12 2.72  14 2.73   6 2.76   4 2.76  30 2.82
                             2 2.93
  17  0.624  0.211  0.419-   4 2.65   9 2.68  25 2.69  11 2.69  13 2.70  15 2.71  18 2.74  60 2.76
                            19 2.84
  18  0.548  0.376  0.316-  67 2.56  68 2.64  60 2.65  26 2.66  75 2.67  44 2.69  17 2.74  15 2.75
                            30 2.76  19 2.78  25 2.85   3 2.87
  19  0.534  0.125  0.314-  80 2.55  68 2.57  59 2.60  43 2.60   1 2.68  61 2.69   3 2.75  18 2.78
                            13 2.80  11 2.81  60 2.81  17 2.84
  20  0.548  0.123  0.044-  57 2.55  37 2.55  48 2.57  62 2.68  63 2.73  47 2.75  34 2.75  45 2.76
                            56 2.76
  21  0.119  0.460  0.129-  40 2.52  36 2.52  47 2.52  42 2.60  64 2.63  69 2.65  70 2.68  50 2.68
                            31 2.71  58 2.75  57 2.76  74 2.79
  22  0.044  0.136  0.313-  65 2.53  55 2.54  77 2.57  43 2.62  39 2.63  75 2.68   2 2.73  60 2.74
                            10 2.76  52 2.77   9 2.80   6 2.85  31 3.40
  23  0.041  0.131  0.035-  70 2.57  41 2.60  40 2.62  45 2.66  76 2.67  62 2.67  24 2.69  35 2.79
                            53 2.85
  24  0.131  0.958  0.133-  79 2.51  77 2.55  35 2.56  53 2.58  55 2.59  70 2.66  38 2.68  58 2.69
                            23 2.69  73 2.69  66 2.75  41 2.78
  25  0.374  0.461  0.422-  16 2.66  17 2.69  15 2.71  13 2.71  14 2.71   5 2.72  30 2.81   3 2.83
                            18 2.85
  26  0.455  0.547  0.219-  73 2.50  74 2.54  51 2.56  79 2.64  30 2.65  18 2.66  64 2.69  78 2.70
                            32 2.71  68 2.72  44 2.73  67 2.78
  27  0.622  0.712  0.421-  14 2.63  15 2.67   8 2.67  12 2.68  44 2.68  11 2.69   7 2.72  61 2.74
                            29 2.78
  28  0.956  0.787  0.221-  58 2.56  66 2.58  50 2.58  42 2.62   1 2.63  49 2.64   2 2.67  64 2.68
                            33 2.69  59 2.77  79 2.86  77 2.87
  29  0.795  0.623  0.318-  42 2.55  39 2.58  32 2.62  75 2.62  49 2.67  33 2.69  44 2.71   1 2.72
                            61 2.72  12 2.76   7 2.77  27 2.78
  30  0.290  0.632  0.317-  79 2.56  64 2.60  52 2.65  26 2.65   2 2.68  44 2.69  33 2.69  14 2.75
                             3 2.76  18 2.76  25 2.81  16 2.82
  31  0.201  0.279  0.225-  70 2.51  43 2.58  55 2.59  57 2.59  65 2.60   3 2.64  39 2.65  21 2.71
                            80 2.75  42 2.76  68 2.84  64 2.87  22 3.40
  32  0.705  0.551  0.221-  54 2.54  69 2.56  51 2.58  49 2.61  29 2.62  78 2.65  42 2.65  65 2.67
                            44 2.68  75 2.69  26 2.71  67 2.74
  33  0.040  0.632  0.323-   3 2.64  30 2.69  29 2.69  28 2.69  64 2.69  12 2.69  39 2.69  16 2.70
                             1 2.71   5 2.71   2 2.71  42 2.72
  34  0.795  0.861  0.046-  50 2.37  48 2.50  66 2.51  36 2.59  71 2.61  63 2.64  20 2.75  62 2.83
                            35 2.84
  35  0.058  0.864  0.041-  58 2.53  24 2.56  36 2.57  72 2.57  66 2.62  53 2.71  23 2.79  62 2.80
                            34 2.84
  36  0.046  0.632  0.040-  21 2.52  35 2.57  58 2.57  34 2.59  50 2.60  72 2.69  47 2.69  71 2.80
                            40 2.81
  37  0.628  0.225  0.130-  67 2.51  51 2.51  56 2.52  74 2.55  20 2.55  68 2.56  59 2.56  41 2.58
                            62 2.59  66 2.72  57 2.81  48 3.01
  38  0.383  0.954  0.131-  53 2.46  80 2.47  45 2.47  78 2.53  63 2.55  73 2.57  55 2.57  48 2.58
                            54 2.59  24 2.68  57 2.68  70 2.73
  39  0.035  0.384  0.323-  29 2.58   3 2.61  75 2.63  22 2.63  42 2.64  31 2.65  10 2.66   7 2.67
                            33 2.69   5 2.70  65 2.73  43 2.85
  40  0.026  0.381  0.040-  69 2.42  21 2.52  76 2.55  71 2.56  70 2.56  23 2.62  36 2.81  45 2.87
                            47 2.92
  41  0.872  0.215  0.130-  76 2.45  77 2.51  65 2.52  67 2.53  62 2.57  37 2.58  23 2.60  69 2.61
                            51 2.63  66 2.70  70 2.70  24 2.78
  42  0.955  0.544  0.224-  50 2.54  29 2.55  21 2.60  69 2.60  28 2.62  39 2.64  32 2.65  65 2.67
                            49 2.67  64 2.71  33 2.72  31 2.76
  43  0.297  0.116  0.320-  55 2.52  31 2.58   8 2.59  52 2.60  19 2.60  61 2.61  22 2.62  80 2.63
                            10 2.71  13 2.74   3 2.76  39 2.85
  44  0.541  0.629  0.321-  61 2.62  78 2.62  52 2.63  14 2.66  15 2.67  32 2.68  27 2.68  18 2.69
                            30 2.69  75 2.69  29 2.71  26 2.73
  45  0.295  0.116  0.043-  70 2.47  38 2.47  57 2.57  53 2.60  23 2.66  63 2.67  20 2.76  40 2.87
                            47 2.87
  46  0.550  0.625  0.046-  51 2.38  73 2.40  54 2.40  71 2.58  53 2.61  63 2.63  76 2.64  56 2.66
                            72 2.70
  47  0.297  0.382  0.042-  74 2.38  21 2.52  57 2.61  72 2.64  56 2.64  36 2.69  20 2.75  45 2.87
                            40 2.92
  48  0.625  0.947  0.134-  49 2.39  80 2.48  54 2.49  34 2.50  63 2.55  59 2.56  20 2.57  38 2.58
                            50 2.61  57 2.72  66 2.76  37 3.01
  49  0.707  0.793  0.220-  48 2.39  50 2.47  54 2.49  80 2.59   1 2.61  32 2.61  61 2.64  28 2.64
                            78 2.66  42 2.67  29 2.67  59 2.77
  50  0.864  0.703  0.130-  34 2.37  71 2.41  49 2.47  54 2.50  42 2.54  28 2.58  69 2.59  36 2.60
[...]

 FORCES acting on ions
    electron-ion (+dipol)            ewald-force                    non-local-force                 convergence-correction
   -.381E+02 0.738E+02 -.148E+04   0.378E+02 -.741E+02 0.147E+04   0.279E+00 0.268E+00 0.238E+01   -.162E-01 0.657E-02 0.918E-01
   0.291E+02 0.610E+02 -.145E+04   -.287E+02 -.611E+02 0.144E+04   -.350E+00 0.111E+00 0.239E+01   0.148E-01 0.349E-01 0.125E+00
   0.384E+02 -.872E+01 -.150E+04   -.401E+02 0.895E+01 0.149E+04   0.169E+01 -.232E+00 0.198E+01   0.380E-01 -.334E-02 0.134E+00
   -.153E+02 0.236E+02 -.286E+04   0.162E+02 -.230E+02 0.286E+04   -.913E+00 -.629E+00 0.641E+00   0.323E-02 -.108E-02 -.948E-03
   -.150E+02 0.103E+02 -.285E+04   0.144E+02 -.977E+01 0.285E+04   0.562E+00 -.490E+00 0.168E+01   0.845E-02 0.792E-03 0.475E-01
   0.692E+00 0.794E+00 -.285E+04   -.782E+00 -.112E+01 0.285E+04   0.673E-01 0.267E+00 0.126E+01   0.222E-01 0.383E-02 -.182E-01
   -.208E+02 -.147E+01 -.289E+04   0.210E+02 0.986E+00 0.289E+04   -.564E-01 0.459E+00 0.165E+01   -.429E-01 -.429E-02 0.347E-01
   0.156E+02 -.230E+02 -.287E+04   -.159E+02 0.232E+02 0.287E+04   0.328E+00 -.123E+00 0.208E+01   -.313E-01 -.337E-01 0.312E-01
   -.255E+02 0.133E+02 -.288E+04   0.253E+02 -.131E+02 0.288E+04   0.118E+00 -.270E+00 0.134E+01   0.153E-01 -.984E-03 0.132E-01
   -.896E+01 -.188E+01 -.284E+04   0.946E+01 0.214E+01 0.284E+04   -.443E+00 -.191E+00 0.188E+01   -.238E-01 -.423E-01 0.259E-01
   0.339E+01 -.142E+02 -.287E+04   -.365E+01 0.143E+02 0.287E+04   0.215E+00 -.988E-01 0.291E+00   0.948E-02 -.226E-01 0.336E-01
   -.170E+02 0.941E+01 -.285E+04   0.172E+02 -.107E+02 0.285E+04   -.164E+00 0.126E+01 0.105E+01   -.293E-01 0.292E-01 0.489E-01
   0.485E+01 -.256E+02 -.286E+04   -.521E+01 0.252E+02 0.285E+04   0.376E+00 0.378E+00 0.116E+01   0.261E-02 -.119E-01 0.512E-01
   0.278E+02 0.141E+02 -.287E+04   -.273E+02 -.139E+02 0.287E+04   -.639E+00 -.234E+00 0.167E+01   0.139E-01 0.162E-01 0.244E-01
   0.269E+02 -.103E+02 -.287E+04   -.265E+02 0.105E+02 0.287E+04   -.408E+00 -.240E+00 0.152E+01   0.258E-01 0.114E-01 0.324E-01
   0.218E+01 -.193E+01 -.285E+04   -.220E+01 0.131E+01 0.285E+04   0.754E-02 0.618E+00 0.152E+01   0.830E-02 0.136E-01 0.148E-02
   0.293E+02 -.656E+01 -.287E+04   -.292E+02 0.719E+01 0.286E+04   -.112E+00 -.617E+00 0.143E+01   0.126E-01 -.231E-01 0.257E-01
   0.686E+02 -.655E+02 -.149E+04   -.673E+02 0.656E+02 0.149E+04   -.122E+01 -.155E+00 0.175E+01   0.815E-02 -.130E-01 0.131E+00
   0.244E+02 -.393E+02 -.148E+04   -.256E+02 0.388E+02 0.148E+04   0.111E+01 0.617E+00 0.230E+01   0.177E-01 -.581E-01 0.978E-01
   0.339E+02 0.246E+02 0.295E+04   -.340E+02 -.247E+02 -.295E+04   0.685E-01 0.226E+00 -.265E+01   0.102E-01 -.926E-01 0.275E-01
   0.257E+02 -.624E+01 0.158E+04   -.266E+02 0.692E+01 -.158E+04   0.962E+00 -.680E+00 0.933E+00   -.106E-01 0.286E-01 0.119E+00
   -.646E+02 0.110E+02 -.145E+04   0.656E+02 -.103E+02 0.144E+04   -.895E+00 -.613E+00 0.261E+01   -.329E-01 -.313E-01 0.134E+00
   -.527E+02 0.593E+02 0.302E+04   0.534E+02 -.582E+02 -.301E+04   -.692E+00 -.108E+01 -.240E+01   -.181E-01 -.375E-01 0.114E-01
   0.909E+01 -.545E+02 0.156E+04   -.881E+01 0.539E+02 -.156E+04   -.313E+00 0.489E+00 -.785E+00   -.190E-01 0.628E-02 0.114E+00
   0.881E+01 0.680E+00 -.286E+04   -.904E+01 -.701E+00 0.286E+04   0.234E+00 0.128E-01 0.104E+01   0.115E-01 0.110E-01 0.207E-01
   -.153E+02 -.103E+01 0.108E+02   0.153E+02 0.128E+01 -.121E+02   -.787E-01 -.352E+00 0.103E+01   0.193E-02 0.267E-01 0.170E+00
   -.141E+02 0.104E+02 -.287E+04   0.132E+02 -.107E+02 0.287E+04   0.899E+00 0.287E+00 0.168E+01   -.372E-03 -.473E-02 0.382E-01
   0.148E+02 0.521E+02 0.251E+02   -.157E+02 -.534E+02 -.255E+02   0.102E+01 0.127E+01 0.253E+00   -.281E-01 0.569E-01 0.122E+00
   -.661E+02 0.314E+01 -.146E+04   0.667E+02 -.427E+01 0.146E+04   -.561E+00 0.116E+01 0.276E+01   -.304E-01 0.399E-01 0.103E+00
   0.294E+02 0.288E+02 -.150E+04   -.292E+02 -.280E+02 0.150E+04   -.267E+00 -.748E+00 0.223E+01   0.154E-01 0.294E-01 0.148E+00
   0.825E+01 -.646E+02 -.642E+02   -.923E+01 0.641E+02 0.644E+02   0.104E+01 0.536E+00 -.296E+00   0.842E-02 -.505E-01 0.125E+00
   -.226E+02 -.198E+02 0.534E+01   0.233E+02 0.205E+02 -.617E+01   -.709E+00 -.762E+00 0.655E+00   0.143E-01 0.489E-01 0.171E+00
   0.209E+02 0.121E+02 -.121E+04   -.210E+02 -.124E+02 0.121E+04   0.102E+00 0.351E+00 0.329E+00   -.946E-02 0.284E-01 0.991E-01
   -.670E+02 -.761E+01 0.237E+04   0.672E+02 0.630E+01 -.237E+04   -.285E+00 0.132E+01 -.284E+01   -.804E-05 0.275E-01 0.427E-01
   0.361E+02 -.201E+02 0.241E+04   -.360E+02 0.185E+02 -.241E+04   -.886E-01 0.168E+01 -.256E+01   -.132E-01 0.133E-01 0.199E-01
   0.267E+02 0.367E+01 0.241E+04   -.267E+02 -.297E+01 -.240E+04   -.361E-01 -.805E+00 -.315E+01   -.489E-02 0.553E-01 0.101E-01
   0.182E+02 0.611E+02 0.125E+04   -.173E+02 -.602E+02 -.125E+04   -.967E+00 -.827E+00 -.816E-01   0.117E-02 -.606E-01 0.833E-01
   0.299E+02 -.649E+02 0.125E+04   -.299E+02 0.646E+02 -.125E+04   -.101E+00 0.297E+00 -.458E+00   0.390E-01 0.413E-02 0.111E+00
   -.580E+02 -.221E+02 -.120E+04   0.582E+02 0.223E+02 0.120E+04   -.127E+00 -.228E+00 0.631E+00   -.187E-01 -.242E-01 0.103E+00
   -.119E+03 0.180E+02 0.242E+04   0.118E+03 -.178E+02 -.242E+04   0.765E+00 -.199E+00 -.301E+01   -.599E-02 -.158E-01 -.448E-02
   -.347E+02 0.509E+02 0.127E+04   0.339E+02 -.504E+02 -.127E+04   0.865E+00 -.537E+00 -.465E+00   0.176E-01 -.525E-01 0.908E-01
   -.529E+02 0.190E+01 -.372E+02   0.526E+02 -.156E+01 0.371E+02   0.241E+00 -.437E+00 -.122E+00   -.243E-01 0.445E-01 0.105E+00
   0.147E+02 -.813E+02 -.121E+04   -.148E+02 0.812E+02 0.121E+04   0.114E+00 0.235E+00 0.957E+00   0.211E-02 -.480E-01 0.800E-01
   0.127E+02 0.277E+02 -.121E+04   -.128E+02 -.278E+02 0.120E+04   0.961E-01 -.276E-01 0.166E+00   0.837E-02 0.217E-01 0.100E+00
   0.328E+01 -.623E+02 0.239E+04   -.405E+01 0.613E+02 -.239E+04   0.804E+00 0.109E+01 -.304E+01   -.412E-02 -.486E-01 0.184E-01
   0.110E+02 -.155E+02 0.269E+04   -.110E+02 0.158E+02 -.269E+04   0.265E-01 -.287E+00 -.253E+01   -.787E-02 0.376E-01 0.291E-02
   0.132E+03 0.386E+02 0.272E+04   -.132E+03 -.377E+02 -.272E+04   0.174E+00 -.888E+00 -.274E+01   -.657E-02 -.169E-02 0.689E-02
   -.479E+02 -.438E+02 0.138E+04   0.474E+02 0.427E+02 -.138E+04   0.498E+00 0.119E+01 -.386E+00   -.835E-02 -.226E-01 0.134E+00
   -.660E+02 0.520E+02 0.200E+02   0.661E+02 -.520E+02 -.208E+02   -.622E-01 -.147E+00 0.673E+00   -.172E-01 0.629E-01 0.109E+00
   -.105E+03 0.121E+02 0.138E+04   0.105E+03 -.118E+02 -.138E+04   0.482E+00 -.473E+00 -.170E+00   -.711E-03 0.876E-01 0.121E+00
   -.158E+02 0.621E+01 0.136E+04   0.160E+02 -.648E+01 -.136E+04   -.133E+00 0.348E+00 -.152E+00   0.121E-01 -.189E-01 0.133E+00
   0.427E+02 0.321E+01 -.137E+04   -.426E+02 -.337E+01 0.137E+04   -.203E+00 0.192E+00 0.124E+01   0.232E-02 0.124E-01 0.103E+00
   0.598E+02 -.793E+02 0.270E+04   -.594E+02 0.790E+02 -.270E+04   -.472E+00 0.223E+00 -.271E+01   -.178E-01 0.503E-01 0.136E-01
   -.137E+02 0.369E+01 0.135E+04   0.137E+02 -.353E+01 -.135E+04   -.157E+00 -.266E+00 -.474E+00   0.521E-01 0.108E+00 0.174E+00
   0.251E+02 -.729E+02 -.145E+02   -.243E+02 0.724E+02 0.147E+02   -.813E+00 0.560E+00 -.433E+00   0.316E-02 -.307E-01 0.120E+00
   0.358E+02 0.408E+02 0.336E+04   -.360E+02 -.399E+02 -.336E+04   0.119E+00 -.921E+00 -.396E+01   0.166E-01 -.487E-01 -.394E-01
   0.575E+02 0.579E+01 0.170E+04   -.577E+02 -.629E+01 -.170E+04   0.157E+00 0.649E+00 -.137E+00   -.135E-02 -.111E+00 0.165E+00
   0.114E+03 -.350E+02 0.167E+04   -.114E+03 0.350E+02 -.167E+04   -.199E+00 -.556E-01 -.109E+00   -.259E-01 0.617E-01 0.113E+00
   0.208E+02 0.689E+02 0.978E+02   -.213E+02 -.686E+02 -.984E+02   0.600E+00 -.318E+00 0.484E+00   -.345E-01 -.855E-01 0.149E+00
   0.142E+02 0.571E+02 -.166E+04   -.139E+02 -.569E+02 0.166E+04   -.414E+00 -.193E+00 0.122E+01   0.266E-01 -.298E-01 0.129E+00
[...]
   0.562E+02 -.209E+02 0.102E+02   -.555E+02 0.207E+02 -.104E+02   -.734E+00 0.238E+00 0.106E+00   -.149E-01 -.464E-01 0.184E+00
   -.787E+02 0.269E+01 0.151E+04   0.782E+02 -.255E+01 -.151E+04   0.476E+00 -.950E-01 -.245E+00   0.845E-02 -.120E-01 0.132E+00
   -.187E+02 0.171E+02 0.159E+04   0.190E+02 -.173E+02 -.159E+04   -.385E+00 0.268E+00 -.457E+00   -.121E-01 -.521E-01 0.117E+00
   -.109E+03 -.818E+01 0.302E+04   0.109E+03 0.816E+01 -.302E+04   -.474E+00 0.670E-02 -.173E+01   0.542E-01 0.520E-01 0.121E-01
   0.698E+02 -.468E+02 0.301E+04   -.702E+02 0.473E+02 -.301E+04   0.504E+00 -.613E+00 -.106E+01   -.376E-01 0.651E-01 0.915E-02
   0.197E+02 -.331E+02 0.152E+04   -.193E+02 0.328E+02 -.152E+04   -.386E+00 0.214E+00 -.240E-01   -.257E-01 0.742E-01 0.155E+00
   0.566E+02 0.664E+01 0.155E+04   -.561E+02 -.671E+01 -.155E+04   -.555E+00 0.945E-01 -.225E+00   -.843E-02 0.262E-01 0.142E+00
   -.339E+02 -.620E+02 -.151E+04   0.339E+02 0.621E+02 0.151E+04   0.850E-01 -.696E-01 0.589E+00   -.561E-02 -.227E-01 0.136E+00
   -.428E+02 0.319E+02 0.300E+04   0.433E+02 -.313E+02 -.300E+04   -.477E+00 -.609E+00 -.202E+01   0.923E-02 -.782E-01 -.862E-02
   -.437E+02 0.800E+02 0.814E+02   0.441E+02 -.797E+02 -.815E+02   -.408E+00 -.356E+00 -.120E+00   0.469E-02 -.191E-01 0.144E+00
   -.172E+01 0.565E+02 -.138E+02   0.162E+01 -.558E+02 0.135E+02   0.995E-01 -.812E+00 -.166E-01   0.485E-01 0.545E-01 0.142E+00
   0.596E+02 0.157E+00 -.275E+02   -.592E+02 0.365E+00 0.274E+02   -.394E+00 -.607E+00 -.682E-01   -.314E-03 0.424E-01 0.151E+00
   0.784E+01 -.604E+02 0.345E+02   -.826E+01 0.600E+02 -.347E+02   0.355E+00 0.488E+00 0.532E-01   0.335E-01 -.733E-01 0.103E+00
   -.238E+01 0.458E-01 -.340E+03   0.257E+01 -.728E-01 0.341E+03   -.167E+00 0.624E-01 -.158E+01   -.116E-02 -.742E-03 -.658E-02
   -.179E+01 -.903E+00 -.797E+01   0.258E-13 0.309E-12 0.122E-10   0.165E+01 0.105E+01 0.126E+01   0.107E+00 -.101E+00 0.670E+01

 POSITION                                       TOTAL-FORCE (eV/Angst)
     13.19721      8.19200      6.96273        -0.010425     -0.006415     -0.003834
      5.19713      8.22232      6.90573        -0.013182     -0.013825     -0.008907
      5.05396      3.54618      6.99106         0.007904     -0.011930     -0.009700
     14.61244      8.98407      9.28577         0.034644     -0.004040      0.004463
      3.79037      4.31214      9.32134        -0.022385      0.011971      0.002580
      6.51509      8.95720      9.19879        -0.022290     -0.017942      0.024056
     11.87353      4.27135      9.30255         0.036096     -0.001244      0.005195
      9.18436      8.94632      9.18698         0.007557      0.005056     -0.002174
     10.53662      1.97200      9.18289        -0.009037     -0.035427     -0.005839
      2.49047      1.96753      9.22153        -0.006539      0.010022     -0.000447
     11.85900      8.96515      9.29614        -0.006189     -0.001141     -0.011501
     13.21395      6.58325      9.35749         0.025356     -0.007772     -0.019879
      5.14766      1.95268      9.26760         0.006196     -0.018533      0.000057
      7.87467      6.64067      9.25600        -0.021940     -0.002111     -0.009884
      9.21643      4.29948      9.23127        -0.026161     -0.018295     -0.006518
      5.17188      6.61201      9.29058         0.011321      0.012681      0.017308
      7.85561      1.98066      9.21233         0.006210      0.025558     -0.004580
      7.91649      3.49962      6.94895         0.001109     -0.002876      0.013175
      6.41875      1.15836      6.90845        -0.004185      0.008090      0.000114
      6.55899      1.14886      0.96438        -0.009375     -0.003564      0.005123
      3.75747      4.28391      2.83239        -0.016233     -0.020832     -0.017272
      1.20483      1.26720      6.88735         0.004588      0.004523     -0.010272
      1.14464      1.22211      0.77800        -0.010168      0.012779     -0.006663
      6.56687      8.92705      2.92680        -0.003540     -0.006399     -0.002728
      6.50130      4.29452      9.30167         0.016113      0.012779     -0.004453
      7.84317      5.09593      4.82253        -0.013185     -0.013594     -0.066735
     10.50414      6.62005      9.24670        -0.005460      0.001634      0.014597
     14.51918      7.33687      4.85107        -0.009504      0.006551      0.025011
     11.91626      5.80706      7.00188         0.004699      0.013728      0.021949
      6.52804      5.88201      6.97568        -0.006074     -0.009796     -0.017361
      3.66556      2.59850      4.95871        -0.000192     -0.014465     -0.010990
     10.55203      5.13182      4.86368         0.018834     -0.013188     -0.008978
      3.83619      5.88838      7.11935        -0.002070     -0.006748     -0.004769
     13.19219      8.02433      1.00573        -0.007442     -0.005417      0.018550
      5.26821      8.05279      0.90098         0.006686      0.004209      0.007294
      3.88993      5.88755      0.88776         0.000919     -0.012234      0.011241
      7.96781      2.09986      2.87061        -0.019410     -0.003017     -0.001864
      9.24633      8.88529      2.89138        -0.002313      0.035697     -0.017234
      2.44551      3.57422      7.09790         0.003989     -0.002666     -0.000684
      2.33068      3.55115      0.88683         0.028705      0.002454      0.002072
     10.54411      2.00466      2.85564        -0.015856      0.023501     -0.023519
     13.20125      5.07200      4.92596        -0.003521     -0.017550      0.005275
      3.82311      1.07484      7.03671         0.005795      0.000910     -0.000872
      9.20252      5.85807      7.06133        -0.004220     -0.003520     -0.005542
      3.79990      1.08422      0.93869        -0.002716     -0.002907      0.022023
      9.28005      5.82724      1.01487        -0.020975      0.000904      0.005676
      5.25238      3.56304      0.92964        -0.012482      0.002381      0.007673
     11.82187      8.82904      2.94048        -0.009600      0.011862      0.012148
     11.87544      7.38555      4.84901         0.014522      0.003386      0.037716
     13.08248      6.55049      2.85969         0.022097     -0.001704      0.004088
      9.21707      4.27951      2.82588         0.015792      0.011484     -0.002450
      7.90318      8.14975      6.98837         0.012923     -0.002886     -0.002033
      7.97778      8.09308      0.93938        -0.009645      0.024261      0.003205
     10.58681      6.67050      2.84722        -0.011335      0.013903      0.009997
      2.57872      0.24765      5.01085         0.030807      0.000241     -0.018096
      7.89204      3.56304      0.82040        -0.004961     -0.007996      0.011579
      5.16267      1.91547      2.95300        -0.008875     -0.004439      0.013772
      5.28297      6.56629      2.94356         0.002224     -0.004125      0.008663
      7.85418      0.47531      4.84859        -0.001033     -0.020496      0.042746
      9.22333      1.20212      6.94898         0.002345     -0.000294     -0.001640
[...]
      9.26929      2.70975      4.92992         0.004894     -0.009326     -0.018131
      6.49665      2.73164      4.86532        -0.011061     -0.010071     -0.006796
     11.86943      4.25741      2.84734         0.006989     -0.019736     -0.029406
      2.48289      1.92464      2.85312        -0.018813      0.002110     -0.000906
     11.85493      5.78777      0.92942        -0.008103      0.024043      0.007228
      6.57689      5.84104      0.99111         0.012120      0.006694      0.000430
      7.99191      6.64267      2.86446         0.011588      0.003246     -0.008505
      6.54439      4.21089      2.82135        -0.009816      0.007366      0.009840
     10.58197      3.54844      7.02815        -0.003559     -0.002254     -0.006005
     10.54163      3.50860      0.91916        -0.007134     -0.013725      0.014541
     10.57208      0.50548      4.87385        -0.011328      0.000850     -0.002147
      9.21999      7.42016      4.95848         0.018281      0.006180     -0.034073
      6.61478      7.43446      4.94584         0.033633     -0.012035     -0.025011
      5.12149      0.26726      4.90165         0.007802      0.002657      0.023182
     13.20173      8.23665     10.26079         0.018782      0.032755      0.030201
    total drift:                               -0.031313      0.047494     -0.000777

  FREE ENERGIE OF THE ION-ELECTRON SYSTEM (eV)
  free  energy   TOTEN  =      -509.13991706 eV

  energy  without entropy=     -509.16376476  energy(sigma->0) =     -509.14786629

 d Force =-0.1763184E-04[-0.130E-03, 0.949E-04]  d Energy =-0.1890889E-04 0.128E-05
 d Force =-0.6870085E+01[-0.687E+01,-0.687E+01]  d Ewald  =-0.6870085E+01-0.365E-06

 reached required accuracy - stopping structural energy minimisation