 vasp.5.4.4.18Apr17-6-g9f103f2a35 (build Nov 30 2020 22:55:02) complex

 executed on             LinuxIFC date 2022.09.17  16:44:30

 INCAR:
 POTCAR:    PAW_PBE Pt 04Feb2005
 POTCAR:    PAW_PBE Fe 06Sep2000
 POTCAR:    PAW_PBE Co 02Aug2007
 POTCAR:    PAW_PBE Cu 22Jun2005
 POTCAR:    PAW_PBE Ni 02Aug2007
 POTCAR:    PAW_PBE C 08Apr2002

 POTCAR:    PAW_PBE Pt 04Feb2005
   VRHFIN =Pt: s1d9

   TITEL  = PAW_PBE Pt 04Feb2005
   POMASS =  195.080; ZVAL   =   10.000    mass and valenz
   ENMAX  =  230.283; ENMIN  =  172.712 eV

 POTCAR:    PAW_PBE Fe 06Sep2000
   VRHFIN =Fe:  d7 s1

   TITEL  = PAW_PBE Fe 06Sep2000
   POMASS =   55.847; ZVAL   =    8.000    mass and valenz
   ENMAX  =  267.882; ENMIN  =  200.911 eV

 POTCAR:    PAW_PBE Co 02Aug2007
   VRHFIN =Co: d8 s1

   TITEL  = PAW_PBE Co 02Aug2007
   POMASS =   58.933; ZVAL   =    9.000    mass and valenz
   ENMAX  =  267.968; ENMIN  =  200.976 eV

 POTCAR:    PAW_PBE Cu 22Jun2005
   VRHFIN =Cu: d10 p1

   TITEL  = PAW_PBE Cu 22Jun2005
   POMASS =   63.546; ZVAL   =   11.000    mass and valenz
   ENMAX  =  295.446; ENMIN  =  221.585 eV

 POTCAR:    PAW_PBE Ni 02Aug2007
   VRHFIN =Ni:

   TITEL  = PAW_PBE Ni 02Aug2007
   POMASS =   58.690; ZVAL   =   10.000    mass and valenz
   ENMAX  =  269.532; ENMIN  =  202.149 eV

 POTCAR:    PAW_PBE C 08Apr2002
   VRHFIN =C: s2p2

   TITEL  = PAW_PBE C 08Apr2002
   POMASS =   12.011; ZVAL   =    4.000    mass and valenz
   ENMAX  =  400.000; ENMIN  =  300.000 eV

 Optimization of the real space projectors (new method)

 maximal supplied QI-value         = 14.36
 optimisation between [QCUT,QGAM] = [ 11.92, 23.98] = [ 39.79,161.09] Ry
 Optimized for a Real-space Cutoff    1.49 Angstroem

   l    n(q)    QCUT    max X(q) W(low)/X(q) W(high)/X(q)  e(spline)
   2     10    11.920    66.195    0.79E-04    0.18E-03    0.24E-06
   2     10    11.920    64.643    0.81E-04    0.19E-03    0.24E-06
   0     11    11.920    95.520    0.28E-04    0.54E-04    0.18E-06
   0     11    11.920    63.403    0.27E-04    0.52E-04    0.17E-06
   1     10    11.920    19.961    0.18E-04    0.11E-03    0.23E-06
   1     10    11.920    13.289    0.25E-04    0.87E-04    0.19E-06
 Optimization of the real space projectors (new method)

[...]

   l    n(q)    QCUT    max X(q) W(low)/X(q) W(high)/X(q)  e(spline)
   2      9    11.864    60.317    0.21E-03    0.51E-03    0.25E-06
   2      9    11.864    55.921    0.21E-03    0.51E-03    0.26E-06
   0      9    11.864    51.690    0.22E-03    0.30E-04    0.17E-06
   0      9    11.864    30.015    0.20E-03    0.28E-04    0.15E-06
   1      9    11.864    18.849    0.76E-04    0.33E-03    0.17E-06
   1      9    11.864    14.624    0.60E-04    0.28E-03    0.15E-06
 Optimization of the real space projectors (new method)

 maximal supplied QI-value         = 25.13
 optimisation between [QCUT,QGAM] = [ 11.81, 23.88] = [ 39.08,159.64] Ry
 Optimized for a Real-space Cutoff    1.18 Angstroem

   l    n(q)    QCUT    max X(q) W(low)/X(q) W(high)/X(q)  e(spline)
   0      8    11.813   115.676    0.10E-03    0.16E-03    0.35E-06
   0      8    11.813    87.132    0.10E-03    0.16E-03    0.35E-06
   1      8    11.813     4.429    0.16E-03    0.13E-04    0.22E-06
   1      8    11.813     2.733    0.13E-03    0.10E-04    0.18E-06
  PAW_PBE Pt 04Feb2005                  :
  PAW_PBE Fe 06Sep2000                  :
  PAW_PBE Co 02Aug2007                  :
  PAW_PBE Cu 22Jun2005                  :
  PAW_PBE Ni 02Aug2007                  :
  PAW_PBE C 08Apr2002                   :

 POSCAR: 10.56
  positions in cartesian coordinates
 exchange correlation table for  LEXCH =        8
   RHO(1)=    0.500       N(1)  =     2000
   RHO(2)=  100.500       N(2)  =     4000

 ion  position               nearest neighbor table
   1  0.789  0.880  0.319-  19 2.63  28 2.64  33 2.65  49 2.66  59 2.67  60 2.67  61 2.67  29 2.68
                             2 2.71  11 2.77  12 2.86   4 2.88
   2  0.043  0.884  0.317-  79 2.56  77 2.61  60 2.62  30 2.64  52 2.65  22 2.66  28 2.68  33 2.69
                             1 2.71   6 2.88  16 2.88   4 2.96
   3  0.279  0.381  0.320-  39 2.56  64 2.57  33 2.59  31 2.63  19 2.71  30 2.72  68 2.72  43 2.72
                            13 2.80   5 2.81  18 2.82  25 2.86
   4  0.872  0.957  0.431-  81 1.93  11 2.61  12 2.61  17 2.69  16 2.69   6 2.72   9 2.75   1 2.88
                            60 2.95   2 2.96
   5  0.122  0.461  0.429-  16 2.59  10 2.59  12 2.62   7 2.63  25 2.67  13 2.67  39 2.76  33 2.77
                             3 2.81
   6  0.128  0.959  0.430-  81 1.95  14 2.62   8 2.62  10 2.70  16 2.70   9 2.71   4 2.72   2 2.88
                            52 2.92  22 3.00
   7  0.874  0.461  0.426-   9 2.59  12 2.62  15 2.63   5 2.63  10 2.65  27 2.66  39 2.69  75 2.75
                            29 2.78
   8  0.375  0.960  0.420-  43 2.60  27 2.62  14 2.62   6 2.62  13 2.63  11 2.63  10 2.64  52 2.69
                            61 2.72
   9  0.872  0.217  0.428-  81 1.94   7 2.59  15 2.60  17 2.69  10 2.70   6 2.71   4 2.75  75 2.78
                            60 2.84  22 2.93
  10  0.128  0.214  0.421-  13 2.58   5 2.59  39 2.63   8 2.64   7 2.65  43 2.68   9 2.70   6 2.70
                            22 2.77
  11  0.624  0.960  0.424-   4 2.61  13 2.63  27 2.63   8 2.63  12 2.65  17 2.65   1 2.77  61 2.84
                            19 2.84
  12  0.874  0.709  0.427-   4 2.61   7 2.62   5 2.62  11 2.65  27 2.65  16 2.65  33 2.71  29 2.82
                             1 2.86
  13  0.375  0.208  0.425-  10 2.58  17 2.61  11 2.63   8 2.63  25 2.67   5 2.67  43 2.78   3 2.80
                            19 2.83
  14  0.375  0.712  0.423-  27 2.60   6 2.62   8 2.62  15 2.64  25 2.65  16 2.66  44 2.70  30 2.76
                            52 2.77
  15  0.625  0.462  0.423-   9 2.60  27 2.62   7 2.63  14 2.64  25 2.64  17 2.66  44 2.70  75 2.72
                            18 2.76
  16  0.127  0.704  0.425-   5 2.59  25 2.59  33 2.63  12 2.65  14 2.66   4 2.69   6 2.70  30 2.79
                             2 2.88
  17  0.620  0.212  0.420-  13 2.61  25 2.61  11 2.65  15 2.66   4 2.69   9 2.69  18 2.72  60 2.74
                            19 2.81
  18  0.549  0.376  0.317-  67 2.55  60 2.59  75 2.60  44 2.65  68 2.66  26 2.66  30 2.71  17 2.72
                            19 2.74  15 2.76   3 2.82  25 2.90
  19  0.535  0.124  0.315-  80 2.55  68 2.57  43 2.58  59 2.60  61 2.63   1 2.63   3 2.71  18 2.74
                            60 2.77  17 2.81  13 2.83  11 2.84
  20  0.547  0.124  0.040-  37 2.55  57 2.56  48 2.58  62 2.64  63 2.68  47 2.68  45 2.68  56 2.70
                            34 2.71
  21  0.121  0.460  0.128-  40 2.52  36 2.53  47 2.53  42 2.60  69 2.61  64 2.62  70 2.64  50 2.64
                            58 2.67  31 2.70  57 2.71  74 2.72
  22  0.041  0.136  0.315-  65 2.53  55 2.56  77 2.57  39 2.59  43 2.59  75 2.59  60 2.65   2 2.66
                            52 2.74  10 2.77   9 2.93   6 3.00  31 3.42
  23  0.042  0.130  0.033-  70 2.58  40 2.60  41 2.61  45 2.62  62 2.64  76 2.64  24 2.69  35 2.73
                            53 2.78
  24  0.130  0.958  0.132-  79 2.51  77 2.54  35 2.57  53 2.57  55 2.58  70 2.62  38 2.64  58 2.64
                            73 2.65  23 2.69  66 2.70  41 2.72
  25  0.375  0.461  0.427-  16 2.59  17 2.61  15 2.64  14 2.65  13 2.67   5 2.67   3 2.86  30 2.86
                            18 2.90
  26  0.455  0.546  0.219-  73 2.50  74 2.54  51 2.56  79 2.61  64 2.63  30 2.64  18 2.66  68 2.67
                            78 2.67  32 2.68  67 2.72  44 2.75
  27  0.622  0.712  0.422-  14 2.60   8 2.62  15 2.62  11 2.63  12 2.65   7 2.66  44 2.66  61 2.76
                            29 2.77
  28  0.956  0.790  0.221-  58 2.57  66 2.57  50 2.58  42 2.59  49 2.61  64 2.63   1 2.64   2 2.68
                            59 2.70  33 2.72  79 2.76  77 2.77
  29  0.795  0.623  0.319-  39 2.54  42 2.55  75 2.58  32 2.62  33 2.64  44 2.65  61 2.68   1 2.68
                            49 2.68  27 2.77   7 2.78  12 2.82
  30  0.292  0.632  0.318-  79 2.56  52 2.60  64 2.61  44 2.62  26 2.64   2 2.64  33 2.67  18 2.71
                             3 2.72  14 2.76  16 2.79  25 2.86
  31  0.203  0.281  0.225-  70 2.52  55 2.56  65 2.57  43 2.59  57 2.60   3 2.63  39 2.66  80 2.70
                            21 2.70  42 2.71  68 2.75  64 2.79  22 3.42
  32  0.706  0.549  0.221-  54 2.53  69 2.56  51 2.58  49 2.59  42 2.60  29 2.62  78 2.62  65 2.63
                            26 2.68  44 2.69  75 2.70  67 2.70
  33  0.040  0.631  0.325-   3 2.59  16 2.63  29 2.64  39 2.64   1 2.65  30 2.67   2 2.69  64 2.70
                            12 2.71  28 2.72  42 2.72   5 2.77
  34  0.797  0.862  0.042-  50 2.38  66 2.51  48 2.53  36 2.55  71 2.56  63 2.61  20 2.71  35 2.76
                            62 2.76
  35  0.056  0.866  0.038-  58 2.54  72 2.55  36 2.56  24 2.57  66 2.62  53 2.65  23 2.73  62 2.73
                            34 2.76
  36  0.046  0.628  0.037-  21 2.53  34 2.55  35 2.56  58 2.58  50 2.61  47 2.63  72 2.64  40 2.69
                            71 2.72
  37  0.627  0.222  0.129-  51 2.51  74 2.51  67 2.52  56 2.53  41 2.55  20 2.55  68 2.56  59 2.56
                            62 2.59  66 2.66  57 2.73  48 2.89
  38  0.382  0.955  0.130-  53 2.47  80 2.48  45 2.49  78 2.53  48 2.54  73 2.55  63 2.55  54 2.56
                            55 2.59  57 2.62  24 2.64  70 2.67
  39  0.036  0.383  0.324-  29 2.54   3 2.56  75 2.59  22 2.59  10 2.63  33 2.64  42 2.66  31 2.66
                             7 2.69  65 2.75   5 2.76  43 2.79
  40  0.031  0.382  0.038-  69 2.44  21 2.52  71 2.53  76 2.56  70 2.57  23 2.60  36 2.69  45 2.78
                            47 2.78
  41  0.872  0.215  0.128-  76 2.45  65 2.52  77 2.53  67 2.54  37 2.55  69 2.57  62 2.57  51 2.59
                            23 2.61  70 2.65  66 2.66  24 2.72
  42  0.955  0.545  0.224-  29 2.55  50 2.56  28 2.59  21 2.60  32 2.60  69 2.61  49 2.63  65 2.64
                            64 2.65  39 2.66  31 2.71  33 2.72
  43  0.296  0.115  0.321-  55 2.52  52 2.53  61 2.56  19 2.58  22 2.59  31 2.59   8 2.60  80 2.65
                            10 2.68   3 2.72  13 2.78  39 2.79
  44  0.541  0.630  0.322-  61 2.56  52 2.57  30 2.62  78 2.63  18 2.65  29 2.65  75 2.66  27 2.66
                            32 2.69  14 2.70  15 2.70  26 2.75
  45  0.295  0.119  0.039-  70 2.49  38 2.49  57 2.57  53 2.60  23 2.62  63 2.64  20 2.68  47 2.75
                            40 2.78
  46  0.548  0.625  0.044-  51 2.38  73 2.39  54 2.41  71 2.56  53 2.56  63 2.58  76 2.59  56 2.62
                            72 2.64
  47  0.296  0.379  0.039-  74 2.41  21 2.53  57 2.61  72 2.61  56 2.62  36 2.63  20 2.68  45 2.75
                            40 2.78
  48  0.625  0.950  0.132-  49 2.40  80 2.48  54 2.48  34 2.53  38 2.54  59 2.55  50 2.56  63 2.57
                            20 2.58  57 2.65  66 2.68  37 2.89
  49  0.706  0.794  0.220-  48 2.40  50 2.48  54 2.49  80 2.53  32 2.59  28 2.61  78 2.61  61 2.62
                            42 2.63   1 2.66  29 2.68  59 2.69
  50  0.866  0.706  0.129-  34 2.38  71 2.42  54 2.48  49 2.48  42 2.56  48 2.56  69 2.58  28 2.58
[...]
     12.86756      6.45280      2.83379        -0.064899      0.084191      0.074521
      9.04201      4.20780      2.79628        -0.039389     -0.056691     -0.026321
      7.76965      7.99976      6.98782        -0.020169     -0.004941     -0.008456
      7.81315      7.93922      0.88653         0.018770     -0.016206      0.015688
     10.39144      6.53566      2.82198         0.014418     -0.004078      0.082982
      2.51347      0.25826      5.00083         0.061318      0.057852     -0.033534
      7.74264      3.48454      0.76157        -0.008575     -0.015471     -0.025743
      5.07835      1.87760      2.91701        -0.000647      0.021999     -0.000538
      5.16037      6.44715      2.89923        -0.010019     -0.013607     -0.019436
      7.70892      0.45986      4.84799         0.033405     -0.027749      0.020492
      9.07201      1.19055      7.00749         0.004513      0.005720     -0.008381
[...]
      9.07350      2.65252      4.91360         0.040573     -0.065812      0.009909
      6.37169      2.66558      4.85827        -0.016541      0.014450      0.002011
     11.65891      4.17486      2.81483         0.026688      0.003545     -0.062352
      2.44098      1.89237      2.83279         0.075395      0.053162      0.064773
     11.64953      5.68621      0.88546         0.184773     -0.068740     -0.069969
      6.44743      5.71949      0.92597        -0.046503      0.036024      0.008431
      7.82927      6.50651      2.83621        -0.033656      0.010067     -0.067094
      6.41922      4.13007      2.78290        -0.010557     -0.016843      0.068319
     10.37781      3.46518      7.05526         0.004319     -0.011566      0.010069
     10.34410      3.45013      0.86804         0.224275      0.027145     -0.002621
     10.37063      0.48410      4.87151        -0.015342     -0.068688      0.091668
      9.04079      7.29017      4.93700         0.010540     -0.036452     -0.029368
      6.46265      7.29503      4.94074         0.041627      0.057873     -0.024448
      5.04247      0.27633      4.88406         0.023542     -0.007410     -0.009633
     10.32405      0.43856     10.56827         0.025681      0.003132      0.278711
    total drift:                                0.014669     -0.006207     -0.039186

  FREE ENERGIE OF THE ION-ELECTRON SYSTEM (eV)
  free  energy   TOTEN  =      -512.97933539 eV

  energy  without entropy=     -512.97933539  energy(sigma->0) =     -512.97933539

 d Force = 0.1297339E-02[-0.111E-01, 0.137E-01]  d Energy = 0.2126117E-02-0.829E-03
 d Force =-0.5518810E+02[-0.553E+02,-0.551E+02]  d Ewald  =-0.5518997E+02 0.187E-02

 Finite differences progress:
  Degree of freedom:   3/  3
  Displacement:        2/  2
  Total:               6/  6

 SECOND DERIVATIVES (NOT SYMMETRIZED)
              81X         81Y         81Z
 81X   -11.383624   -0.964498   -0.389012
 81Y    -0.989503  -11.581028   -0.350822
 81Z    -0.397202   -0.356842  -15.557227

 Eigenvectors and eigenvalues of the dynamical matrix

   1 f  =   17.842121 THz   112.105352 2PiTHz  595.149073 cm-1    73.789107 meV
             X         Y         Z           dx          dy          dz
     12.973856  8.047170  7.011255            0           0           0
      5.118700  8.080461  6.977350            0           0           0
      4.962264  3.485896  7.031225            0           0           0
     14.255492  8.750535  9.488676            0           0           0
      3.728072  4.217419  9.448395            0           0           0
      6.412863  8.773605  9.458026            0           0           0
     11.662400  4.213008  9.371999            0           0           0
      9.023576  8.778296  9.230782            0           0           0
     10.350429  1.984569  9.412587            0           0           0
      2.481971  1.954155  9.251211            0           0           0
     11.654061  8.776831  9.332345            0           0           0
     12.967228  6.479487  9.399925            0           0           0
      5.061187  1.905956  9.343685            0           0           0
      7.719656  6.507044  9.316602            0           0           0
      9.037210  4.224188  9.298686            0           0           0
      5.058353  6.436618  9.345817            0           0           0
      7.669702  1.939503  9.244710            0           0           0
      7.781782  3.437224  6.973244            0           0           0
      6.303889  1.133813  6.923601            0           0           0
      6.428579  1.129740  0.878720            0           0           0
      3.705484  4.208436  2.816869            0           0           0
      1.157060  1.247174  6.929167            0           0           0
      1.135691  1.190800  0.725566            0           0           0
      6.436066  8.760995  2.900314            0           0           0
      6.396023  4.215283  9.395885            0           0           0
      7.681351  4.990728  4.814740            0           0           0
     10.322398  6.507886  9.292911            0           0           0
     14.264242  7.225928  4.862987            0           0           0
     11.684647  5.693918  7.018482            0           0           0
      6.418090  5.777869  6.998094            0           0           0
      3.621194  2.565893  4.960228            0           0           0
     10.360912  5.024302  4.856517            0           0           0
      3.757014  5.770079  7.154795            0           0           0
     12.969068  7.879772  0.925674            0           0           0
      5.163396  7.917194  0.830298            0           0           0
      3.807011  5.745024  0.813805            0           0           0
      7.798522  2.032451  2.832513            0           0           0
      9.077547  8.733730  2.857427            0           0           0
      2.401868  3.504965  7.130708            0           0           0
      2.344093  3.490514  0.825101            0           0           0
     10.348141  1.969830  2.822490            0           0           0
     12.960353  4.985870  4.925592            0           0           0
      3.733618  1.054339  7.058140            0           0           0
      9.038171  5.763967  7.079594            0           0           0
      3.748243  1.091821  0.867003            0           0           0
      9.091210  5.718673  0.960427            0           0           0
      5.124479  3.470454  0.855627            0           0           0
     11.620923  8.687580  2.905895            0           0           0
     11.653130  7.264496  4.842290            0           0           0
     12.867560  6.452796  2.833790            0           0           0
      9.042010  4.207796  2.796278            0           0           0
      7.769654  7.999757  6.987823            0           0           0
      7.813155  7.939223  0.886525            0           0           0
     10.391439  6.535663  2.821980            0           0           0
      2.513474  0.258257  5.000827            0           0           0
      7.742638  3.484538  0.761574            0           0           0
      5.078354  1.877603  2.917008            0           0           0
      5.160365  6.447147  2.899226            0           0           0
      7.708921  0.459858  4.847993            0           0           0
      9.072008  1.190553  7.007486            0           0           0
[...]
      9.073503  2.652522  4.913605            0           0           0
      6.371693  2.665576  4.858272            0           0           0
     11.658911  4.174860  2.814827            0           0           0
      2.440982  1.892366  2.832794            0           0           0
     11.649530  5.686214  0.885461            0           0           0
      6.447433  5.719494  0.925972            0           0           0
      7.829267  6.506514  2.836212            0           0           0
      6.419224  4.130068  2.782896            0           0           0
     10.377807  3.465185  7.055261            0           0           0
     10.344097  3.450125  0.868038            0           0           0
     10.370626  0.484098  4.871515            0           0           0
      9.040790  7.290173  4.936995            0           0           0
      6.462653  7.295032  4.940739            0           0           0
      5.042471  0.276335  4.884059            0           0           0
     10.324054  0.438563 10.588270     0.117164    0.114065    0.986540

[...]

   3 f  =   14.616745 THz    91.839716 2PiTHz  487.562111 cm-1    60.450019 meV
             X         Y         Z           dx          dy          dz
     12.973856  8.047170  7.011255            0           0           0
      5.118700  8.080461  6.977350            0           0           0
      4.962264  3.485896  7.031225            0           0           0
     14.255492  8.750535  9.488676            0           0           0
      3.728072  4.217419  9.448395            0           0           0
      6.412863  8.773605  9.458026            0           0           0
     11.662400  4.213008  9.371999            0           0           0
      9.023576  8.778296  9.230782            0           0           0
     10.350429  1.984569  9.412587            0           0           0
      2.481971  1.954155  9.251211            0           0           0
     11.654061  8.776831  9.332345            0           0           0
     12.967228  6.479487  9.399925            0           0           0
      5.061187  1.905956  9.343685            0           0           0
      7.719656  6.507044  9.316602            0           0           0
      9.037210  4.224188  9.298686            0           0           0
      5.058353  6.436618  9.345817            0           0           0
      7.669702  1.939503  9.244710            0           0           0
      7.781782  3.437224  6.973244            0           0           0
      6.303889  1.133813  6.923601            0           0           0
      6.428579  1.129740  0.878720            0           0           0
      3.705484  4.208436  2.816869            0           0           0
      1.157060  1.247174  6.929167            0           0           0
      1.135691  1.190800  0.725566            0           0           0
      6.436066  8.760995  2.900314            0           0           0
      6.396023  4.215283  9.395885            0           0           0
      7.681351  4.990728  4.814740            0           0           0
     10.322398  6.507886  9.292911            0           0           0
     14.264242  7.225928  4.862987            0           0           0
     11.684647  5.693918  7.018482            0           0           0
      6.418090  5.777869  6.998094            0           0           0
      3.621194  2.565893  4.960228            0           0           0
     10.360912  5.024302  4.856517            0           0           0
      3.757014  5.770079  7.154795            0           0           0
     12.969068  7.879772  0.925674            0           0           0
      5.163396  7.917194  0.830298            0           0           0
      3.807011  5.745024  0.813805            0           0           0
      7.798522  2.032451  2.832513            0           0           0
      9.077547  8.733730  2.857427            0           0           0
      2.401868  3.504965  7.130708            0           0           0
      2.344093  3.490514  0.825101            0           0           0
     10.348141  1.969830  2.822490            0           0           0
     12.960353  4.985870  4.925592            0           0           0
      3.733618  1.054339  7.058140            0           0           0
      9.038171  5.763967  7.079594            0           0           0
      3.748243  1.091821  0.867003            0           0           0
      9.091210  5.718673  0.960427            0           0           0
      5.124479  3.470454  0.855627            0           0           0
     11.620923  8.687580  2.905895            0           0           0
     11.653130  7.264496  4.842290            0           0           0
     12.867560  6.452796  2.833790            0           0           0
      9.042010  4.207796  2.796278            0           0           0
      7.769654  7.999757  6.987823            0           0           0
      7.813155  7.939223  0.886525            0           0           0
     10.391439  6.535663  2.821980            0           0           0
      2.513474  0.258257  5.000827            0           0           0
      7.742638  3.484538  0.761574            0           0           0
      5.078354  1.877603  2.917008            0           0           0
      5.160365  6.447147  2.899226            0           0           0
      7.708921  0.459858  4.847993            0           0           0
      9.072008  1.190553  7.007486            0           0           0
[...]
      9.073503  2.652522  4.913605            0           0           0
      6.371693  2.665576  4.858272            0           0           0
     11.658911  4.174860  2.814827            0           0           0
      2.440982  1.892366  2.832794            0           0           0
     11.649530  5.686214  0.885461            0           0           0
      6.447433  5.719494  0.925972            0           0           0
      7.829267  6.506514  2.836212            0           0           0
      6.419224  4.130068  2.782896            0           0           0
     10.377807  3.465185  7.055261            0           0           0
     10.344097  3.450125  0.868038            0           0           0
     10.370626  0.484098  4.871515            0           0           0
      9.040790  7.290173  4.936995            0           0           0
      6.462653  7.295032  4.940739            0           0           0
      5.042471  0.276335  4.884059            0           0           0
     10.324054  0.438563 10.588270     0.743728   -0.668391   -0.011046

 Finite differences POTIM=  2.000000000000000E-002
  LATTYP: Found a hexagonal cell.
 ALAT       =    10.5600004196
 C/A-ratio  =     2.0833332505

  Lattice vectors:

 A1 = (   5.2800002098,  -9.1452286274,   0.0000000000)
 A2 = ( -10.5600004196,   0.0000000000,   0.0000000000)
 A3 = (   0.0000000000,   0.0000000000, -22.0000000000)

Analysis of symmetry for initial positions (statically):
 Subroutine PRICEL returns:
 Original cell was already a primitive cell.

[...]

The static configuration has the point symmetry C_1 .

Analysis of symmetry for dynamics (positions and initial velocities):
 Subroutine PRICEL returns:
 Original cell was already a primitive cell.

[...]

The dynamic configuration has the point symmetry C_1 .

Analysis of constrained symmetry for selective dynamics:
 Subroutine PRICEL returns:
 Original cell was already a primitive cell.

[...]

The constrained configuration has the point symmetry C_1 .

Analysis of structural, dynamic, and magnetic symmetry:
 Subroutine PRICEL returns:
 Original cell was already a primitive cell.

 Routine SETGRP: Setting up the symmetry group for a
 hexagonal supercell.

 Subroutine GETGRP returns: Found  1 space group operations
 (whereof  1 operations were pure point group operations)
 out of a pool of 24 trial point group operations.

The magnetic configuration has the point symmetry C_1 .

 Subroutine INISYM returns: Found  1 space group operations
 (whereof  1 operations are pure point group operations),
 and found     1 'primitive' translations

 KPOINTS: mesh auto

Automatic generation of k-mesh.
Space group operators:
 irot       det(A)        alpha          n_x          n_y          n_z        tau_x        tau_y        tau_z
    1     1.000000     0.000001     1.000000     0.000000     0.000000     0.000000     0.000000     0.000000

 Subroutine IBZKPT returns following result:

 Found      4 irreducible k-points:

 Following reciprocal coordinates:
            Coordinates               Weight
  0.000000  0.000000  0.000000      1.000000
  0.500000  0.000000  0.000000      1.000000
  0.000000  0.500000  0.000000      1.000000
  0.500000  0.500000  0.000000      1.000000

 Following cartesian coordinates:
            Coordinates               Weight
  0.000000  0.000000  0.000000      1.000000
  0.047348 -0.027337  0.000000      1.000000
  0.000000  0.054673  0.000000      1.000000
  0.047348  0.027337  0.000000      1.000000

 TETIRR: Found     12 inequivalent tetrahedra from       24
 BZINTS: Fermi energy:  2.041502;781.000000 electrons
         Band energy:-704.522309;  BLOECHL correction: -0.143048