 vasp.5.4.4.18Apr17-6-g9f103f2a35 (build Oct 25 2019 11:13:22) complex

 executed on             LinuxIFC date 2021.10.30  05:12:57

 INCAR:
 POTCAR:    PAW_PBE Pt 04Feb2005
 POTCAR:    PAW_PBE Fe 06Sep2000
 POTCAR:    PAW_PBE Co 02Aug2007
 POTCAR:    PAW_PBE Cu 22Jun2005
 POTCAR:    PAW_PBE Ni 02Aug2007
 POTCAR:    PAW_PBE H 15Jun2001
 POTCAR:    PAW_PBE Pt 04Feb2005
   VRHFIN =Pt: s1d9

   TITEL  = PAW_PBE Pt 04Feb2005
   POMASS =  195.080; ZVAL   =   10.000    mass and valenz
   ENMAX  =  230.283; ENMIN  =  172.712 eV

 POTCAR:    PAW_PBE Fe 06Sep2000
   VRHFIN =Fe:  d7 s1

   TITEL  = PAW_PBE Fe 06Sep2000
   POMASS =   55.847; ZVAL   =    8.000    mass and valenz
   ENMAX  =  267.882; ENMIN  =  200.911 eV

 POTCAR:    PAW_PBE Co 02Aug2007
   VRHFIN =Co: d8 s1

   TITEL  = PAW_PBE Co 02Aug2007
   POMASS =   58.933; ZVAL   =    9.000    mass and valenz
   ENMAX  =  267.968; ENMIN  =  200.976 eV

 POTCAR:    PAW_PBE Cu 22Jun2005
   VRHFIN =Cu: d10 p1

   TITEL  = PAW_PBE Cu 22Jun2005
   POMASS =   63.546; ZVAL   =   11.000    mass and valenz
   ENMAX  =  295.446; ENMIN  =  221.585 eV

 POTCAR:    PAW_PBE Ni 02Aug2007
   VRHFIN =Ni:

   TITEL  = PAW_PBE Ni 02Aug2007
   POMASS =   58.690; ZVAL   =   10.000    mass and valenz
   ENMAX  =  269.532; ENMIN  =  202.149 eV

 POTCAR:    PAW_PBE H 15Jun2001
   VRHFIN =H: ultrasoft test

   TITEL  = PAW_PBE H 15Jun2001
   POMASS =    1.000; ZVAL   =    1.000    mass and valenz
   ENMAX  =  250.000; ENMIN  =  200.000 eV

 Optimization of the real space projectors (new method)

 maximal supplied QI-value         = 14.36
 optimisation between [QCUT,QGAM] = [ 11.92, 23.98] = [ 39.79,161.09] Ry
 Optimized for a Real-space Cutoff    1.49 Angstroem

   l    n(q)    QCUT    max X(q) W(low)/X(q) W(high)/X(q)  e(spline)
   2     10    11.920    66.195    0.79E-04    0.18E-03    0.24E-06
   2     10    11.920    64.643    0.81E-04    0.19E-03    0.24E-06
   0     11    11.920    95.520    0.28E-04    0.54E-04    0.18E-06
   0     11    11.920    63.403    0.27E-04    0.52E-04    0.17E-06
   1     10    11.920    19.961    0.18E-04    0.11E-03    0.23E-06
   1     10    11.920    13.289    0.25E-04    0.87E-04    0.19E-06
 Optimization of the real space projectors (new method)

[...]

   l    n(q)    QCUT    max X(q) W(low)/X(q) W(high)/X(q)  e(spline)
   2      9    11.864    60.317    0.21E-03    0.51E-03    0.25E-06
   2      9    11.864    55.921    0.21E-03    0.51E-03    0.26E-06
   0      9    11.864    51.690    0.22E-03    0.30E-04    0.17E-06
   0      9    11.864    30.015    0.20E-03    0.28E-04    0.15E-06
   1      9    11.864    18.849    0.76E-04    0.33E-03    0.17E-06
   1      9    11.864    14.624    0.60E-04    0.28E-03    0.15E-06
 Optimization of the real space projectors (new method)

 maximal supplied QI-value         = 34.20
 optimisation between [QCUT,QGAM] = [ 11.97, 23.94] = [ 40.13,160.53] Ry
 Optimized for a Real-space Cutoff    1.18 Angstroem

   l    n(q)    QCUT    max X(q) W(low)/X(q) W(high)/X(q)  e(spline)
   0      8    11.971    19.460    0.15E-03    0.31E-03    0.25E-06
   0      8    11.971    12.209    0.13E-03    0.29E-03    0.25E-06
   1      8    11.971     4.655    0.22E-03    0.24E-03    0.21E-06
  PAW_PBE Pt 04Feb2005                  :
  PAW_PBE Fe 06Sep2000                  :
  PAW_PBE Co 02Aug2007                  :
  PAW_PBE Cu 22Jun2005                  :
  PAW_PBE Ni 02Aug2007                  :
  PAW_PBE H 15Jun2001                   :

 POSCAR: 11.26-high
  positions in direct lattice
  velocities in cartesian coordinates
 exchange correlation table for  LEXCH =        8
   RHO(1)=    0.500       N(1)  =     2000
   RHO(2)=  100.500       N(2)  =     4000

 ion  position               nearest neighbor table
   1  0.776  0.870  0.315-  56 2.59  32 2.67  15 2.74  33 2.75  65 2.77  23 2.78   8 2.78  40 2.79
                            16 2.83  41 2.87   3 2.88   2 2.93
   2  0.037  0.869  0.316-  38 2.65  79 2.66  32 2.76  26 2.76   8 2.79  34 2.81  58 2.81  10 2.81
                            41 2.83   3 2.83  20 2.84   1 2.93
   3  0.036  0.617  0.313-  50 2.60  68 2.63  32 2.69   6 2.81   9 2.81   4 2.81   2 2.83  20 2.84
                            33 2.85  34 2.86  16 2.87   1 2.88
   4  0.028  0.371  0.319-  50 2.61  36 2.68  42 2.70  11 2.72  77 2.76   9 2.77  14 2.77  33 2.80
                             3 2.81  26 2.83   6 2.88   5 2.96
   5  0.290  0.106  0.318-  61 2.55  36 2.68  12 2.69  39 2.69  58 2.70  26 2.77  65 2.77  14 2.78
                            17 2.79  23 2.80   6 2.92   4 2.96
   6  0.287  0.368  0.317-  68 2.59  71 2.62  36 2.71  23 2.75  29 2.76   9 2.80  17 2.81   3 2.81
                            34 2.86   4 2.88  22 2.90   5 2.92
   7  0.860  0.689  0.125-  74 2.52  43 2.54  45 2.59  55 2.63  60 2.65  50 2.65  56 2.66  32 2.70
                            72 2.71  25 2.83  64 3.07
   8  0.861  0.955  0.416-  15 2.76  21 2.77   1 2.78  41 2.78   2 2.79  16 2.80  13 2.83  20 2.87
                            10 2.94
   9  0.115  0.456  0.419-  20 2.72   4 2.77  16 2.78  11 2.79   6 2.80  29 2.81   3 2.81  14 2.84
                            17 2.90
  10  0.124  0.953  0.420-  58 2.71  14 2.76  26 2.76  12 2.78   2 2.81  18 2.83  13 2.87  20 2.90
                             8 2.94
  11  0.870  0.449  0.421-   4 2.72  77 2.72  19 2.74  13 2.76  14 2.79   9 2.79  33 2.82  31 2.82
                            16 2.83
  12  0.375  0.947  0.418-   5 2.69  65 2.70  58 2.70  18 2.72  15 2.74  31 2.75  10 2.78  17 2.79
                            14 2.86
  13  0.866  0.205  0.416-  77 2.72  11 2.76  21 2.77  26 2.77  41 2.77  19 2.78  14 2.83   8 2.83
                            10 2.87
  14  0.120  0.201  0.420-  10 2.76   4 2.77   5 2.78  11 2.79  26 2.81  17 2.81  13 2.83   9 2.84
                            12 2.86
  15  0.619  0.946  0.418-   1 2.74  12 2.74  16 2.75  65 2.75  31 2.76   8 2.76  17 2.79  23 2.81
                            21 2.92
  16  0.867  0.703  0.420-  15 2.75  20 2.76  33 2.77   9 2.78  31 2.79   8 2.80   1 2.83  11 2.83
                             3 2.87
  17  0.372  0.197  0.420-  23 2.75  12 2.79   5 2.79  15 2.79   6 2.81  14 2.81  21 2.82  29 2.83
                             9 2.90
  18  0.378  0.703  0.417-  81 1.95  51 2.60  58 2.67  31 2.69  12 2.72  34 2.74  19 2.75  10 2.83
                            29 2.89  20 2.98
  19  0.622  0.456  0.419-  51 2.65  77 2.66  31 2.72  22 2.73  11 2.74  18 2.75  13 2.78  21 2.82
                            29 2.88
  20  0.115  0.699  0.421-  81 1.94   9 2.72  16 2.76  29 2.81  34 2.82   3 2.84   2 2.84   8 2.87
                            10 2.90  18 2.98
  21  0.619  0.206  0.417-  22 2.75  13 2.77   8 2.77  23 2.77  29 2.78  41 2.80  17 2.82  19 2.82
                            15 2.92
  22  0.541  0.377  0.317-  70 2.59  30 2.64  71 2.64  77 2.68  51 2.70  19 2.73  21 2.75  34 2.79
                            41 2.80  29 2.80   6 2.90  23 2.92
  23  0.532  0.121  0.317-  71 2.65  40 2.70  39 2.75  17 2.75   6 2.75  21 2.77   1 2.78   5 2.80
                            15 2.81  41 2.84  22 2.92  65 2.94
  24  0.544  0.120  0.050-  46 2.53  63 2.54  55 2.60  43 2.70  66 2.73  54 2.84  62 2.84  52 2.87
                            67 2.92
  25  0.114  0.439  0.123-  54 2.49  48 2.53  45 2.58  36 2.70  73 2.70  63 2.75  50 2.75  68 2.78
                             7 2.83  72 2.85  64 2.94  76 3.11
  26  0.039  0.114  0.316-  79 2.55  61 2.63  42 2.67   2 2.76  10 2.76  13 2.77   5 2.77  58 2.79
                            14 2.81  41 2.82   4 2.83  77 2.96
  27  0.024  0.132  0.037-  48 2.54  49 2.59  73 2.61  28 2.65  78 2.71  59 2.73  66 2.74  52 2.92
                            44 3.11
  28  0.115  0.958  0.130-  59 2.54  79 2.58  44 2.59  38 2.63  27 2.65  61 2.66  69 2.68  73 2.69
                            47 2.79  49 2.84  35 2.87  64 2.93
  29  0.368  0.451  0.419-  81 1.93   6 2.76  34 2.77  21 2.78  22 2.80   9 2.81  20 2.81  17 2.83
                            19 2.88  18 2.89
  30  0.456  0.540  0.221-  76 2.51  57 2.56  22 2.64  34 2.68  51 2.72  37 2.72  35 2.73  80 2.74
                            71 2.76  38 2.79  70 2.79  68 2.85
  31  0.619  0.700  0.421-  51 2.68  18 2.69  65 2.72  19 2.72  33 2.75  12 2.75  15 2.76  16 2.79
                            11 2.82
  32  0.941  0.791  0.218-  64 2.57  69 2.60   1 2.67   3 2.69   7 2.70   2 2.76  56 2.78  40 2.87
                            50 2.87  79 2.91  68 3.02  38 3.04
  33  0.780  0.622  0.318-  56 2.60  37 2.62  50 2.62  65 2.69  77 2.73  31 2.75  51 2.75   1 2.75
                            16 2.77   4 2.80  11 2.82   3 2.85
  34  0.289  0.621  0.318-  38 2.67  30 2.68  68 2.74  18 2.74  58 2.75  29 2.77  51 2.77  22 2.79
                             2 2.81  20 2.82   6 2.86   3 2.86
  35  0.377  0.709  0.122-  53 2.48  75 2.55  59 2.60  47 2.62  60 2.68  30 2.73  80 2.74  38 2.75
                            57 2.85  76 2.87  28 2.87  64 2.87
  36  0.198  0.277  0.223-  73 2.54  63 2.54   4 2.68   5 2.68  25 2.70   6 2.71  61 2.76  42 2.81
                            68 2.83  50 2.84  39 2.91  71 2.97
  37  0.694  0.548  0.222-  72 2.55  60 2.56  57 2.60  33 2.62  56 2.63  80 2.66  51 2.69  77 2.70
                            30 2.72  50 2.75  70 2.82  42 2.88
  38  0.211  0.792  0.224-  64 2.58  58 2.59  61 2.62  28 2.63   2 2.65  34 2.67  80 2.70  35 2.75
                            30 2.79  79 2.85  68 3.02  32 3.04
  39  0.456  0.016  0.221-  47 2.49  55 2.60  80 2.62  63 2.64  65 2.65  61 2.65   5 2.69  56 2.69
                            23 2.75  40 2.78  36 2.91  71 3.11
  40  0.686  0.047  0.215-  46 2.52  69 2.55  55 2.59  23 2.70  71 2.71  41 2.74  39 2.78   1 2.79
                            70 2.86  32 2.87  56 2.93  79 2.99
  41  0.785  0.121  0.313-  70 2.55  79 2.58  40 2.74  13 2.77   8 2.78  21 2.80  22 2.80  26 2.82
                             2 2.83  23 2.84  77 2.87   1 2.87
  42  0.943  0.286  0.222-  49 2.49  72 2.55  70 2.65  26 2.67  79 2.67  73 2.68  77 2.70   4 2.70
                            50 2.78  36 2.81  37 2.88  61 3.01
  43  0.787  0.882  0.049-  55 2.41  69 2.50   7 2.54  44 2.64  24 2.70  66 2.72  45 2.88  67 2.95

  44  0.036  0.851  0.047-  45 2.41  69 2.53  64 2.55  28 2.59  43 2.64  75 2.68  59 3.07  27 3.11

  45  0.048  0.630  0.044-  44 2.41  75 2.46  64 2.49  25 2.58   7 2.59  54 2.82  43 2.88
  46  0.621  0.226  0.132-  70 2.50  62 2.51  57 2.51  40 2.52  24 2.53  66 2.58  76 2.58  71 2.59
                            49 2.65  69 2.81  63 2.90
  47  0.371  0.944  0.131-  59 2.38  52 2.40  39 2.49  67 2.54  61 2.56  35 2.62  80 2.62  60 2.68
                            73 2.76  55 2.77  28 2.79
  48  0.994  0.372  0.045-  72 2.33  78 2.48  74 2.51  25 2.53  27 2.54  73 2.62
  49  0.863  0.212  0.131-  78 2.43  42 2.49  66 2.56  70 2.57  27 2.59  79 2.61  72 2.63  69 2.64
                            46 2.65  57 2.68  28 2.84  73 2.86
  50  0.946  0.532  0.224-   3 2.60   4 2.61  33 2.62  72 2.64   7 2.65  37 2.75  25 2.75  56 2.78
                            42 2.78  36 2.84  32 2.87  68 2.92
  51  0.537  0.619  0.323-  18 2.60  80 2.64  19 2.65  65 2.67  31 2.68  37 2.69  77 2.69  22 2.70
[...]

 FORCES acting on ions
    electron-ion (+dipol)            ewald-force                    non-local-force                 convergence-correction
   -.718E+02 -.158E+01 -.130E+04   0.708E+02 0.140E+01 0.130E+04   0.942E+00 0.231E+00 0.144E+01   0.564E-02 -.128E-01 -.361E-01
   0.462E+02 0.358E+02 -.133E+04   -.456E+02 -.357E+02 0.133E+04   -.585E+00 -.901E-01 0.148E+01   -.374E-01 0.428E-02 -.713E-01
   0.709E+01 -.262E+02 -.129E+04   -.710E+01 0.255E+02 0.129E+04   0.287E-01 0.666E+00 0.217E+01   -.377E-02 -.224E-01 -.378E-01
   -.422E+02 0.137E+01 -.135E+04   0.415E+02 -.710E+00 0.135E+04   0.612E+00 -.675E+00 0.158E+01   0.150E-01 -.604E-02 -.416E-01
   0.161E+00 -.800E+02 -.137E+04   -.730E+00 0.788E+02 0.137E+04   0.555E+00 0.114E+01 0.175E+01   -.367E-02 0.574E-01 -.921E-01
   0.494E+02 -.430E+00 -.140E+04   -.489E+02 0.471E+00 0.140E+04   -.412E+00 -.500E-01 0.157E+01   -.348E-01 0.262E-02 -.542E-01
   -.122E+03 -.407E+01 0.153E+04   0.121E+03 0.473E+01 -.154E+04   0.100E+01 -.712E+00 0.681E+00   0.926E-01 0.236E-01 0.394E-01
   -.339E+01 -.228E+01 -.265E+04   0.357E+01 0.204E+01 0.265E+04   -.182E+00 0.264E+00 0.164E+01   -.227E-02 -.162E-01 -.116E-01
   -.196E+02 0.409E+01 -.266E+04   0.188E+02 -.374E+01 0.265E+04   0.763E+00 -.366E+00 0.169E+01   -.873E-02 -.158E-03 -.291E-01
   0.406E+02 -.465E+01 -.267E+04   -.402E+02 0.473E+01 0.267E+04   -.400E+00 -.126E+00 0.239E+01   -.328E-01 0.317E-01 0.255E-01
   -.353E+02 0.656E+00 -.271E+04   0.353E+02 -.120E+01 0.270E+04   0.285E-01 0.552E+00 0.180E+01   0.237E-01 -.616E-02 -.252E-01
   0.112E+02 -.455E+02 -.271E+04   -.115E+02 0.453E+02 0.271E+04   0.262E+00 0.173E+00 0.212E+01   0.298E-01 0.353E-01 0.221E-01
   -.528E+01 0.422E+02 -.267E+04   0.481E+01 -.420E+02 0.266E+04   0.457E+00 -.243E+00 0.164E+01   0.190E-01 0.130E-01 -.161E-01
   -.385E+01 -.630E+01 -.268E+04   0.393E+01 0.629E+01 0.268E+04   -.838E-01 -.233E-01 0.157E+01   0.213E-02 0.345E-01 -.213E-01
   -.462E+02 -.341E+02 -.268E+04   0.461E+02 0.334E+02 0.268E+04   0.580E-01 0.760E+00 0.160E+01   0.122E-01 -.526E-02 -.111E-01
   -.325E+02 0.100E+01 -.266E+04   0.322E+02 -.684E+00 0.266E+04   0.287E+00 -.323E+00 0.144E+01   0.948E-02 -.133E-01 -.144E-01
   0.311E+01 -.276E+02 -.269E+04   -.273E+01 0.270E+02 0.268E+04   -.380E+00 0.642E+00 0.181E+01   -.110E-01 0.210E-01 -.211E-01
   0.490E+02 0.137E+02 -.269E+04   -.473E+02 -.128E+02 0.269E+04   -.181E+01 -.895E+00 0.192E+01   -.352E-02 -.274E-01 0.263E-01
   0.375E+02 0.197E+02 -.271E+04   -.363E+02 -.192E+02 0.271E+04   -.120E+01 -.427E+00 0.224E+01   0.238E-01 -.142E-01 -.802E-02
   0.221E+02 -.146E+02 -.265E+04   -.223E+02 0.146E+02 0.265E+04   0.245E+00 0.330E-01 0.550E+00   -.379E-01 -.168E-01 -.102E-01
   0.699E+01 0.260E+02 -.267E+04   -.685E+01 -.255E+02 0.267E+04   -.154E+00 -.514E+00 0.188E+01   -.118E-02 -.386E-02 -.134E-01
   0.505E+02 0.778E+00 -.143E+04   -.492E+02 0.901E-01 0.143E+04   -.124E+01 -.914E+00 0.131E+01   -.576E-02 -.152E-01 -.482E-01
   -.546E+01 0.132E+02 -.135E+04   0.518E+01 -.130E+02 0.135E+04   0.273E+00 -.262E+00 0.110E+01   -.130E-01 0.116E-01 -.471E-01
   0.820E+02 0.605E+02 0.270E+04   -.818E+02 -.606E+02 -.270E+04   -.306E+00 0.796E-01 -.265E+01   0.504E-02 0.124E-01 0.997E-02
   0.517E+02 -.339E+02 0.159E+04   -.524E+02 0.338E+02 -.160E+04   0.648E+00 0.165E+00 0.143E+01   0.368E-01 -.213E-01 0.317E-01
   -.149E+02 -.153E+02 -.135E+04   0.150E+02 0.149E+02 0.135E+04   -.298E-01 0.419E+00 0.187E+01   0.639E-02 0.436E-01 -.922E-01
   -.788E+02 0.858E+02 0.283E+04   0.796E+02 -.845E+02 -.283E+04   -.640E+00 -.134E+01 -.297E+01   0.349E-04 -.285E-01 0.383E-01
   -.148E+02 0.283E+02 0.149E+04   0.144E+02 -.282E+02 -.149E+04   0.325E+00 -.979E-01 -.311E+00   0.340E-03 0.132E-01 0.566E-01
   0.168E+02 0.185E+02 -.268E+04   -.171E+02 -.188E+02 0.268E+04   0.316E+00 0.274E+00 0.103E+01   -.299E-01 -.133E-01 -.128E-01
   0.137E+02 -.788E+02 0.419E+01   -.133E+02 0.781E+02 -.480E+01   -.469E+00 0.704E+00 0.686E+00   -.263E-01 0.241E-01 -.216E-01
   -.354E+02 0.123E+02 -.272E+04   0.347E+02 -.124E+02 0.272E+04   0.715E+00 0.189E+00 0.192E+01   0.378E-01 -.998E-02 -.266E-02
   0.209E+02 0.322E+02 0.962E+02   -.216E+02 -.330E+02 -.963E+02   0.783E+00 0.735E+00 0.183E+00   0.294E-01 0.331E-02 -.100E-01
   -.803E+02 0.242E+02 -.136E+04   0.794E+02 -.239E+02 0.135E+04   0.862E+00 -.298E+00 0.229E+01   0.210E-01 -.155E-01 -.313E-01
   0.514E+02 -.104E+02 -.139E+04   -.501E+02 0.111E+02 0.139E+04   -.124E+01 -.663E+00 0.163E+01   -.520E-01 -.399E-01 -.681E-01
   0.416E+02 -.779E+02 0.159E+04   -.402E+02 0.779E+02 -.159E+04   -.138E+01 -.244E-01 0.133E+01   -.461E-01 0.151E-01 0.164E-01
   0.383E+02 -.313E+02 0.148E+01   -.387E+02 0.313E+02 -.209E+01   0.477E+00 0.439E-01 0.622E+00   -.195E-01 -.282E-01 -.849E-02
   -.489E+02 -.597E+01 0.442E+01   0.493E+02 0.717E+01 -.517E+01   -.409E+00 -.127E+01 0.703E+00   -.685E-02 0.760E-02 0.562E-01
   0.529E+02 0.130E-01 0.253E+02   -.521E+02 0.118E+01 -.250E+02   -.907E+00 -.124E+01 -.168E+00   0.505E-02 0.317E-01 -.818E-01
   -.308E+02 -.603E+02 0.880E+02   0.299E+02 0.587E+02 -.894E+02   0.106E+01 0.168E+01 0.153E+01   -.656E-01 0.505E-02 -.119E-01
   0.156E+02 0.767E+02 0.139E+03   -.160E+02 -.758E+02 -.140E+03   0.370E+00 -.849E+00 0.161E+01   0.173E-01 0.889E-02 -.692E-02
   0.204E+02 0.720E+02 -.134E+04   -.200E+02 -.716E+02 0.134E+04   -.278E+00 -.308E+00 0.152E+01   0.162E-01 -.248E-02 -.614E-01
   -.107E+03 0.922E+00 0.285E+02   0.106E+03 -.100E+01 -.297E+02   0.937E+00 0.104E+00 0.119E+01   0.328E-01 -.645E-01 0.816E-02
   -.861E+00 0.746E+02 0.220E+04   0.199E+01 -.741E+02 -.220E+04   -.122E+01 -.478E+00 -.366E+01   0.468E-01 0.197E-01 -.179E-02
   -.189E+02 -.160E+02 0.222E+04   0.172E+02 0.143E+02 -.222E+04   0.176E+01 0.195E+01 -.305E+01   0.366E-02 -.582E-02 0.194E-01
   0.122E+03 0.273E+02 0.225E+04   -.120E+03 -.261E+02 -.224E+04   -.202E+01 -.136E+01 -.397E+01   0.496E-01 0.208E-01 0.120E-01
   0.426E+02 0.106E+03 0.112E+04   -.420E+02 -.106E+03 -.112E+04   -.606E+00 -.237E+00 -.650E+00   -.886E-02 -.137E-01 0.126E-01
   0.944E+01 -.400E+02 0.114E+04   -.921E+01 0.398E+02 -.114E+04   -.222E+00 0.150E+00 -.549E+00   -.478E-01 0.318E-01 0.694E-01
   -.212E+03 0.619E+01 0.225E+04   0.209E+03 -.636E+01 -.224E+04   0.269E+01 0.179E+00 -.345E+01   0.416E-01 -.493E-01 0.117E-01
   -.616E+02 0.688E+02 0.113E+04   0.613E+02 -.677E+02 -.113E+04   0.357E+00 -.105E+01 -.664E+00   0.170E-01 -.604E-01 0.363E-01
   -.562E+02 -.111E+02 0.340E+02   0.556E+02 0.111E+02 -.334E+02   0.608E+00 0.274E-01 -.666E+00   0.295E-01 -.171E-01 0.257E-01
   0.248E+02 0.844E+01 -.114E+04   -.249E+02 -.859E+01 0.114E+04   0.959E-01 0.108E+00 -.215E+00   0.344E-01 -.172E-01 -.595E-01
   -.289E+02 -.104E+03 0.220E+04   0.283E+02 0.102E+03 -.220E+04   0.696E+00 0.260E+01 -.313E+01   -.796E-02 0.131E-01 0.353E-01
   0.105E+03 -.140E+03 0.252E+04   -.104E+03 0.139E+03 -.252E+04   -.128E+01 0.105E+01 -.309E+01   -.918E-01 0.107E-01 -.369E-01
   0.201E+03 0.807E+02 0.252E+04   -.200E+03 -.795E+02 -.252E+04   -.116E+01 -.138E+01 -.300E+01   0.747E-02 0.186E-01 0.231E-01
   -.504E+02 -.585E+02 0.131E+04   0.501E+02 0.578E+02 -.131E+04   0.220E+00 0.640E+00 -.544E+00   0.135E-01 0.474E-01 0.216E-01
   -.998E+02 -.130E+01 0.402E+02   0.995E+02 0.107E+01 -.405E+02   0.252E+00 0.254E+00 0.125E+00   -.359E-02 0.134E-01 0.364E-01
   -.127E+01 -.465E+02 0.122E+04   0.151E+01 0.459E+02 -.122E+04   -.226E+00 0.768E+00 -.446E+00   -.510E-01 -.525E-02 0.329E-02
   0.526E+02 0.338E+01 -.126E+04   -.525E+02 -.357E+01 0.126E+04   -.221E+00 0.207E+00 0.329E+00   0.126E-01 0.284E-01 -.109E+00
   0.710E+02 0.480E+02 0.255E+04   -.703E+02 -.461E+02 -.254E+04   -.711E+00 -.187E+01 -.407E+01   -.241E-01 -.465E-02 0.336E-01
   -.563E+01 -.354E+02 0.127E+04   0.589E+01 0.357E+02 -.127E+04   -.242E+00 -.373E+00 -.418E+00   -.633E-01 0.369E-01 0.469E-01
[...]
   0.120E+03 -.532E+02 0.243E+02   -.120E+03 0.524E+02 -.237E+02   0.733E-01 0.871E+00 -.613E+00   -.117E-01 -.828E-02 -.132E-01
   0.393E+02 0.114E+03 0.157E+04   -.392E+02 -.113E+03 -.157E+04   -.285E+00 -.725E+00 -.128E+01   0.509E-01 -.273E-02 0.116E-01
   -.115E+02 0.403E+02 -.206E+02   0.122E+02 -.406E+02 0.205E+02   -.661E+00 0.418E+00 -.115E-01   0.137E-01 -.420E-01 -.318E-02
   0.506E+02 0.720E+02 -.353E+02   -.501E+02 -.714E+02 0.354E+02   -.463E+00 -.669E+00 -.693E-01   -.301E-01 0.715E-02 -.182E-01
   -.149E+03 -.666E+01 0.134E+04   0.148E+03 0.667E+01 -.134E+04   0.752E+00 0.113E+00 -.902E+00   0.431E-01 -.731E-01 0.602E-01
   -.221E+02 -.113E+02 0.146E+04   0.225E+02 0.112E+02 -.146E+04   -.506E+00 0.271E+00 -.759E+00   0.503E-02 -.444E-01 0.632E-01
   -.204E+03 -.116E+03 0.285E+04   0.204E+03 0.114E+03 -.285E+04   0.536E+00 0.134E+01 -.255E+01   -.954E-02 0.375E-03 -.316E-01
   -.194E+02 -.126E+03 0.282E+04   0.175E+02 0.126E+03 -.282E+04   0.197E+01 0.250E+00 -.165E+01   -.434E-02 0.157E-01 0.198E-01
   0.627E+02 -.397E+02 0.140E+04   -.619E+02 0.395E+02 -.140E+04   -.844E+00 0.302E+00 -.592E+00   -.324E-01 0.183E-01 0.640E-02
   -.544E+02 0.144E+02 -.140E+04   0.540E+02 -.141E+02 0.140E+04   0.466E+00 -.329E+00 -.832E-02   0.348E-01 -.107E-01 -.352E-01
   -.595E+02 0.502E+02 0.281E+04   0.599E+02 -.495E+02 -.281E+04   -.314E+00 -.617E+00 -.128E+01   -.312E-01 -.392E-01 -.112E-01
   -.110E+02 0.617E+02 0.187E+02   0.113E+02 -.613E+02 -.184E+02   -.397E+00 -.438E+00 -.317E+00   0.404E-01 0.105E-02 -.423E-01
   0.409E+02 0.732E+01 0.765E+01   -.406E+02 -.714E+01 -.748E+01   -.335E+00 -.294E+00 -.294E+00   -.208E-01 0.432E-01 -.442E-01
   -.195E+01 -.231E+01 -.313E+03   0.226E+01 0.248E+01 0.314E+03   -.343E+00 -.190E+00 -.131E+01   -.297E-02 -.335E-03 0.255E-02
   0.295E+00 0.951E+00 0.488E+01   -.458E-12 -.862E-13 -.199E-11   -.261E+00 -.934E+00 -.417E+01   -.261E-01 0.254E-01 -.680E+00

 POSITION                                       TOTAL-FORCE (eV/Angst)
     13.58786      8.45853      6.92216         0.001300      0.012658      0.007902
      5.28585      8.45037      6.93851         0.006878     -0.034189     -0.014303
      3.87393      5.98825      6.88630         0.002281      0.019338     -0.007591
      2.39925      3.61175      7.00928        -0.010161     -0.013622     -0.038913
      3.85341      1.03970      7.00669        -0.006140     -0.000450     -0.020203
      5.28907      3.58267      6.98533        -0.006481     -0.007245     -0.004087
     13.51950      6.69208      2.75694        -0.025946     -0.022462      0.011365
     15.08849      9.25371      9.16586        -0.002599     -0.001963      0.001312
      3.83006      4.42034      9.22234         0.000782     -0.008236      0.001538
      6.71687      9.25886      9.17347         0.005344     -0.007929      0.002581
     12.28876      4.36763      9.25799        -0.004443     -0.003984      0.021742
      9.49488      9.21303      9.20526         0.010520     -0.019198      0.013570
     10.87459      1.98007      9.14766         0.001181     -0.005927     -0.006006
      2.48096      1.96180      9.24165        -0.002886      0.001314      0.018803
     12.26381      9.20908      9.18761         0.003044     -0.005982      0.005962
     13.68856      6.84554      9.22426         0.016186      0.005133      0.011198
      5.28878      1.91296      9.23901         0.001104      0.008056      0.002155
      8.18407      6.86999      9.23823        -0.006804     -0.010644     -0.021887
      9.57518      4.41905      9.21966        -0.002634      0.010679      0.001366
      5.23282      6.83813      9.25191        -0.010565      0.029015     -0.001190
      8.10702      1.98466      9.17943         0.006482      0.023196     -0.020406
      8.18029      3.66046      6.99259         0.002296     -0.022450     -0.018397
      6.64395      1.18670      6.96223         0.022951     -0.010178     -0.021811
      6.78185      1.16816      1.10976        -0.016250      0.006166      0.000047
      3.74327      4.26289      2.71491         0.012855     -0.000295      0.007492
      1.08062      1.11266      6.94344         0.010844      0.010794      0.001678
      1.01575      1.28649      0.81183         0.011601     -0.003863      0.011431
      6.67142      9.31568      2.85544         0.000823      0.005124      0.002208
      6.68277      4.36045      9.27129         0.016811      0.001927      0.007566
      8.14285      5.24496      4.86976        -0.025204      0.018031      0.045266
     10.87563      6.81875      9.24534        -0.013200      0.017145      0.006196
     14.99686      7.68362      4.79411         0.026737     -0.011762      0.019048
     12.24751      6.05143      6.99838        -0.008873     -0.000498     -0.031121
      6.74536      6.04378      7.01249        -0.008058      0.015309     -0.002431
      8.20780      6.89173      2.69128        -0.015619     -0.010350     -0.014638
      3.77766      2.69345      4.90572        -0.002797     -0.005255     -0.047789
     10.86552      5.33036      4.88657        -0.010155      0.004697      0.001944
      6.80891      7.69639      4.91949         0.004516     -0.019804      0.059486
      5.20720      0.16029      4.85410         0.003645     -0.009564     -0.001364
      7.96508      0.45571      4.72390        -0.015473      0.009583     -0.007281
      9.47926      1.17588      6.88718         0.006073      0.014156      0.024345
     12.19222      2.77766      4.87496         0.031409      0.017983      0.019027
     13.78001      8.57392      1.07376         0.004337     -0.019481     -0.012421
      5.17612      8.26819      1.02395         0.018580      0.013247     -0.006328
      4.07688      6.12594      0.96722         0.010878      0.003446      0.015406
      8.23477      2.19285      2.91186         0.000735     -0.000579      0.004202
      9.46232      9.17873      2.88867        -0.003118      0.005582     -0.011441
     13.23829      3.61532      0.98546         0.005189     -0.002475     -0.005192
     10.87798      2.06279      2.87872        -0.007441     -0.018064      0.007538
     13.60649      5.17210      4.92826         0.009678      0.001440     -0.024594
      9.48919      6.01855      7.11093         0.017445      0.000285     -0.009638
      3.91652      1.06390      1.10530         0.015988     -0.000068      0.039685
      9.69052      5.79723      1.02825        -0.010361     -0.009699     -0.000186
      5.55996      3.72993      1.09992        -0.009550     -0.040757     -0.007464
     12.22782      8.97667      2.86865        -0.012707     -0.004216      0.012005
     12.22062      7.58099      4.89646        -0.014570      0.008039     -0.011820
      9.50033      4.35926      2.89266        -0.016276      0.007560      0.010146
      8.10010      8.42290      7.03722        -0.005079      0.001266     -0.007818
      8.20297      8.78072      0.90411         0.012323      0.012138      0.001411
     10.87946      6.90186      2.86164        -0.023965     -0.009069      0.003390
[...]
     10.84088      8.41789      0.89812        -0.022774      0.011614     -0.004788
      5.29878      5.08233      4.87221         0.028903      0.026843      0.018136
     15.21969      9.46320      2.91158         0.012538      0.005547      0.012559
      9.54798      2.83243      4.93973        -0.010109      0.007112     -0.025828
      6.74099      2.86414      4.91726         0.011408      0.008109      0.007746
     12.12718      4.37157      2.88927         0.005729     -0.001088     -0.007564
      2.50652      1.86558      2.87455        -0.003152      0.015421     -0.006774
     12.02738      5.81407      0.92547        -0.016442      0.000562      0.010001
      6.52756      5.95530      1.01982        -0.003941     -0.038118      0.006555
      6.84854      4.37406      2.90086        -0.021070     -0.007449     -0.000539
     10.85351      3.68835      7.03191         0.010746      0.002276     -0.003094
     10.75754      3.55271      0.95995         0.000770      0.003324     -0.007440
     10.94499      0.41654      4.90182         0.006815      0.015364     -0.046147
      9.50574      7.61774      4.99769        -0.021481      0.009110      0.000246
      6.61273      5.99677     10.06336        -0.035080     -0.026683      0.019482
    total drift:                                0.007595      0.043221      0.029723

  FREE ENERGIE OF THE ION-ELECTRON SYSTEM (eV)
  free  energy   TOTEN  =      -507.86137298 eV

  energy  without entropy=     -507.86458496  energy(sigma->0) =     -507.86244364

 d Force = 0.2628437E-03[-0.151E-04, 0.541E-03]  d Energy = 0.2484810E-03 0.144E-04
 d Force =-0.2240121E+02[-0.224E+02,-0.224E+02]  d Ewald  =-0.2240121E+02 0.493E-05

 reached required accuracy - stopping structural energy minimisation