 vasp.5.4.4.18Apr17-6-g9f103f2a35 (build Oct 25 2019 11:13:22) complex

 executed on             LinuxIFC date 2021.10.10  19:36:43

 INCAR:
 POTCAR:    PAW_PBE Pt 04Feb2005
 POTCAR:    PAW_PBE Fe 06Sep2000
 POTCAR:    PAW_PBE Co 02Aug2007
 POTCAR:    PAW_PBE Cu 22Jun2005
 POTCAR:    PAW_PBE Ni 02Aug2007
 POTCAR:    PAW_PBE H 15Jun2001
 POTCAR:    PAW_PBE Pt 04Feb2005
   VRHFIN =Pt: s1d9

   TITEL  = PAW_PBE Pt 04Feb2005
   POMASS =  195.080; ZVAL   =   10.000    mass and valenz
   ENMAX  =  230.283; ENMIN  =  172.712 eV

 POTCAR:    PAW_PBE Fe 06Sep2000
   VRHFIN =Fe:  d7 s1

   TITEL  = PAW_PBE Fe 06Sep2000
   POMASS =   55.847; ZVAL   =    8.000    mass and valenz
   ENMAX  =  267.882; ENMIN  =  200.911 eV

 POTCAR:    PAW_PBE Co 02Aug2007
   VRHFIN =Co: d8 s1

   TITEL  = PAW_PBE Co 02Aug2007
   POMASS =   58.933; ZVAL   =    9.000    mass and valenz
   ENMAX  =  267.968; ENMIN  =  200.976 eV

 POTCAR:    PAW_PBE Cu 22Jun2005
   VRHFIN =Cu: d10 p1

   TITEL  = PAW_PBE Cu 22Jun2005
   POMASS =   63.546; ZVAL   =   11.000    mass and valenz
   ENMAX  =  295.446; ENMIN  =  221.585 eV

 POTCAR:    PAW_PBE Ni 02Aug2007
   VRHFIN =Ni:

   TITEL  = PAW_PBE Ni 02Aug2007
   POMASS =   58.690; ZVAL   =   10.000    mass and valenz
   ENMAX  =  269.532; ENMIN  =  202.149 eV

 POTCAR:    PAW_PBE H 15Jun2001
   VRHFIN =H: ultrasoft test

   TITEL  = PAW_PBE H 15Jun2001
   POMASS =    1.000; ZVAL   =    1.000    mass and valenz
   ENMAX  =  250.000; ENMIN  =  200.000 eV

 Optimization of the real space projectors (new method)

 maximal supplied QI-value         = 14.36
 optimisation between [QCUT,QGAM] = [ 11.92, 23.98] = [ 39.79,161.09] Ry
 Optimized for a Real-space Cutoff    1.49 Angstroem

   l    n(q)    QCUT    max X(q) W(low)/X(q) W(high)/X(q)  e(spline)
   2     10    11.920    66.195    0.79E-04    0.18E-03    0.24E-06
   2     10    11.920    64.643    0.81E-04    0.19E-03    0.24E-06
   0     11    11.920    95.520    0.28E-04    0.54E-04    0.18E-06
   0     11    11.920    63.403    0.27E-04    0.52E-04    0.17E-06
   1     10    11.920    19.961    0.18E-04    0.11E-03    0.23E-06
   1     10    11.920    13.289    0.25E-04    0.87E-04    0.19E-06
 Optimization of the real space projectors (new method)

[...]

   l    n(q)    QCUT    max X(q) W(low)/X(q) W(high)/X(q)  e(spline)
   2      9    11.864    60.317    0.21E-03    0.51E-03    0.25E-06
   2      9    11.864    55.921    0.21E-03    0.51E-03    0.26E-06
   0      9    11.864    51.690    0.22E-03    0.30E-04    0.17E-06
   0      9    11.864    30.015    0.20E-03    0.28E-04    0.15E-06
   1      9    11.864    18.849    0.76E-04    0.33E-03    0.17E-06
   1      9    11.864    14.624    0.60E-04    0.28E-03    0.15E-06
 Optimization of the real space projectors (new method)

 maximal supplied QI-value         = 34.20
 optimisation between [QCUT,QGAM] = [ 11.97, 23.94] = [ 40.13,160.53] Ry
 Optimized for a Real-space Cutoff    1.18 Angstroem

   l    n(q)    QCUT    max X(q) W(low)/X(q) W(high)/X(q)  e(spline)
   0      8    11.971    19.460    0.15E-03    0.31E-03    0.25E-06
   0      8    11.971    12.209    0.13E-03    0.29E-03    0.25E-06
   1      8    11.971     4.655    0.22E-03    0.24E-03    0.21E-06
  PAW_PBE Pt 04Feb2005                  :
  PAW_PBE Fe 06Sep2000                  :
  PAW_PBE Co 02Aug2007                  :
  PAW_PBE Cu 22Jun2005                  :
  PAW_PBE Ni 02Aug2007                  :
  PAW_PBE H 15Jun2001                   :

 POSCAR: 10.46
  positions in cartesian coordinates
 exchange correlation table for  LEXCH =        8
   RHO(1)=    0.500       N(1)  =     2000
   RHO(2)=  100.500       N(2)  =     4000

 ion  position               nearest neighbor table
   1  0.787  0.879  0.318-  19 2.61  33 2.63  28 2.63  61 2.64  49 2.64  29 2.65  60 2.66  59 2.66
                             2 2.69  11 2.79   4 2.84  12 2.86
   2  0.042  0.883  0.317-  79 2.55  60 2.60  77 2.60  30 2.62  52 2.64  28 2.65  33 2.66  22 2.66
                             1 2.69   6 2.76   4 2.87  16 2.91
   3  0.279  0.381  0.321-  39 2.54  33 2.56  64 2.58  31 2.63  19 2.68  43 2.68  30 2.69  68 2.73
                            18 2.79   5 2.80  13 2.81  25 2.87
   4  0.874  0.962  0.427-  81 2.06  17 2.61   9 2.61   6 2.62  11 2.62  16 2.62  12 2.63   1 2.84
                            60 2.85   2 2.87
   5  0.122  0.462  0.430-  12 2.60   7 2.61  16 2.61  10 2.62  25 2.63  13 2.64  33 2.74  39 2.75
                             3 2.80
   6  0.124  0.962  0.423-  81 2.06   8 2.61  10 2.61   9 2.62   4 2.62  14 2.62  16 2.62   2 2.76
                            52 2.81  22 2.88
   7  0.874  0.461  0.429-  15 2.60   5 2.61   9 2.61  12 2.62  10 2.62  27 2.63  39 2.71  75 2.80
                            29 2.82
   8  0.374  0.960  0.422-  14 2.59  27 2.60  13 2.61  43 2.61   6 2.61  10 2.62  11 2.62  52 2.71
                            61 2.74
   9  0.874  0.211  0.422-  17 2.61  15 2.61   7 2.61   4 2.61   6 2.62  10 2.62  75 2.70  60 2.73
                            22 2.82
  10  0.125  0.211  0.424-  13 2.60   6 2.61   5 2.62   8 2.62   7 2.62   9 2.62  39 2.67  43 2.73
                            22 2.79
  11  0.624  0.961  0.426-  13 2.61  12 2.61   4 2.62  17 2.62  27 2.62   8 2.62   1 2.79  19 2.84
                            61 2.86
  12  0.873  0.711  0.429-   5 2.60  11 2.61  16 2.62   7 2.62  27 2.62   4 2.63  33 2.70  29 2.85
                             1 2.86
  13  0.374  0.210  0.427-  10 2.60  11 2.61   8 2.61  17 2.63  25 2.64   5 2.64  43 2.79   3 2.81
                            19 2.85
  14  0.375  0.712  0.426-  27 2.59   8 2.59   6 2.62  15 2.62  25 2.63  16 2.63  44 2.72  30 2.78
                            52 2.81
  15  0.625  0.461  0.424-   7 2.60  27 2.60   9 2.61  14 2.62  17 2.62  25 2.63  44 2.71  75 2.74
                            18 2.77
  16  0.124  0.711  0.429-  81 2.06   5 2.61  25 2.61   4 2.62  12 2.62   6 2.62  14 2.63  33 2.69
                            30 2.85   2 2.91
  17  0.624  0.211  0.423-   4 2.61   9 2.61  11 2.62  15 2.62  25 2.62  13 2.63  18 2.76  60 2.78
                            19 2.86
  18  0.548  0.376  0.318-  60 2.57  67 2.57  75 2.57  44 2.63  68 2.66  26 2.67  30 2.68  19 2.70
                            17 2.76  15 2.77   3 2.79  25 2.92
  19  0.534  0.125  0.316-  43 2.54  80 2.55  68 2.58  59 2.61   1 2.61  61 2.61   3 2.68  18 2.70
                            60 2.73  11 2.84  13 2.85  17 2.86
  20  0.546  0.123  0.038-  37 2.55  57 2.56  48 2.58  62 2.61  45 2.65  63 2.65  47 2.66  56 2.67
                            34 2.68
  21  0.121  0.460  0.127-  40 2.52  47 2.53  36 2.53  69 2.59  42 2.60  70 2.61  50 2.62  64 2.62
                            58 2.64  57 2.68  74 2.69  31 2.70
  22  0.043  0.137  0.314-  65 2.51  55 2.53  43 2.55  39 2.55  77 2.57  75 2.58  60 2.66   2 2.66
                            52 2.70  10 2.79   9 2.82   6 2.88  31 3.39
  23  0.043  0.130  0.032-  70 2.58  40 2.59  45 2.59  41 2.62  62 2.62  76 2.62  24 2.68  35 2.69
                            53 2.75
  24  0.130  0.958  0.131-  79 2.51  77 2.53  53 2.57  35 2.58  55 2.58  70 2.59  58 2.62  38 2.62
                            73 2.63  66 2.68  23 2.68  41 2.70
  25  0.374  0.462  0.429-  16 2.61  17 2.62  15 2.63  14 2.63   5 2.63  13 2.64   3 2.87  30 2.87
                            18 2.92
  26  0.454  0.545  0.219-  73 2.49  74 2.54  51 2.56  79 2.59  64 2.60  68 2.65  78 2.65  30 2.66
                            32 2.67  18 2.67  67 2.70  44 2.77
  27  0.622  0.711  0.426-  14 2.59   8 2.60  15 2.60  11 2.62  12 2.62   7 2.63  44 2.70  29 2.80
                            61 2.80
  28  0.956  0.790  0.221-  58 2.57  42 2.57  66 2.58  50 2.59  49 2.59  64 2.61   1 2.63   2 2.65
                            59 2.67  79 2.72  77 2.73  33 2.74
  29  0.793  0.622  0.319-  39 2.52  75 2.55  42 2.57  44 2.61  32 2.62  33 2.63  61 2.65   1 2.65
                            49 2.69  27 2.80   7 2.82  12 2.85
  30  0.292  0.632  0.319-  79 2.57  52 2.59  44 2.59  64 2.62   2 2.62  33 2.64  26 2.66  18 2.68
                             3 2.69  14 2.78  16 2.85  25 2.87
  31  0.203  0.282  0.225-  70 2.53  55 2.55  65 2.56  43 2.60  57 2.61   3 2.63  80 2.67  42 2.68
                            39 2.69  21 2.70  68 2.71  64 2.75  22 3.39
  32  0.707  0.549  0.221-  54 2.53  69 2.56  49 2.57  42 2.58  51 2.58  65 2.60  78 2.60  29 2.62
                            26 2.67  67 2.68  75 2.69  44 2.72
  33  0.040  0.631  0.327-   3 2.56  39 2.61   1 2.63  29 2.63  30 2.64   2 2.66  16 2.69  12 2.70
                            64 2.72  28 2.74   5 2.74  42 2.75
  34  0.798  0.862  0.040-  50 2.39  66 2.50  71 2.53  36 2.54  48 2.54  63 2.59  20 2.68  35 2.72
                            62 2.73
  35  0.056  0.867  0.036-  72 2.53  58 2.54  36 2.55  24 2.58  53 2.62  66 2.62  23 2.69  62 2.70
                            34 2.72
  36  0.047  0.627  0.035-  21 2.53  34 2.54  35 2.55  58 2.59  47 2.59  72 2.62  50 2.62  40 2.64
                            71 2.69
  37  0.627  0.221  0.128-  74 2.49  51 2.51  67 2.52  41 2.54  56 2.54  20 2.55  59 2.56  68 2.56
                            62 2.60  66 2.63  57 2.68  48 2.82
  38  0.382  0.955  0.129-  80 2.48  53 2.48  45 2.51  48 2.52  78 2.53  73 2.54  54 2.54  63 2.55
                            55 2.59  57 2.60  24 2.62  70 2.65
  39  0.035  0.384  0.326-  29 2.52   3 2.54  22 2.55  75 2.57  33 2.61  10 2.67  42 2.68  31 2.69
                             7 2.71   5 2.75  43 2.76  65 2.78
  40  0.032  0.382  0.036-  69 2.46  71 2.51  21 2.52  76 2.55  70 2.58  23 2.59  36 2.64  47 2.73
                            45 2.75
  41  0.872  0.216  0.128-  76 2.46  65 2.51  37 2.54  69 2.54  67 2.54  77 2.54  51 2.57  62 2.58
                            23 2.62  70 2.63  66 2.64  24 2.70
  42  0.955  0.545  0.224-  50 2.56  29 2.57  28 2.57  32 2.58  21 2.60  49 2.61  64 2.62  69 2.62
                            65 2.63  39 2.68  31 2.68  33 2.75
  43  0.296  0.116  0.322-  52 2.50  61 2.54  55 2.54  19 2.54  22 2.55  31 2.60   8 2.61  80 2.67
                             3 2.68  10 2.73  39 2.76  13 2.79
  44  0.540  0.631  0.323-  61 2.53  52 2.55  30 2.59  29 2.61  18 2.63  75 2.64  78 2.64  27 2.70
                            15 2.71  32 2.72  14 2.72  26 2.77
  45  0.295  0.120  0.038-  70 2.50  38 2.51  57 2.57  53 2.59  23 2.59  63 2.62  20 2.65  47 2.72
                            40 2.75
  46  0.548  0.625  0.042-  51 2.38  73 2.40  54 2.42  53 2.54  71 2.55  63 2.56  76 2.57  56 2.59
                            72 2.61
  47  0.295  0.380  0.037-  74 2.43  21 2.53  72 2.58  36 2.59  56 2.61  57 2.61  20 2.66  45 2.72
                            40 2.73
  48  0.625  0.951  0.131-  49 2.40  54 2.48  80 2.48  38 2.52  34 2.54  59 2.54  50 2.54  63 2.58
                            20 2.58  57 2.62  66 2.64  37 2.82
  49  0.706  0.795  0.220-  48 2.40  50 2.48  54 2.49  80 2.51  32 2.57  78 2.59  28 2.59  42 2.61
                            61 2.63   1 2.64  59 2.66  29 2.69
  50  0.866  0.707  0.128-  34 2.39  71 2.43  54 2.46  49 2.48  48 2.54  42 2.56  69 2.57  28 2.59
                            21 2.62  36 2.62  66 2.71  58 2.80
[...]
   0.365E+02 -.154E+02 -.157E+04   -.382E+02 0.156E+02 0.157E+04   0.172E+01 -.256E+00 0.210E+01   0.453E-01 0.140E-01 -.515E-01
   0.128E+02 0.691E+01 -.298E+04   -.131E+02 -.654E+01 0.298E+04   0.339E+00 -.330E+00 -.298E+00   -.406E-01 -.109E-01 0.565E-01
   -.709E+01 0.118E+02 -.295E+04   0.668E+01 -.114E+02 0.295E+04   0.382E+00 -.337E+00 0.126E+01   0.256E-01 0.593E-02 0.831E-01
   -.186E+02 -.365E+01 -.292E+04   0.193E+02 0.388E+01 0.292E+04   -.653E+00 -.258E+00 0.378E+00   -.469E-01 -.133E-01 0.348E-01
   -.135E+02 -.419E+01 -.299E+04   0.136E+02 0.388E+01 0.299E+04   -.143E+00 0.273E+00 0.116E+01   0.252E-01 0.197E-01 0.115E+00
   0.806E+01 -.174E+02 -.294E+04   -.844E+01 0.175E+02 0.294E+04   0.346E+00 -.118E+00 0.166E+01   0.647E-01 0.753E-02 0.120E+00
   -.220E+02 0.111E+02 -.294E+04   0.218E+02 -.105E+02 0.294E+04   0.138E+00 -.604E+00 0.890E+00   -.187E-01 -.572E-01 0.618E-01
   -.127E+02 -.929E+00 -.293E+04   0.131E+02 0.121E+01 0.293E+04   -.324E+00 -.281E+00 0.133E+01   0.242E-01 0.410E-01 0.936E-01
   0.378E+01 -.417E+01 -.296E+04   -.341E+01 0.405E+01 0.296E+04   -.450E+00 0.689E-01 0.480E+00   0.288E-01 -.672E-02 0.481E-01
   -.608E+01 0.235E+01 -.293E+04   0.612E+01 -.279E+01 0.293E+04   -.423E-01 0.408E+00 0.889E+00   0.345E-01 0.286E-01 0.570E-01
   0.352E+01 -.152E+02 -.295E+04   -.380E+01 0.150E+02 0.295E+04   0.253E+00 0.219E+00 0.595E+00   0.424E-01 0.125E-01 0.362E-01
   0.173E+02 0.548E+01 -.294E+04   -.167E+02 -.555E+01 0.294E+04   -.627E+00 0.831E-01 0.121E+01   -.393E-01 -.225E-01 0.793E-01
   0.186E+02 -.127E+02 -.295E+04   -.183E+02 0.129E+02 0.295E+04   -.243E+00 -.147E+00 0.981E+00   -.172E-01 -.211E-01 0.876E-01
   -.355E+01 0.139E+02 -.295E+04   0.332E+01 -.152E+02 0.295E+04   0.257E+00 0.130E+01 0.542E+00   -.262E-01 -.161E-01 0.654E-01
   0.301E+02 -.129E+02 -.295E+04   -.299E+02 0.129E+02 0.295E+04   -.154E+00 -.938E-01 0.741E+00   -.327E-01 -.976E-02 0.533E-01
   0.715E+02 -.747E+02 -.155E+04   -.702E+02 0.750E+02 0.155E+04   -.119E+01 -.253E+00 0.179E+01   -.772E-01 -.630E-01 -.923E-01
   0.308E+02 -.424E+02 -.155E+04   -.320E+02 0.420E+02 0.154E+04   0.106E+01 0.461E+00 0.247E+01   0.655E-01 0.171E-02 -.959E-01
   0.345E+02 0.332E+02 0.308E+04   -.347E+02 -.333E+02 -.308E+04   0.148E+00 0.202E+00 -.228E+01   0.385E-01 -.965E-01 0.859E-02
   0.387E+02 -.914E+01 0.161E+04   -.395E+02 0.986E+01 -.162E+04   0.898E+00 -.637E+00 0.936E+00   -.963E-01 -.105E-01 -.163E+00
   -.712E+02 0.133E+02 -.151E+04   0.722E+02 -.128E+02 0.150E+04   -.848E+00 -.489E+00 0.259E+01   -.586E-01 0.281E-01 -.474E-01
   -.555E+02 0.489E+02 0.312E+04   0.561E+02 -.481E+02 -.312E+04   -.699E+00 -.781E+00 -.189E+01   -.480E-02 0.314E-01 -.165E-01
   -.358E+01 -.522E+02 0.161E+04   0.383E+01 0.517E+02 -.161E+04   -.324E+00 0.369E+00 -.758E+00   0.232E-01 -.497E-03 -.258E+00
   0.419E+01 0.911E+01 -.295E+04   -.437E+01 -.888E+01 0.295E+04   0.199E+00 -.209E+00 0.492E+00   -.187E-01 -.461E-01 0.486E-01
   -.227E+02 -.114E+02 0.618E+01   0.227E+02 0.117E+02 -.731E+01   -.181E-01 -.276E+00 0.137E+01   0.234E-01 -.342E-01 -.275E+00
   -.812E+01 0.669E+01 -.297E+04   0.768E+01 -.684E+01 0.297E+04   0.419E+00 0.177E+00 0.100E+01   0.626E-01 0.485E-02 0.900E-01
   0.202E+02 0.697E+02 -.121E+02   -.211E+02 -.709E+02 0.119E+02   0.110E+01 0.111E+01 0.506E+00   -.291E-01 0.611E-01 -.194E+00
   -.694E+02 0.929E+01 -.151E+04   0.697E+02 -.106E+02 0.150E+04   -.285E+00 0.128E+01 0.293E+01   0.398E-01 0.490E-01 -.451E-01
   0.329E+02 0.230E+02 -.157E+04   -.327E+02 -.220E+02 0.157E+04   -.138E+00 -.814E+00 0.224E+01   -.643E-01 -.670E-01 -.553E-01
   0.276E+02 -.631E+02 -.815E+02   -.286E+02 0.626E+02 0.821E+02   0.965E+00 0.457E+00 -.268E+00   0.427E-01 0.831E-02 -.227E+00
   -.245E+02 -.234E+02 0.404E+01   0.254E+02 0.240E+02 -.436E+01   -.884E+00 -.743E+00 0.700E+00   -.185E-01 0.401E-01 -.385E+00
   0.153E+02 0.116E+02 -.128E+04   -.155E+02 -.118E+02 0.128E+04   0.127E+00 0.367E+00 0.537E+00   0.123E-01 0.682E-03 -.103E-01
   -.573E+02 -.172E+01 0.247E+04   0.578E+02 0.467E+00 -.247E+04   -.437E+00 0.131E+01 -.257E+01   -.605E-01 -.149E-01 -.101E-01
   0.290E+02 -.127E+02 0.250E+04   -.289E+02 0.113E+02 -.250E+04   -.523E-01 0.142E+01 -.212E+01   0.276E-01 0.273E-01 -.374E-01
   0.225E+02 -.774E+01 0.251E+04   -.226E+02 0.820E+01 -.251E+04   0.206E+00 -.535E+00 -.271E+01   -.767E-01 0.455E-01 -.407E-01
   0.151E+01 0.474E+02 0.131E+04   -.714E+00 -.468E+02 -.131E+04   -.862E+00 -.631E+00 -.196E+00   0.340E-01 -.198E-01 -.109E+00
   0.360E+02 -.516E+02 0.129E+04   -.360E+02 0.514E+02 -.129E+04   -.135E+00 0.234E+00 -.435E+00   0.631E-01 -.944E-01 -.199E+00
   -.534E+02 -.260E+02 -.126E+04   0.535E+02 0.262E+02 0.126E+04   -.136E+00 -.198E+00 0.862E+00   0.357E-01 -.638E-02 0.515E-02
   -.856E+02 0.231E+02 0.251E+04   0.856E+02 -.228E+02 -.251E+04   0.104E+00 -.297E+00 -.249E+01   -.124E+00 0.170E-01 -.114E-01
   -.325E+02 0.465E+02 0.131E+04   0.318E+02 -.460E+02 -.131E+04   0.783E+00 -.548E+00 -.397E+00   -.141E-01 0.562E-01 -.169E+00
   -.408E+02 0.821E+00 -.486E+02   0.406E+02 -.438E+00 0.487E+02   0.182E+00 -.411E+00 -.287E-01   -.353E-01 0.120E-01 -.190E+00
   0.156E+02 -.814E+02 -.126E+04   -.158E+02 0.812E+02 0.126E+04   0.182E+00 0.219E+00 0.124E+01   0.674E-01 0.416E-01 -.508E-01
   0.129E+02 0.322E+02 -.124E+04   -.130E+02 -.321E+02 0.124E+04   0.549E-01 -.904E-01 0.559E+00   0.267E-01 -.348E-01 -.843E-01
   0.179E+02 -.423E+02 0.248E+04   -.185E+02 0.417E+02 -.248E+04   0.672E+00 0.626E+00 -.262E+01   -.446E-01 -.774E-01 -.172E-01
   0.173E+01 -.217E+02 0.279E+04   -.193E+01 0.218E+02 -.279E+04   0.117E+00 -.219E+00 -.221E+01   0.908E-01 0.405E-01 0.295E-01
   0.115E+03 0.301E+02 0.283E+04   -.116E+03 -.293E+02 -.282E+04   0.533E+00 -.711E+00 -.220E+01   -.126E-01 -.160E-01 -.352E-01
   -.315E+02 -.211E+02 0.144E+04   0.311E+02 0.202E+02 -.144E+04   0.390E+00 0.103E+01 -.490E+00   -.469E-01 -.634E-01 -.154E+00
   -.616E+02 0.719E+02 0.224E+02   0.616E+02 -.718E+02 -.231E+02   0.264E-01 -.210E+00 0.948E+00   -.440E-01 0.445E-01 -.281E+00
   -.827E+02 0.228E+02 0.142E+04   0.824E+02 -.223E+02 -.142E+04   0.513E+00 -.495E+00 -.613E-01   -.159E+00 0.257E-01 -.206E+00
   -.203E+02 0.134E+02 0.141E+04   0.203E+02 -.137E+02 -.141E+04   -.160E+00 0.256E+00 -.376E-01   0.840E-01 0.686E-01 -.209E+00
   0.532E+02 0.568E+01 -.141E+04   -.530E+02 -.584E+01 0.141E+04   -.269E+00 0.239E+00 0.161E+01   -.285E-01 -.320E-01 -.651E-01
   0.505E+02 -.832E+02 0.279E+04   -.503E+02 0.831E+02 -.279E+04   -.300E+00 0.198E+00 -.222E+01   0.645E-01 -.525E-01 -.116E-01
   -.141E+02 -.101E+01 0.140E+04   0.142E+02 0.124E+01 -.139E+04   -.848E-01 -.206E+00 -.389E+00   -.230E-01 -.197E-01 -.242E+00
   0.168E+02 -.666E+02 -.175E+02   -.161E+02 0.660E+02 0.180E+02   -.765E+00 0.612E+00 -.352E+00   0.127E-01 0.204E-01 -.279E+00
   0.308E+02 0.332E+02 0.348E+04   -.311E+02 -.324E+02 -.348E+04   0.779E-01 -.853E+00 -.335E+01   0.175E+00 0.420E-01 -.382E-02
   0.665E+02 0.820E+01 0.177E+04   -.667E+02 -.878E+01 -.177E+04   0.841E-01 0.736E+00 -.132E+00   0.370E-01 -.118E+00 -.126E+00
   0.965E+02 -.292E+02 0.174E+04   -.964E+02 0.291E+02 -.174E+04   -.177E+00 0.334E-01 0.127E+00   0.353E-01 0.467E-01 -.196E+00
   0.112E+02 0.763E+02 0.731E+02   -.117E+02 -.762E+02 -.737E+02   0.589E+00 -.221E+00 0.813E+00   -.391E-01 0.133E-01 -.255E+00
   0.115E+02 0.631E+02 -.174E+04   -.110E+02 -.629E+02 0.174E+04   -.508E+00 -.191E+00 0.160E+01   -.695E-01 -.653E-01 -.105E+00
[...]
   0.557E+02 -.443E+02 0.146E+01   -.552E+02 0.439E+02 -.173E+01   -.584E+00 0.453E+00 0.519E+00   0.508E-01 -.472E-01 -.219E+00
   -.760E+02 0.182E+01 0.157E+04   0.757E+02 -.174E+01 -.157E+04   0.393E+00 -.639E-01 -.372E-01   -.111E+00 0.516E-01 -.279E+00
   -.111E+02 0.210E+02 0.164E+04   0.115E+02 -.212E+02 -.164E+04   -.344E+00 0.189E+00 -.418E+00   -.529E-01 0.178E-01 -.230E+00
   -.988E+02 -.344E+01 0.312E+04   0.995E+02 0.354E+01 -.312E+04   -.550E+00 -.605E-01 -.115E+01   -.139E+00 -.154E-01 0.367E-01
   0.713E+02 -.556E+02 0.312E+04   -.717E+02 0.561E+02 -.312E+04   0.301E+00 -.570E+00 -.711E+00   0.143E+00 0.103E+00 -.375E-01
   0.141E+02 -.454E+02 0.156E+04   -.139E+02 0.452E+02 -.156E+04   -.383E+00 0.247E+00 0.390E-01   0.157E+00 -.296E-02 -.267E+00
   0.508E+02 0.159E+01 0.161E+04   -.504E+02 -.154E+01 -.161E+04   -.482E+00 -.105E-01 -.536E-01   0.118E+00 0.489E-02 -.962E-01
   -.430E+02 -.765E+02 -.156E+04   0.430E+02 0.767E+02 0.156E+04   0.951E-01 -.755E-01 0.917E+00   0.956E-02 -.368E-01 -.109E+00
   -.583E+02 0.295E+02 0.311E+04   0.587E+02 -.291E+02 -.310E+04   -.400E+00 -.535E+00 -.183E+01   0.269E-01 0.922E-01 0.818E-02
   -.470E+02 0.748E+02 0.688E+02   0.474E+02 -.746E+02 -.687E+02   -.341E+00 -.363E+00 0.176E+00   -.801E-01 0.290E-01 -.237E+00
   0.144E+01 0.626E+02 0.113E+01   -.162E+01 -.617E+02 -.835E+00   0.734E-01 -.835E+00 -.400E-01   0.108E+00 -.539E-01 -.388E+00
   0.466E+02 0.863E+01 -.382E+02   -.462E+02 -.800E+01 0.383E+02   -.389E+00 -.595E+00 0.147E+00   -.351E-01 -.523E-01 -.267E+00
   0.300E+02 -.450E+02 0.316E+02   -.304E+02 0.446E+02 -.316E+02   0.293E+00 0.493E+00 0.219E+00   0.113E+00 -.260E-01 -.287E+00
   -.484E+01 -.362E+00 -.352E+03   0.513E+01 0.287E+00 0.354E+03   -.302E+00 0.919E-01 -.172E+01   -.220E-02 -.217E-02 0.895E-02
   -.165E+01 -.971E+00 -.166E+00   -.906E-13 0.729E-13 -.739E-11   0.141E+01 0.117E+01 0.752E+01   0.248E+00 -.218E+00 -.742E+01

 POSITION                                       TOTAL-FORCE (eV/Angst)
     12.84430      7.96110      7.01453         0.004611     -0.007281      0.008505
      5.05655      7.99602      6.99500         0.009815      0.008343     -0.022647
      4.91006      3.44775      7.05438        -0.002213      0.004722     -0.001282
     14.15178      8.72131      9.52683        -0.001313      0.005753      0.002032
      3.69658      4.17939      9.47190        -0.000331      0.002051      0.005860
      6.34402      8.72112      9.37758         0.000620     -0.007372     -0.019013
     11.55050      4.16661      9.45672         0.001128      0.005276      0.005962
      8.93699      8.69629      9.26854         0.008039     -0.007160     -0.002843
     10.24433      1.92860      9.26330         0.000839     -0.017661     -0.000276
      2.41258      1.91475      9.33123         0.008150      0.013582     -0.003028
     11.55526      8.70355      9.36225        -0.008243     -0.015563     -0.002174
     12.84858      6.42792      9.40691         0.015216      0.003641      0.011407
      5.01249      1.89619      9.37879         0.003227     -0.006310      0.002392
      7.66329      6.44169      9.33581        -0.000501      0.007240     -0.003302
      8.95579      4.17917      9.32366         0.005328     -0.003542     -0.008298
      5.02618      6.41030      9.52940         0.001850     -0.005075      0.003369
      7.63886      1.90736      9.31287        -0.002466      0.007529     -0.000225
      7.70080      3.40572      6.98446         0.001694      0.000204      0.003028
      6.24787      1.12588      6.94277         0.002968     -0.006370     -0.001507
      6.36060      1.11842      0.83643        -0.003740     -0.004809     -0.010371
      3.67604      4.17054      2.79730         0.015422      0.008872     -0.007394
      1.16284      1.23208      6.92027         0.006176      0.002958      0.013802
      1.12703      1.17594      0.69812        -0.026264      0.014389     -0.011112
      6.37362      8.68069      2.88743        -0.007676     -0.000502      0.006709
      6.33374      4.17827      9.43113         0.008144     -0.014467     -0.001348
      7.60189      4.94104      4.81158         0.009065     -0.021791     -0.036160
     10.23751      6.44394      9.36314         0.005941     -0.007439     -0.002549
     14.13769      7.16055      4.86796         0.035012      0.016834      0.093812
     11.55780      5.63580      7.02802        -0.000457     -0.007478      0.007135
      6.34599      5.71954      7.02648        -0.002430      0.002504      0.011048
      3.59772      2.55377      4.95823        -0.013977      0.004889     -0.018027
     10.26754      4.96975      4.85148         0.002471     -0.019936     -0.005118
      3.72919      5.71759      7.20972        -0.011451     -0.007532     -0.024062
     12.85228      7.80762      0.88868        -0.001590      0.010416     -0.008946
      5.11408      7.84972      0.79309         0.005611      0.021081      0.012245
      3.77023      5.68258      0.76914         0.008306     -0.007194     -0.010637
      7.70970      1.99756      2.81572        -0.015211     -0.010137     -0.025866
      8.99527      8.65169      2.84555        -0.013135      0.014093     -0.006203
      2.37564      3.47386      7.16271         0.002084     -0.013608      0.017482
      2.33777      3.46419      0.78556         0.005621      0.005512     -0.007554
     10.24620      1.95217      2.80512        -0.023440     -0.019839     -0.003157
     12.84195      4.93745      4.92144        -0.001049      0.010401      0.004238
      3.70199      1.05426      7.07944        -0.001525     -0.006711     -0.002841
      8.95331      5.71312      7.09020        -0.001861     -0.005889      0.002142
      3.71395      1.08784      0.82514         0.004754      0.002372      0.003964
      8.99829      5.66522      0.92800         0.000136     -0.015052     -0.010426
      5.06743      3.44147      0.81265         0.001397      0.022601     -0.001501
     11.51727      8.61665      2.89228        -0.001877      0.000542     -0.006806
     11.54465      7.19978      4.83241         0.001376      0.013136     -0.062695
     12.75801      6.40091      2.81726         0.037400     -0.000157      0.008605
      8.95770      4.17295      2.77896        -0.017197      0.020488     -0.004359
      7.70013      7.92919      6.99020         0.001844      0.000828     -0.011215
      7.73138      7.86096      0.86088        -0.011709      0.002451     -0.004601
     10.29450      6.46618      2.80924         0.009739      0.015542      0.022151
      2.48849      0.26233      4.99690        -0.012623      0.004426     -0.012287
      7.67241      3.44637      0.72761        -0.005253     -0.010518      0.009770
      5.03303      1.85843      2.89234        -0.019140      0.007087      0.008456
      5.10108      6.38920      2.87489        -0.004296     -0.001424     -0.002418
      7.63667      0.45282      4.84968         0.013267     -0.024926      0.017666
      8.97148      1.17093      6.99313        -0.002895     -0.002397     -0.006759
[...]
      8.97964      2.61894      4.90350        -0.003381     -0.005520     -0.000899
      6.30589      2.63413      4.85503         0.004579      0.008184     -0.022479
     11.54224      4.13511      2.79014         0.004945      0.005890     -0.009993
      2.41993      1.87995      2.81735         0.010150      0.018766      0.019846
     11.54338      5.63874      0.85840         0.012993      0.020451     -0.014960
      6.38743      5.66222      0.89172        -0.011327      0.007748     -0.010812
      7.74928      6.43552      2.82185        -0.018056      0.028477     -0.017835
      6.36172      4.09062      2.75984        -0.018505      0.004300      0.006214
     10.27719      3.42736      7.05179         0.004799     -0.003966     -0.008581
     10.24544      3.41772      0.83401        -0.002864     -0.009278     -0.006737
     10.26946      0.46989      4.86907        -0.009121     -0.035099      0.057035
      8.95807      7.22027      4.93062        -0.019374      0.001422     -0.017181
      6.39295      7.22925      4.93874         0.002541     -0.002447      0.078608
      4.99996      0.28300      4.87997         0.000400      0.000632      0.000372
      5.01136      8.03224     10.51884        -0.013187      0.012454      0.004548
    total drift:                                0.002511     -0.017768     -0.062735

  FREE ENERGIE OF THE ION-ELECTRON SYSTEM (eV)
  free  energy   TOTEN  =      -511.42705367 eV

  energy  without entropy=     -511.44072994  energy(sigma->0) =     -511.43161243

 d Force = 0.6430227E-03[ 0.423E-03, 0.863E-03]  d Energy = 0.5847285E-03 0.583E-04
 d Force =-0.2190390E+02[-0.219E+02,-0.219E+02]  d Ewald  =-0.2190390E+02 0.935E-07

 Conjugate gradient step on ions:
 trial-energy change:   -0.000585  1 .order   -0.000643   -0.000863   -0.000423
  (g-gl).g = 0.582E-03      g.g   = 0.107E-02  gl.gl    = 0.173E-02
 g(Force)  = 0.107E-02   g(Stress)= 0.000E+00 ortho     = 0.323E-04
 gamma     =   0.33578
 trial     =   0.79965
 opt step  =   1.56695  (harmonic =   1.56695) maximal distance =0.00315625
 next E    =  -511.427315   (d E  =  -0.00085)

 reached required accuracy - stopping structural energy minimisation