 vasp.5.4.4.18Apr17-6-g9f103f2a35 (build Nov 06 2019 15:09:28) complex

 executed on             LinuxIFC date 2021.11.22  18:01:19

 INCAR:
 POTCAR:    PAW_PBE Pt 04Feb2005
 POTCAR:    PAW_PBE Fe 06Sep2000
 POTCAR:    PAW_PBE Co 02Aug2007
 POTCAR:    PAW_PBE Cu 22Jun2005
 POTCAR:    PAW_PBE Ni 02Aug2007
 POTCAR:    PAW_PBE H 15Jun2001
 POTCAR:    PAW_PBE Pt 04Feb2005
   VRHFIN =Pt: s1d9

   TITEL  = PAW_PBE Pt 04Feb2005
   POMASS =  195.080; ZVAL   =   10.000    mass and valenz
   ENMAX  =  230.283; ENMIN  =  172.712 eV

 POTCAR:    PAW_PBE Fe 06Sep2000
   VRHFIN =Fe:  d7 s1

   TITEL  = PAW_PBE Fe 06Sep2000
   POMASS =   55.847; ZVAL   =    8.000    mass and valenz
   ENMAX  =  267.882; ENMIN  =  200.911 eV

 POTCAR:    PAW_PBE Co 02Aug2007
   VRHFIN =Co: d8 s1

   TITEL  = PAW_PBE Co 02Aug2007
   POMASS =   58.933; ZVAL   =    9.000    mass and valenz
   ENMAX  =  267.968; ENMIN  =  200.976 eV

 POTCAR:    PAW_PBE Cu 22Jun2005
   VRHFIN =Cu: d10 p1

   TITEL  = PAW_PBE Cu 22Jun2005
   POMASS =   63.546; ZVAL   =   11.000    mass and valenz
   ENMAX  =  295.446; ENMIN  =  221.585 eV

 POTCAR:    PAW_PBE Ni 02Aug2007
   VRHFIN =Ni:

   TITEL  = PAW_PBE Ni 02Aug2007
   POMASS =   58.690; ZVAL   =   10.000    mass and valenz
   ENMAX  =  269.532; ENMIN  =  202.149 eV

 POTCAR:    PAW_PBE H 15Jun2001
   VRHFIN =H: ultrasoft test

   TITEL  = PAW_PBE H 15Jun2001
   POMASS =    1.000; ZVAL   =    1.000    mass and valenz
   ENMAX  =  250.000; ENMIN  =  200.000 eV

 Optimization of the real space projectors (new method)

 maximal supplied QI-value         = 14.36
 optimisation between [QCUT,QGAM] = [ 11.92, 23.98] = [ 39.79,161.09] Ry
 Optimized for a Real-space Cutoff    1.49 Angstroem

   l    n(q)    QCUT    max X(q) W(low)/X(q) W(high)/X(q)  e(spline)
   2     10    11.920    66.195    0.79E-04    0.18E-03    0.24E-06
   2     10    11.920    64.643    0.81E-04    0.19E-03    0.24E-06
   0     11    11.920    95.520    0.28E-04    0.54E-04    0.18E-06
   0     11    11.920    63.403    0.27E-04    0.52E-04    0.17E-06
   1     10    11.920    19.961    0.18E-04    0.11E-03    0.23E-06
   1     10    11.920    13.289    0.25E-04    0.87E-04    0.19E-06
 Optimization of the real space projectors (new method)

[...]

   l    n(q)    QCUT    max X(q) W(low)/X(q) W(high)/X(q)  e(spline)
   2      9    11.864    60.317    0.21E-03    0.51E-03    0.25E-06
   2      9    11.864    55.921    0.21E-03    0.51E-03    0.26E-06
   0      9    11.864    51.690    0.22E-03    0.30E-04    0.17E-06
   0      9    11.864    30.015    0.20E-03    0.28E-04    0.15E-06
   1      9    11.864    18.849    0.76E-04    0.33E-03    0.17E-06
   1      9    11.864    14.624    0.60E-04    0.28E-03    0.15E-06
 Optimization of the real space projectors (new method)

 maximal supplied QI-value         = 34.20
 optimisation between [QCUT,QGAM] = [ 11.97, 23.94] = [ 40.13,160.53] Ry
 Optimized for a Real-space Cutoff    1.18 Angstroem

   l    n(q)    QCUT    max X(q) W(low)/X(q) W(high)/X(q)  e(spline)
   0      8    11.971    19.460    0.15E-03    0.31E-03    0.25E-06
   0      8    11.971    12.209    0.13E-03    0.29E-03    0.25E-06
   1      8    11.971     4.655    0.22E-03    0.24E-03    0.21E-06
  PAW_PBE Pt 04Feb2005                  :
  PAW_PBE Fe 06Sep2000                  :
  PAW_PBE Co 02Aug2007                  :
  PAW_PBE Cu 22Jun2005                  :
  PAW_PBE Ni 02Aug2007                  :
  PAW_PBE H 15Jun2001                   :

 POSCAR: Pt   Fe   Co   Cu   Ni   H
  positions in direct lattice
 exchange correlation table for  LEXCH =        8
   RHO(1)=    0.500       N(1)  =     2000
   RHO(2)=  100.500       N(2)  =     4000

 VTST: version 3.2, (02/03/18)

 CHAIN: initializing optimizer

 OPT: Using VASP QUASI-newton optimizer
 CHAIN: Read ICHAIN            0
 CHAIN: Running the NEB
 NEB:          SPRING     -5.000000
 NEB:          LCLIMB      T
 NEB:     LTANGENTOLD      F
 NEB:           LDNEB      F
 NEB:        LDNEBORG      F
 NEB:        LNEBCELL      F
 NEB:          EFIRST      0.000000
 NEB:           ELAST      0.000000

 POSCAR: Pt   Fe   Co   Cu   Ni   H
  positions in direct lattice

 POSCAR: Pt   Fe   Co   Cu   Ni   H
  positions in direct lattice

 ion  position               nearest neighbor table
   1  0.787  0.879  0.317-  49 2.62  28 2.62  19 2.64  59 2.65  61 2.65  33 2.65  29 2.68  60 2.68
                             2 2.72  11 2.77   4 2.82  12 2.84
   2  0.042  0.883  0.316-  79 2.54  77 2.59  60 2.62  28 2.65  30 2.65  52 2.66  33 2.68  22 2.69
                             1 2.72   6 2.75   4 2.83  16 2.90
   3  0.277  0.382  0.320-  39 2.55  33 2.58  64 2.58  31 2.64  19 2.71  43 2.71  30 2.71  68 2.74
                            13 2.81  18 2.83   5 2.83  25 2.84
   4  0.875  0.962  0.424-   9 2.62  17 2.63   6 2.64  12 2.64  11 2.64  16 2.64  60 2.82   1 2.82
                             2 2.83
   5  0.124  0.463  0.432-  81 1.69  16 2.62  12 2.64  25 2.65   7 2.67  10 2.68  13 2.69  39 2.79
                            33 2.81   3 2.83
   6  0.125  0.961  0.421-  10 2.62   8 2.64   4 2.64  14 2.64  16 2.64   9 2.65   2 2.75  52 2.78
                            22 2.86
   7  0.872  0.461  0.429-  15 2.61  27 2.64   9 2.64  12 2.66   5 2.67  10 2.67  39 2.71  75 2.81
                            29 2.83
   8  0.375  0.959  0.420-  43 2.60  14 2.61  27 2.62  10 2.64   6 2.64  13 2.64  11 2.64  52 2.69
                            61 2.72
   9  0.873  0.211  0.420-  17 2.62   4 2.62  15 2.63   7 2.64   6 2.65  10 2.65  75 2.68  60 2.71
                            22 2.80
  10  0.126  0.208  0.425-  81 1.76   6 2.62   8 2.64  13 2.65   9 2.65   7 2.67   5 2.68  39 2.69
                            43 2.76  22 2.80
  11  0.625  0.960  0.424-  13 2.62  12 2.62  27 2.64   4 2.64   8 2.64  17 2.65   1 2.77  19 2.83
                            61 2.85
  12  0.874  0.712  0.426-  11 2.62   5 2.64  16 2.64   4 2.64  27 2.65   7 2.66  33 2.69  29 2.82
                             1 2.84
  13  0.377  0.208  0.426-  11 2.62  17 2.63   8 2.64  10 2.65  25 2.67   5 2.69  43 2.79   3 2.81
                            19 2.82
  14  0.376  0.712  0.424-  27 2.61   8 2.61   6 2.64  15 2.64  25 2.65  16 2.66  44 2.70  30 2.77
                            52 2.78
  15  0.626  0.461  0.422-   7 2.61  27 2.63   9 2.63  14 2.64  25 2.65  17 2.65  44 2.70  75 2.72
                            18 2.76
  16  0.124  0.711  0.426-   5 2.62  25 2.64  12 2.64   6 2.64   4 2.64  14 2.66  33 2.68  30 2.82
                             2 2.90
  17  0.625  0.210  0.422-   9 2.62   4 2.63  13 2.63  11 2.65  25 2.65  15 2.65  18 2.76  60 2.78
                            19 2.85
  18  0.548  0.375  0.317-  67 2.56  60 2.59  75 2.61  68 2.65  44 2.65  26 2.66  30 2.70  19 2.72
                            15 2.76  17 2.76   3 2.83  25 2.88
  19  0.534  0.125  0.315-  80 2.56  43 2.56  68 2.58  59 2.61   1 2.64  61 2.64   3 2.71  18 2.72
                            60 2.76  13 2.82  11 2.83  17 2.85
  20  0.547  0.124  0.040-  37 2.55  57 2.56  48 2.58  62 2.64  63 2.68  47 2.68  45 2.68  56 2.70
                            34 2.71
  21  0.121  0.460  0.128-  40 2.52  36 2.53  47 2.53  42 2.60  69 2.61  64 2.62  70 2.64  50 2.64
                            58 2.67  31 2.70  57 2.71  74 2.72
  22  0.043  0.138  0.314-  65 2.52  55 2.54  39 2.57  43 2.57  77 2.58  75 2.60  60 2.69   2 2.69
                            52 2.73   9 2.80  10 2.80   6 2.86  31 3.39
  23  0.042  0.130  0.033-  70 2.58  40 2.60  41 2.61  45 2.62  62 2.64  76 2.64  24 2.69  35 2.73
                            53 2.78
  24  0.130  0.958  0.132-  79 2.51  77 2.54  35 2.57  53 2.57  55 2.58  70 2.62  38 2.64  58 2.64
                            73 2.65  23 2.69  66 2.70  41 2.72
  25  0.375  0.462  0.426-  16 2.64  15 2.65  14 2.65  17 2.65   5 2.65  13 2.67  30 2.84   3 2.84
                            18 2.88
  26  0.455  0.546  0.219-  73 2.50  74 2.54  51 2.56  79 2.61  64 2.63  30 2.65  18 2.66  68 2.67
                            78 2.67  32 2.68  67 2.72  44 2.75
  27  0.623  0.711  0.424-  14 2.61   8 2.62  15 2.63  11 2.64   7 2.64  12 2.65  44 2.70  61 2.78
                            29 2.79
  28  0.956  0.790  0.221-  58 2.57  66 2.57  50 2.58  42 2.59  49 2.61   1 2.62  64 2.63   2 2.65
                            59 2.70  33 2.72  79 2.76  77 2.77
  29  0.795  0.622  0.319-  39 2.54  42 2.56  75 2.57  32 2.62  33 2.64  44 2.64   1 2.68  61 2.68
                            49 2.69  27 2.79  12 2.82   7 2.83
  30  0.292  0.631  0.318-  79 2.56  64 2.60  52 2.62  44 2.62  26 2.65   2 2.65  33 2.66  18 2.70
                             3 2.71  14 2.77  16 2.82  25 2.84
  31  0.203  0.281  0.225-  70 2.52  55 2.56  65 2.57  43 2.59  57 2.60   3 2.64  80 2.70  39 2.70
                            21 2.70  42 2.71  68 2.75  64 2.79  22 3.39
  32  0.706  0.549  0.221-  54 2.53  69 2.56  51 2.58  49 2.59  42 2.60  29 2.62  78 2.62  65 2.63
                            26 2.68  75 2.69  44 2.69  67 2.70
  33  0.040  0.631  0.325-   3 2.58  39 2.64  29 2.64   1 2.65  30 2.66  16 2.68   2 2.68  12 2.69
                            64 2.70  28 2.72  42 2.72   5 2.81
  34  0.797  0.862  0.042-  50 2.38  66 2.51  48 2.53  36 2.55  71 2.56  63 2.61  20 2.71  35 2.76
                            62 2.76
  35  0.056  0.866  0.038-  58 2.54  72 2.55  36 2.56  24 2.57  66 2.62  53 2.65  23 2.73  62 2.73
                            34 2.76
  36  0.046  0.628  0.037-  21 2.53  34 2.55  35 2.56  58 2.58  50 2.61  47 2.63  72 2.64  40 2.69
                            71 2.72
  37  0.627  0.222  0.129-  51 2.51  74 2.51  67 2.52  56 2.53  41 2.55  20 2.55  68 2.56  59 2.56
                            62 2.59  66 2.66  57 2.73  48 2.89
  38  0.382  0.955  0.130-  53 2.47  80 2.48  45 2.49  78 2.53  48 2.54  73 2.55  63 2.55  54 2.56
                            55 2.59  57 2.62  24 2.64  70 2.67
  39  0.036  0.383  0.326-  29 2.54   3 2.55  22 2.57  75 2.59  33 2.64  10 2.69  42 2.69  31 2.70
                             7 2.71  65 2.79   5 2.79  43 2.79
  40  0.031  0.382  0.038-  69 2.44  21 2.52  71 2.53  76 2.56  70 2.57  23 2.60  36 2.69  45 2.78
                            47 2.78
  41  0.872  0.215  0.128-  76 2.45  65 2.52  77 2.53  67 2.54  37 2.55  69 2.57  62 2.57  51 2.59
                            23 2.61  70 2.65  66 2.66  24 2.72
  42  0.955  0.545  0.224-  50 2.56  29 2.56  28 2.59  21 2.60  32 2.60  69 2.61  49 2.63  65 2.64
                            64 2.65  39 2.69  31 2.71  33 2.72
  43  0.297  0.116  0.321-  52 2.53  55 2.53  19 2.56  61 2.56  22 2.57  31 2.59   8 2.60  80 2.66
                             3 2.71  10 2.76  13 2.79  39 2.79
  44  0.540  0.630  0.322-  61 2.56  52 2.58  30 2.62  78 2.63  29 2.64  18 2.65  75 2.66  32 2.69
                            15 2.70  27 2.70  14 2.70  26 2.75
  45  0.295  0.119  0.039-  70 2.49  38 2.49  57 2.57  53 2.60  23 2.62  63 2.64  20 2.68  47 2.75
                            40 2.78
  46  0.548  0.625  0.044-  51 2.38  73 2.39  54 2.41  71 2.56  53 2.56  63 2.58  76 2.59  56 2.62
                            72 2.64
[...]
   -.243E+02 -.217E+02 0.484E+01   0.251E+02 0.223E+02 -.555E+01   -.833E+00 -.727E+00 0.679E+00   0.978E-02 -.112E-01 0.137E-01
   0.200E+02 0.234E+02 -.125E+04   -.201E+02 -.237E+02 0.125E+04   0.123E+00 0.454E+00 0.603E+00   0.162E-02 -.169E-02 0.352E-01
   -.598E+02 -.260E+01 0.244E+04   0.601E+02 0.133E+01 -.244E+04   -.394E+00 0.132E+01 -.268E+01   0.149E-01 -.121E-01 -.231E-01
   0.305E+02 -.141E+02 0.247E+04   -.304E+02 0.127E+02 -.247E+04   -.700E-01 0.148E+01 -.230E+01   -.204E-02 -.638E-02 -.101E-01
   0.229E+02 -.381E+01 0.247E+04   -.230E+02 0.440E+01 -.247E+04   0.125E+00 -.622E+00 -.286E+01   0.550E-02 -.302E-02 -.841E-02
   0.717E+01 0.516E+02 0.129E+04   -.630E+01 -.510E+02 -.129E+04   -.941E+00 -.706E+00 -.114E+00   0.117E-01 0.148E-01 0.630E-03
   0.338E+02 -.548E+02 0.128E+04   -.337E+02 0.545E+02 -.128E+04   -.128E+00 0.244E+00 -.420E+00   -.132E-01 0.256E-02 -.601E-02
   -.602E+02 -.218E+02 -.126E+04   0.602E+02 0.219E+02 0.126E+04   -.921E-01 -.209E+00 0.952E+00   0.122E-01 0.141E-02 0.326E-01
   -.934E+02 0.206E+02 0.248E+04   0.931E+02 -.203E+02 -.248E+04   0.263E+00 -.241E+00 -.263E+01   -.145E-02 0.252E-02 -.700E-02
   -.342E+02 0.460E+02 0.130E+04   0.334E+02 -.455E+02 -.130E+04   0.811E+00 -.536E+00 -.415E+00   0.296E-02 0.278E-02 0.388E-02
   -.438E+02 0.691E+01 -.475E+02   0.435E+02 -.650E+01 0.474E+02   0.222E+00 -.481E+00 -.693E-01   0.850E-02 -.799E-02 0.235E-01
   0.203E+02 -.895E+02 -.125E+04   -.205E+02 0.893E+02 0.125E+04   0.208E+00 0.216E+00 0.120E+01   -.860E-02 0.179E-01 0.423E-01
   0.119E+02 0.299E+02 -.124E+04   -.120E+02 -.299E+02 0.123E+04   0.115E+00 -.351E-01 0.433E+00   -.618E-03 -.292E-03 0.295E-01
   0.147E+02 -.467E+02 0.245E+04   -.153E+02 0.459E+02 -.245E+04   0.687E+00 0.694E+00 -.276E+01   -.534E-02 0.106E-01 -.140E-01
   0.438E+01 -.196E+02 0.276E+04   -.445E+01 0.198E+02 -.275E+04   0.858E-01 -.234E+00 -.234E+01   0.202E-02 -.127E-01 -.163E-01
   0.119E+03 0.291E+02 0.279E+04   -.120E+03 -.284E+02 -.279E+04   0.449E+00 -.701E+00 -.237E+01   -.202E-02 0.106E-01 -.109E-01
   -.361E+02 -.277E+02 0.143E+04   0.356E+02 0.266E+02 -.142E+04   0.445E+00 0.110E+01 -.464E+00   0.225E-02 -.362E-02 -.205E-02
   -.598E+02 0.686E+02 0.237E+02   0.598E+02 -.684E+02 -.246E+02   -.586E-01 -.238E+00 0.810E+00   0.119E-01 -.244E-01 0.358E-01
   -.886E+02 0.198E+02 0.141E+04   0.881E+02 -.193E+02 -.141E+04   0.520E+00 -.489E+00 -.107E+00   0.137E-01 -.283E-01 0.405E-03
   -.210E+02 0.950E+01 0.139E+04   0.212E+02 -.973E+01 -.139E+04   -.146E+00 0.283E+00 -.108E+00   0.652E-02 0.221E-02 -.130E-01
   0.464E+02 0.639E+01 -.140E+04   -.462E+02 -.656E+01 0.140E+04   -.285E+00 0.218E+00 0.147E+01   -.153E-01 0.436E-02 0.517E-01
   0.529E+02 -.807E+02 0.277E+04   -.526E+02 0.806E+02 -.276E+04   -.348E+00 0.185E+00 -.242E+01   -.275E-02 -.107E-01 -.166E-01
   -.139E+02 0.222E+01 0.138E+04   0.140E+02 -.196E+01 -.138E+04   -.111E+00 -.253E+00 -.451E+00   -.963E-02 -.332E-01 -.146E-01
   0.190E+02 -.704E+02 -.168E+02   -.182E+02 0.699E+02 0.171E+02   -.780E+00 0.605E+00 -.344E+00   -.139E-01 0.161E-01 0.243E-01
   0.308E+02 0.339E+02 0.344E+04   -.310E+02 -.331E+02 -.344E+04   0.128E+00 -.845E+00 -.357E+01   0.748E-02 0.194E-01 -.142E-01
   0.638E+02 0.777E+01 0.174E+04   -.640E+02 -.846E+01 -.174E+04   0.133E+00 0.695E+00 -.176E+00   -.139E-01 0.308E-01 0.107E-02
   0.102E+03 -.309E+02 0.172E+04   -.102E+03 0.309E+02 -.172E+04   -.202E+00 0.120E-01 0.292E-01   -.544E-02 -.574E-02 -.206E-03
   0.153E+02 0.703E+02 0.862E+02   -.160E+02 -.702E+02 -.870E+02   0.602E+00 -.199E+00 0.639E+00   0.300E-01 0.868E-02 0.395E-01
   0.122E+02 0.544E+02 -.170E+04   -.117E+02 -.539E+02 0.170E+04   -.462E+00 -.462E+00 0.152E+01   0.186E-01 -.228E-01 0.326E-01
[...]
   0.605E+02 -.401E+02 0.976E+00   -.599E+02 0.396E+02 -.135E+01   -.696E+00 0.507E+00 0.407E+00   -.724E-02 0.145E-01 0.235E-01
   -.742E+02 0.162E+01 0.155E+04   0.737E+02 -.149E+01 -.155E+04   0.403E+00 -.615E-01 -.134E+00   0.575E-03 -.212E-02 0.123E-02
   -.127E+02 0.189E+02 0.162E+04   0.130E+02 -.191E+02 -.162E+04   -.342E+00 0.226E+00 -.444E+00   -.763E-02 0.147E-01 -.163E-02
   -.101E+03 -.410E+01 0.309E+04   0.101E+03 0.417E+01 -.308E+04   -.525E+00 -.271E-01 -.133E+01   -.996E-02 -.140E-01 -.108E-01
   0.702E+02 -.524E+02 0.309E+04   -.706E+02 0.530E+02 -.309E+04   0.412E+00 -.563E+00 -.870E+00   0.139E-03 -.709E-02 -.166E-01
   0.149E+02 -.403E+02 0.155E+04   -.145E+02 0.402E+02 -.155E+04   -.400E+00 0.223E+00 0.264E-01   -.109E-02 -.171E-01 -.133E-01
   0.518E+02 0.231E+01 0.159E+04   -.513E+02 -.231E+01 -.159E+04   -.480E+00 0.379E-01 -.135E+00   -.349E-02 0.627E-02 -.491E-02
   -.428E+02 -.725E+02 -.155E+04   0.427E+02 0.726E+02 0.154E+04   0.623E-01 -.726E-01 0.763E+00   0.198E-01 -.449E-02 0.302E-01
   -.542E+02 0.295E+02 0.307E+04   0.546E+02 -.290E+02 -.307E+04   -.420E+00 -.585E+00 -.190E+01   -.244E-02 0.107E-01 -.936E-02
   -.501E+02 0.709E+02 0.745E+02   0.505E+02 -.706E+02 -.748E+02   -.299E+00 -.307E+00 0.113E+00   -.116E-02 -.552E-03 0.270E-01
   -.508E-01 0.618E+02 -.101E+01   0.403E-02 -.610E+02 0.866E+00   0.840E-01 -.860E+00 -.153E-01   -.166E-02 -.151E-01 0.213E-01
   0.459E+02 0.537E+01 -.312E+02   -.455E+02 -.474E+01 0.311E+02   -.381E+00 -.637E+00 0.382E-01   -.278E-01 -.495E-02 0.244E-01
   0.254E+02 -.508E+02 0.350E+02   -.258E+02 0.504E+02 -.352E+02   0.305E+00 0.457E+00 0.164E+00   -.907E-02 0.202E-01 0.428E-01
   0.378E+01 0.146E+01 -.349E+03   -.412E+01 -.138E+01 0.351E+03   0.365E+00 -.935E-01 -.190E+01   -.182E-02 -.365E-03 -.182E-02
   -.301E+01 -.567E+00 -.507E+01   0.251E-12 0.332E-12 0.716E-11   0.305E+01 0.555E+00 0.413E+01   -.198E-01 -.243E-02 0.912E+00

 POSITION                                       TOTAL-FORCE (eV/Angst)
     12.94822      8.04128      6.98226         0.004691      0.001691     -0.003016
      5.11107      8.08068      6.94253         0.003970     -0.000824      0.002987
      4.93661      3.49657      7.05080        -0.006367     -0.002184      0.009932
     14.31478      8.79352      9.32785        -0.003717     -0.004957     -0.006621
      3.75832      4.23263      9.55757         0.002373      0.000530      0.044759
      6.39503      8.78733      9.26378         0.000848      0.003618      0.007122
     11.64460      4.21714      9.38455        -0.000182     -0.005308      0.004176
      9.02974      8.77172      9.23852        -0.002877      0.000085     -0.003411
     10.33131      1.92502      9.24132         0.001505     -0.000840     -0.002578
      2.42095      1.90897      9.40413        -0.004246      0.000443      0.013989
     11.67304      8.78185      9.33399        -0.005435     -0.000553      0.003111
     12.98876      6.50941      9.37620         0.001533     -0.002940     -0.002775
      5.08041      1.90039      9.31431        -0.000418     -0.003058      0.011169
      7.73294      6.51087      9.31954        -0.000043     -0.002526     -0.001476
      9.04346      4.21840      9.30604        -0.002031     -0.004507      0.007736
      5.06438      6.49156      9.36355        -0.004595     -0.000762      0.008040
      7.71466      1.92374      9.28937        -0.003172     -0.002341     -0.000410
      7.77153      3.43542      6.97506         0.001118      0.000901     -0.002623
      6.30219      1.14687      6.92524         0.002789      0.001117      0.002769
      6.42858      1.12974      0.87872        -0.019715     -0.012920      0.007760
      3.70548      4.20844      2.81687         0.009855      0.005574     -0.026800
      1.19666      1.25906      6.92703         0.007265      0.000762      0.005608
      1.13569      1.19080      0.72557        -0.009947      0.002500      0.002132
      6.43607      8.76100      2.90031        -0.006587      0.011917      0.008030
      6.40326      4.22041      9.37661        -0.000434     -0.002003     -0.006761
      7.68135      4.99073      4.81474         0.010245     -0.006322     -0.040826
     10.34164      6.50412      9.32931        -0.003760     -0.005105     -0.004713
     14.26424      7.22593      4.86299         0.028755     -0.008902     -0.046761
     11.67784      5.68507      7.01764         0.003745     -0.004092      0.002565
      6.41213      5.77194      7.00129        -0.001882     -0.001118      0.000633
      3.62119      2.56589      4.96023        -0.000583      0.021247      0.101399
     10.36091      5.02430      4.85652         0.017932     -0.014523     -0.025204
      3.75413      5.77616      7.15174         0.003924      0.000078      0.005864
     12.96907      7.87977      0.92567        -0.004829      0.005594      0.020783
      5.16340      7.91719      0.83030         0.013489      0.012383      0.011620
      3.80701      5.74502      0.81381         0.012847     -0.004669     -0.015390
      7.79852      2.03245      2.83251        -0.031708     -0.005592     -0.000161
      9.07755      8.73373      2.85743         0.011805     -0.011318     -0.001251
      2.40613      3.50064      7.17966         0.000200     -0.002746      0.019930
      2.34409      3.49051      0.82510         0.004672      0.013620     -0.012599
     10.34814      1.96983      2.82249        -0.020530      0.020667      0.013519
     12.96035      4.98587      4.92559         0.008764     -0.042350     -0.007993
      3.75159      1.05078      7.06026         0.003863      0.002734      0.001899
      9.03363      5.75742      7.08457         0.002092     -0.000005      0.000336
      3.74824      1.09182      0.86700        -0.008318     -0.001985     -0.013962
      9.09121      5.71867      0.96043         0.002081      0.017383     -0.016524
      5.12448      3.47045      0.85563        -0.004090      0.032708     -0.001614
     11.62092      8.68758      2.90590         0.006422     -0.011453      0.014961
     11.65313      7.26450      4.84229        -0.010638     -0.018411     -0.041410
     12.86756      6.45280      2.83379         0.020863      0.000424     -0.001621
      9.04201      4.20780      2.79628         0.001499      0.014796     -0.008787
      7.77298      8.00685      6.99049         0.002203     -0.000578      0.001254
      7.81315      7.93922      0.88653        -0.014213      0.008420      0.007890
     10.39144      6.53566      2.82198         0.012573     -0.008386     -0.000764
      2.51347      0.25826      5.00083         0.011948      0.031701     -0.005510
      7.74264      3.48454      0.76157        -0.000079     -0.008179      0.009972
      5.07835      1.87760      2.91701        -0.002602     -0.003624     -0.004429
      5.16037      6.44715      2.89923        -0.012233      0.000661     -0.015204
      7.70892      0.45986      4.84799         0.001146      0.010278      0.000287
      9.05870      1.18845      6.96869         0.005453      0.003668     -0.001644
[...]
      9.07350      2.65252      4.91360         0.022597     -0.024584     -0.028223
      6.37169      2.66558      4.85827        -0.025675      0.033819     -0.007422
     11.65891      4.17486      2.81483        -0.020791      0.004413     -0.027700
      2.44098      1.89237      2.83279         0.003513      0.022865      0.019460
     11.64953      5.68621      0.88546         0.001573      0.025045     -0.010637
      6.44743      5.71949      0.92597        -0.014262      0.014596     -0.008300
      7.82927      6.50651      2.83621        -0.007755     -0.006617     -0.000510
      6.41922      4.13007      2.78290        -0.002225     -0.000131     -0.013751
     10.37615      3.46405      7.04454         0.003670      0.001081      0.000448
     10.34410      3.45013      0.86804         0.005748     -0.014101     -0.018867
     10.37063      0.48410      4.87151        -0.009696     -0.001604     -0.036585
      9.04079      7.29017      4.93700         0.013592     -0.028045     -0.014754
      6.46265      7.29503      4.94074         0.033383      0.016922     -0.022695
      5.04247      0.27633      4.88406        -0.028425      0.009865      0.036900
      2.81877      3.15474     10.57782         0.012787     -0.010043      0.039981
    total drift:                                0.013943     -0.014700     -0.027028

  FREE ENERGIE OF THE ION-ELECTRON SYSTEM (eV)
  free  energy   TOTEN  =      -511.00193057 eV

  energy  without entropy=     -511.02455123  energy(sigma->0) =     -511.00947079

 d Force = 0.1443045E-02[ 0.112E-02, 0.176E-02]  d Energy = 0.1328275E-02 0.115E-03
 d Force = 0.4673285E+02[ 0.468E+02, 0.467E+02]  d Ewald  = 0.4673288E+02-0.311E-04

 NEB: the previous image is higher in energy: F
 NEB: the next image is higher in energy    : F
 NEB: image is at an extrema
 NEB: diff energy (min, max):     0.007789  511.001931

 NEB: Tangent
     -0.00355     -0.00987     -0.00282
     -0.00605     -0.00680     -0.00062
      0.00528     -0.00756     -0.00507
      0.00149     -0.00366     -0.00028
      0.01355     -0.01475     -0.05413
     -0.00552     -0.00166      0.00888
     -0.00103     -0.00911      0.15094
     -0.00390      0.01021      0.01032
      0.00170     -0.00539     -0.01348
      0.02992     -0.01428     -0.10537
     -0.00694     -0.00262     -0.00551
     -0.00301      0.00481     -0.01181
     -0.00170      0.00361      0.03450
     -0.00662     -0.00181      0.00459
      0.00283     -0.00253     -0.03179
      0.00460      0.01064      0.00568
     -0.00174     -0.00264     -0.00411
     -0.00732     -0.00346     -0.00067
     -0.00445     -0.00417      0.00521
      0.00000      0.00000      0.00000
      0.00000      0.00000      0.00000
     -0.01529     -0.00287     -0.02055
      0.00000      0.00000      0.00000
      0.00000      0.00000      0.00000
     -0.01357     -0.00882      0.01020
      0.00000      0.00000      0.00000
     -0.01160      0.00392     -0.00896
      0.00000      0.00000      0.00000
     -0.00918     -0.00785      0.01655
     -0.00086     -0.00114      0.00253
      0.00000      0.00000      0.00000
      0.00000      0.00000      0.00000
     -0.00634     -0.01081      0.00705
      0.00000      0.00000      0.00000
      0.00000      0.00000      0.00000
      0.00000      0.00000      0.00000
      0.00000      0.00000      0.00000
      0.00000      0.00000      0.00000
     -0.01383      0.00384      0.00637
      0.00000      0.00000      0.00000
      0.00000      0.00000      0.00000
      0.00000      0.00000      0.00000
     -0.01053      0.00646      0.00549
     -0.00264      0.00741     -0.00777
      0.00000      0.00000      0.00000
      0.00000      0.00000      0.00000
      0.00000      0.00000      0.00000
      0.00000      0.00000      0.00000
      0.00000      0.00000      0.00000
      0.00000      0.00000      0.00000
      0.00000      0.00000      0.00000
     -0.00269     -0.00151     -0.00257
      0.00000      0.00000      0.00000
      0.00000      0.00000      0.00000
      0.00000      0.00000      0.00000
      0.00000      0.00000      0.00000
      0.00000      0.00000      0.00000
      0.00000      0.00000      0.00000
      0.00000      0.00000      0.00000
     -0.00482     -0.00306     -0.00264
[...]
      0.00000      0.00000      0.00000
      0.00000      0.00000      0.00000
      0.00000      0.00000      0.00000
      0.00000      0.00000      0.00000
      0.00000      0.00000      0.00000
      0.00000      0.00000      0.00000
      0.00000      0.00000      0.00000
      0.00000      0.00000      0.00000
     -0.00539      0.00322      0.00206
      0.00000      0.00000      0.00000
      0.00000      0.00000      0.00000
      0.00000      0.00000      0.00000
      0.00000      0.00000      0.00000
      0.00000      0.00000      0.00000
     -0.73706      0.62503     -0.14606

 NEB: forces: par spring, perp REAL, dneb     0.036283    0.071746    0.000000
 NEB: distance to prev, next image, angle between     0.583018    0.590274  161.570028
 NEB: projections on to tangent (spring, REAL)     0.036283   -0.024837

 stress matrix after NEB project (eV)
    -30.81730      0.48813      0.35195
      0.48813    -32.47168     -0.57987
      0.35195     -0.57987     -0.07445
  FORCES: max atom, RMS     0.045605    0.008436
  FORCE total and by dimension    0.075923    0.042070
  Stress total and by dimension   44.783011   32.471676
 Quasi-Newton relaxation of ions (Broydens 2nd method)
  g(Force)  = 0.518E-03   g(Stress)= 0.000E+00

 retain information from N=  4 steps
 eigenvalues of (default step * inverse Hessian matrix)
  average eigenvalue of G=   5.5913
 eigenvalue spectrum of G is  6.9959  6.9959  4.1866  4.1866

 reached required accuracy - stopping structural energy minimisation