 vasp.5.4.4.18Apr17-6-g9f103f2a35 (build Oct 25 2019 11:13:22) complex

 executed on             LinuxIFC date 2022.02.05  11:14:38

 INCAR:
 POTCAR:    PAW_PBE Pt 04Feb2005
 POTCAR:    PAW_PBE Fe 06Sep2000
 POTCAR:    PAW_PBE Co 02Aug2007
 POTCAR:    PAW_PBE Cu 22Jun2005
 POTCAR:    PAW_PBE Ni 02Aug2007
 POTCAR:    PAW_PBE H 15Jun2001

 POTCAR:    PAW_PBE Pt 04Feb2005
   VRHFIN =Pt: s1d9

   TITEL  = PAW_PBE Pt 04Feb2005
   POMASS =  195.080; ZVAL   =   10.000    mass and valenz
   ENMAX  =  230.283; ENMIN  =  172.712 eV

 POTCAR:    PAW_PBE Fe 06Sep2000
   VRHFIN =Fe:  d7 s1

   TITEL  = PAW_PBE Fe 06Sep2000
   POMASS =   55.847; ZVAL   =    8.000    mass and valenz
   ENMAX  =  267.882; ENMIN  =  200.911 eV

 POTCAR:    PAW_PBE Co 02Aug2007
   VRHFIN =Co: d8 s1

   TITEL  = PAW_PBE Co 02Aug2007
   POMASS =   58.933; ZVAL   =    9.000    mass and valenz
   ENMAX  =  267.968; ENMIN  =  200.976 eV

 POTCAR:    PAW_PBE Cu 22Jun2005
   VRHFIN =Cu: d10 p1

   TITEL  = PAW_PBE Cu 22Jun2005
   POMASS =   63.546; ZVAL   =   11.000    mass and valenz
   ENMAX  =  295.446; ENMIN  =  221.585 eV

 POTCAR:    PAW_PBE Ni 02Aug2007
   VRHFIN =Ni:

   TITEL  = PAW_PBE Ni 02Aug2007
   POMASS =   58.690; ZVAL   =   10.000    mass and valenz
   ENMAX  =  269.532; ENMIN  =  202.149 eV

 POTCAR:    PAW_PBE H 15Jun2001
   VRHFIN =H: ultrasoft test

   TITEL  = PAW_PBE H 15Jun2001
   POMASS =    1.000; ZVAL   =    1.000    mass and valenz
   ENMAX  =  250.000; ENMIN  =  200.000 eV

 Optimization of the real space projectors (new method)

 maximal supplied QI-value         = 14.36
 optimisation between [QCUT,QGAM] = [ 11.92, 23.98] = [ 39.79,161.09] Ry
 Optimized for a Real-space Cutoff    1.49 Angstroem

   l    n(q)    QCUT    max X(q) W(low)/X(q) W(high)/X(q)  e(spline)
   2     10    11.920    66.195    0.79E-04    0.18E-03    0.24E-06
   2     10    11.920    64.643    0.81E-04    0.19E-03    0.24E-06
   0     11    11.920    95.520    0.28E-04    0.54E-04    0.18E-06
   0     11    11.920    63.403    0.27E-04    0.52E-04    0.17E-06
   1     10    11.920    19.961    0.18E-04    0.11E-03    0.23E-06
   1     10    11.920    13.289    0.25E-04    0.87E-04    0.19E-06
 Optimization of the real space projectors (new method)

[...]

   l    n(q)    QCUT    max X(q) W(low)/X(q) W(high)/X(q)  e(spline)
   2      9    11.864    60.317    0.21E-03    0.51E-03    0.25E-06
   2      9    11.864    55.921    0.21E-03    0.51E-03    0.26E-06
   0      9    11.864    51.690    0.22E-03    0.30E-04    0.17E-06
   0      9    11.864    30.015    0.20E-03    0.28E-04    0.15E-06
   1      9    11.864    18.849    0.76E-04    0.33E-03    0.17E-06
   1      9    11.864    14.624    0.60E-04    0.28E-03    0.15E-06
 Optimization of the real space projectors (new method)

 maximal supplied QI-value         = 34.20
 optimisation between [QCUT,QGAM] = [ 11.97, 23.94] = [ 40.13,160.53] Ry
 Optimized for a Real-space Cutoff    1.18 Angstroem

   l    n(q)    QCUT    max X(q) W(low)/X(q) W(high)/X(q)  e(spline)
   0      8    11.971    19.460    0.15E-03    0.31E-03    0.25E-06
   0      8    11.971    12.209    0.13E-03    0.29E-03    0.25E-06
   1      8    11.971     4.655    0.22E-03    0.24E-03    0.21E-06
  PAW_PBE Pt 04Feb2005                  :
  PAW_PBE Fe 06Sep2000                  :
  PAW_PBE Co 02Aug2007                  :
  PAW_PBE Cu 22Jun2005                  :
  PAW_PBE Ni 02Aug2007                  :
  PAW_PBE H 15Jun2001                   :

 POSCAR: 10.46
  positions in cartesian coordinates
 exchange correlation table for  LEXCH =        8
   RHO(1)=    0.500       N(1)  =     2000
   RHO(2)=  100.500       N(2)  =     4000

 ion  position               nearest neighbor table
   1  0.787  0.878  0.319-  19 2.59  61 2.62  33 2.63  28 2.64  29 2.64  49 2.65  60 2.66  59 2.67
                             2 2.69  12 2.82   4 2.84  11 2.98
   2  0.042  0.883  0.317-  79 2.55  60 2.59  77 2.60  30 2.62  52 2.64  28 2.65  33 2.66  22 2.67
                             1 2.69   6 2.77   4 2.84  16 2.93
   3  0.280  0.380  0.321-  39 2.54  33 2.56  64 2.58  31 2.63  43 2.68  30 2.69  19 2.69  68 2.73
                            13 2.78  18 2.79   5 2.81  25 2.86
   4  0.877  0.962  0.426-  17 2.60   9 2.60   6 2.61  16 2.62  11 2.63  12 2.63   2 2.84   1 2.84
                            60 2.84
   5  0.125  0.461  0.431-  12 2.59   7 2.61  16 2.62  10 2.62  13 2.63  25 2.64  33 2.76  39 2.78
                             3 2.81
   6  0.127  0.961  0.424-   8 2.60   4 2.61  16 2.62  14 2.62  10 2.62   9 2.62   2 2.77  52 2.80
                            22 2.89
   7  0.877  0.459  0.430-  15 2.59   9 2.60  10 2.60   5 2.61  27 2.63  12 2.63  39 2.69  75 2.83
                            29 2.83
   8  0.376  0.960  0.420-  43 2.58  14 2.59   6 2.60  10 2.61  13 2.62  27 2.65  11 2.66  52 2.68
                            61 2.70
   9  0.876  0.211  0.421-   4 2.60   7 2.60  17 2.61  15 2.61   6 2.62  10 2.63  75 2.68  60 2.73
                            22 2.80
  10  0.127  0.211  0.424-  13 2.60   7 2.60   8 2.61   5 2.62   6 2.62   9 2.63  39 2.68  43 2.74
                            22 2.81
  11  0.626  0.963  0.437-  81 1.70  17 2.61  13 2.61   4 2.63  27 2.65  12 2.65   8 2.66   1 2.98
                            19 3.01  61 3.08
  12  0.878  0.710  0.426-   5 2.59  16 2.61   7 2.63   4 2.63  33 2.64  27 2.64  11 2.65  29 2.81
                             1 2.82
  13  0.376  0.210  0.426-  10 2.60  11 2.61   8 2.62   5 2.63  17 2.63  25 2.63   3 2.78  43 2.79
                            19 2.81
  14  0.378  0.711  0.424-   8 2.59  27 2.60  15 2.61   6 2.62  25 2.63  16 2.63  44 2.68  30 2.76
                            52 2.77
  15  0.628  0.463  0.423-  27 2.59   7 2.59  14 2.61   9 2.61  25 2.64  17 2.65  44 2.69  75 2.71
                            18 2.77
  16  0.127  0.710  0.429-  12 2.61  25 2.61   6 2.62   5 2.62   4 2.62  14 2.63  33 2.71  30 2.85
                             2 2.93
  17  0.628  0.210  0.423-   4 2.60   9 2.61  11 2.61  25 2.63  13 2.63  15 2.65  18 2.76  60 2.77
                            19 2.84
  18  0.549  0.375  0.318-  60 2.56  67 2.57  75 2.58  44 2.63  68 2.66  26 2.67  30 2.68  19 2.71
                            17 2.76  15 2.77   3 2.79  25 2.88
  19  0.536  0.122  0.317-  43 2.54  80 2.57   1 2.59  61 2.60  68 2.61  59 2.62   3 2.69  18 2.71
                            60 2.72  13 2.81  17 2.84  11 3.01
  20  0.546  0.123  0.038-  37 2.55  57 2.56  48 2.58  62 2.61  45 2.65  63 2.65  47 2.66  56 2.67
                            34 2.68
  21  0.121  0.460  0.127-  40 2.52  47 2.53  36 2.53  69 2.59  42 2.60  70 2.61  50 2.62  64 2.62
                            58 2.64  57 2.68  74 2.69  31 2.70
  22  0.043  0.137  0.314-  65 2.51  55 2.52  39 2.55  43 2.55  77 2.57  75 2.57  60 2.66   2 2.67
                            52 2.71   9 2.80  10 2.81   6 2.89  31 3.38
  23  0.043  0.130  0.032-  70 2.58  40 2.59  45 2.59  41 2.62  62 2.62  76 2.62  24 2.68  35 2.69
                            53 2.75
  24  0.130  0.958  0.131-  79 2.51  77 2.53  53 2.57  35 2.58  55 2.58  70 2.59  58 2.62  38 2.62
                            73 2.63  66 2.68  23 2.68  41 2.70
  25  0.377  0.461  0.428-  16 2.61  17 2.63  14 2.63  13 2.63  15 2.64   5 2.64  30 2.85   3 2.86
                            18 2.88
  26  0.454  0.545  0.219-  73 2.49  74 2.54  51 2.56  79 2.59  64 2.60  68 2.65  30 2.65  78 2.65
                            32 2.67  18 2.67  67 2.70  44 2.76
  27  0.626  0.710  0.436-  81 1.83  15 2.59  14 2.60   7 2.63  12 2.64   8 2.65  11 2.65  44 2.91
                            29 2.94  61 2.99
  28  0.956  0.790  0.221-  58 2.57  42 2.57  66 2.58  50 2.59  49 2.59  64 2.61   1 2.64   2 2.65
                            59 2.67  79 2.72  77 2.73  33 2.74
  29  0.791  0.623  0.320-  39 2.53  75 2.55  44 2.59  42 2.60  61 2.62  32 2.63   1 2.64  33 2.65
                            49 2.71  12 2.81   7 2.83  27 2.94
  30  0.292  0.631  0.319-  79 2.57  52 2.60  64 2.60  44 2.60   2 2.62  33 2.63  26 2.65  18 2.68
                             3 2.69  14 2.76  16 2.85  25 2.85
  31  0.203  0.282  0.225-  70 2.53  55 2.55  65 2.56  43 2.60  57 2.61   3 2.63  80 2.67  42 2.68
                            39 2.69  21 2.70  68 2.71  64 2.75  22 3.38
  32  0.707  0.549  0.221-  54 2.53  69 2.56  49 2.57  42 2.58  51 2.58  65 2.60  78 2.60  29 2.63
                            26 2.67  67 2.68  75 2.68  44 2.70
  33  0.041  0.630  0.327-   3 2.56  39 2.60   1 2.63  30 2.63  12 2.64  29 2.65   2 2.66  64 2.71
                            16 2.71  28 2.74  42 2.74   5 2.76
  34  0.798  0.862  0.040-  50 2.39  66 2.50  71 2.53  36 2.54  48 2.54  63 2.59  20 2.68  35 2.72
                            62 2.73
  35  0.056  0.867  0.036-  72 2.53  58 2.54  36 2.55  24 2.58  53 2.62  66 2.62  23 2.69  62 2.70
                            34 2.72
  36  0.047  0.627  0.035-  21 2.53  34 2.54  35 2.55  58 2.59  47 2.59  72 2.62  50 2.62  40 2.64
                            71 2.69
  37  0.627  0.221  0.128-  74 2.49  51 2.51  67 2.52  41 2.54  56 2.54  20 2.55  59 2.56  68 2.56
                            62 2.60  66 2.63  57 2.68  48 2.82
  38  0.382  0.955  0.129-  80 2.48  53 2.48  45 2.51  48 2.52  78 2.53  73 2.54  54 2.54  63 2.55
                            55 2.59  57 2.60  24 2.62  70 2.65
  39  0.035  0.384  0.326-  29 2.53   3 2.54  22 2.55  75 2.56  33 2.60  42 2.68  10 2.68  31 2.69
                             7 2.69  43 2.77   5 2.78  65 2.78
  40  0.032  0.382  0.036-  69 2.46  71 2.51  21 2.52  76 2.55  70 2.58  23 2.59  36 2.64  47 2.73
                            45 2.75
  41  0.872  0.216  0.128-  76 2.46  65 2.51  37 2.54  69 2.54  67 2.54  77 2.54  51 2.57  62 2.58
                            23 2.62  70 2.63  66 2.64  24 2.70
  42  0.955  0.545  0.224-  50 2.56  28 2.57  32 2.58  29 2.60  21 2.60  49 2.61  64 2.62  69 2.62
                            65 2.63  31 2.68  39 2.68  33 2.74
  43  0.297  0.116  0.322-  52 2.51  55 2.53  19 2.54  61 2.54  22 2.55   8 2.58  31 2.60  80 2.66
                             3 2.68  10 2.74  39 2.77  13 2.79
  44  0.541  0.630  0.322-  61 2.53  52 2.55  29 2.59  30 2.60  18 2.63  78 2.64  75 2.64  14 2.68
                            15 2.69  32 2.70  26 2.76  27 2.91
  45  0.295  0.120  0.038-  70 2.50  38 2.51  57 2.57  53 2.59  23 2.59  63 2.62  20 2.65  47 2.72
                            40 2.75
  46  0.548  0.625  0.042-  51 2.38  73 2.40  54 2.42  53 2.54  71 2.55  63 2.56  76 2.57  56 2.59
                            72 2.61
  47  0.295  0.380  0.037-  74 2.43  21 2.53  72 2.58  36 2.59  56 2.61  57 2.61  20 2.66  45 2.72
                            40 2.73
  48  0.625  0.951  0.131-  49 2.40  54 2.48  80 2.48  38 2.52  34 2.54  59 2.54  50 2.54  63 2.58
                            20 2.58  57 2.62  66 2.64  37 2.82
  49  0.706  0.795  0.220-  48 2.40  50 2.48  54 2.49  80 2.51  32 2.57  78 2.59  28 2.59  42 2.61
                            61 2.63   1 2.65  59 2.66  29 2.71
  50  0.866  0.707  0.128-  34 2.39  71 2.43  54 2.46  49 2.48  48 2.54  42 2.56  69 2.57  28 2.59
                            21 2.62  36 2.62  66 2.71  58 2.80
[...]
     12.75801      6.40091      2.81726         0.026093     -0.003702      0.006620
      8.95770      4.17295      2.77896        -0.004110      0.017361     -0.003508
      7.70053      7.92978      6.99090         0.037312      0.001020     -0.030635
      7.73138      7.86096      0.86088        -0.020161     -0.000461     -0.020263
     10.29450      6.46618      2.80924        -0.005577     -0.000727     -0.006468
      2.48849      0.26233      4.99690         0.013115     -0.011891     -0.089427
      7.67241      3.44637      0.72761        -0.001959     -0.022457      0.001395
      5.03303      1.85843      2.89234        -0.014166     -0.001996      0.007782
      5.10108      6.38920      2.87489        -0.024863      0.007230      0.019486
      7.63667      0.45282      4.84968        -0.035967     -0.012095      0.038568
      8.97167      1.17114      6.97572         0.004417     -0.005732      0.022706
[...]
      8.97964      2.61894      4.90350        -0.014505      0.004211     -0.006680
      6.30589      2.63413      4.85503         0.001107     -0.025611      0.044052
     11.54224      4.13511      2.79014         0.010499      0.011002     -0.011142
      2.41993      1.87995      2.81735         0.024316      0.019185      0.013302
     11.54338      5.63874      0.85840         0.015467      0.011764     -0.018122
      6.38743      5.66222      0.89172        -0.011757      0.015942     -0.012020
      7.74928      6.43552      2.82185         0.003489      0.007075     -0.014885
      6.36172      4.09062      2.75984        -0.005755     -0.000787     -0.002121
     10.27624      3.42803      7.04765         0.039449      0.012075     -0.010733
     10.24544      3.41772      0.83401        -0.006782      0.005994     -0.027507
     10.26946      0.46989      4.86907         0.006376     -0.014416     -0.011209
      8.95807      7.22027      4.93062        -0.016348     -0.020704     -0.038515
      6.39295      7.22925      4.93874         0.018162      0.014215     -0.000132
      4.99996      0.28300      4.87997         0.029419      0.050676      0.118925
     10.97078      7.63223     10.76450        -0.007967      0.015698      0.004799
    total drift:                                0.009184     -0.015133     -0.064817

  FREE ENERGIE OF THE ION-ELECTRON SYSTEM (eV)
  free  energy   TOTEN  =      -511.49792185 eV

  energy  without entropy=     -511.49792185  energy(sigma->0) =     -511.49792185

 d Force = 0.2021965E-03[-0.247E-02, 0.287E-02]  d Energy =-0.3587655E-03 0.561E-03
 d Force =-0.3774539E+02[-0.377E+02,-0.378E+02]  d Ewald  =-0.3774555E+02 0.164E-03

 Finite differences progress:
  Degree of freedom:   3/  3
  Displacement:        2/  2
  Total:               6/  6

 SECOND DERIVATIVES (NOT SYMMETRIZED)
              39X         39Y         39Z
 39X    -9.238600    0.810857    0.611864
 39Y     0.817540   -9.421300   -0.089887
 39Z     0.612094   -0.107924   -5.932702

 Eigenvectors and eigenvalues of the dynamical matrix

   1 f  =    6.682692 THz    41.988591 2PiTHz  222.910597 cm-1    27.637402 meV
             X         Y         Z           dx          dy          dz
     12.828880  7.954220  7.018677            0           0           0
      5.059248  7.996592  6.970672            0           0           0
      4.911212  3.441942  7.055911            0           0           0
     14.205075  8.714244  9.382921            0           0           0
      3.720002  4.180226  9.489995            0           0           0
      6.349263  8.701011  9.317431            0           0           0
     11.575009  4.153735  9.449434            0           0           0
      8.951484  8.700571  9.237107            0           0           0
     10.265990  1.911324  9.260452            0           0           0
      2.430588  1.908264  9.335223            0           0           0
     11.582563  8.722190  9.611925            0           0           0
     12.896644  6.427670  9.382979            0           0           0
      5.030347  1.902421  9.373235            0           0           0
      7.674919  6.445024  9.327562            0           0           0
      8.988410  4.192064  9.310495            0           0           0
      5.046053  6.435681  9.445068            0           0           0
      7.660218  1.899055  9.309260            0           0           0
      7.700971  3.395793  6.992317            0           0           0
      6.249499  1.108500  6.973044            0           0           0
      6.360598  1.118418  0.836434            0           0           0
      3.676042  4.170544  2.797305            0           0           0
      1.170282  1.242223  6.911821            0           0           0
      1.127025  1.175942  0.698123            0           0           0
      6.373624  8.680686  2.887431            0           0           0
      6.355182  4.175421  9.418618            0           0           0
      7.601892  4.941036  4.811584            0           0           0
     10.262360  6.428044  9.585434            0           0           0
     14.137687  7.160553  4.867965            0           0           0
     11.535871  5.647857  7.050561            0           0           0
      6.348452  5.712191  7.015616            0           0           0
      3.597724  2.553772  4.958234            0           0           0
     10.267537  4.969746  4.851478            0           0           0
      3.721085  5.704237  7.191284            0           0           0
     12.852282  7.807618  0.888681            0           0           0
      5.114080  7.849718  0.793090            0           0           0
      3.770227  5.682576  0.769145            0           0           0
      7.709702  1.997558  2.815724            0           0           0
      8.995271  8.651687  2.845548            0           0           0
      2.372402  3.478202  7.166370     0.681559   -0.722771   -0.114369
      2.337773  3.464190  0.785560            0           0           0
     10.246202  1.952172  2.805117            0           0           0
     12.841951  4.937451  4.921441            0           0           0
      3.711003  1.049986  7.073090            0           0           0
      8.951594  5.709709  7.091276            0           0           0
      3.713945  1.087838  0.825141            0           0           0
      8.998291  5.665219  0.927996            0           0           0
      5.067435  3.441468  0.812654            0           0           0
     11.517273  8.616645  2.892278            0           0           0
     11.544645  7.199779  4.832406            0           0           0
     12.758010  6.400910  2.817256            0           0           0
      8.957703  4.172950  2.778963            0           0           0
      7.700534  7.929781  6.990899            0           0           0
      7.731381  7.860956  0.860880            0           0           0
     10.294496  6.466176  2.809236            0           0           0
      2.488487  0.262328  4.996902            0           0           0
      7.672412  3.446372  0.727611            0           0           0
      5.033028  1.858433  2.892341            0           0           0
      5.101077  6.389203  2.874891            0           0           0
      7.636675  0.452821  4.849681            0           0           0
      8.971669  1.171139  6.975723            0           0           0
[...]
      8.979643  2.618940  4.903500            0           0           0
      6.305890  2.634134  4.855031            0           0           0
     11.542241  4.135108  2.790143            0           0           0
      2.419927  1.879955  2.817345            0           0           0
     11.543384  5.638735  0.858402            0           0           0
      6.387432  5.662223  0.891717            0           0           0
      7.749284  6.435515  2.821853            0           0           0
      6.361720  4.090624  2.759842            0           0           0
     10.276243  3.428026  7.047648            0           0           0
     10.245443  3.417720  0.834008            0           0           0
     10.269464  0.469889  4.869075            0           0           0
      8.958072  7.220273  4.930624            0           0           0
      6.392947  7.229252  4.938737            0           0           0
      4.999964  0.283003  4.879972            0           0           0
     10.970779  7.632230 10.764504            0           0           0

[...]

   3 f  =    5.047806 THz    31.716303 2PiTHz  168.376691 cm-1    20.876057 meV
             X         Y         Z           dx          dy          dz
     12.828880  7.954220  7.018677            0           0           0
      5.059248  7.996592  6.970672            0           0           0
      4.911212  3.441942  7.055911            0           0           0
     14.205075  8.714244  9.382921            0           0           0
      3.720002  4.180226  9.489995            0           0           0
      6.349263  8.701011  9.317431            0           0           0
     11.575009  4.153735  9.449434            0           0           0
      8.951484  8.700571  9.237107            0           0           0
     10.265990  1.911324  9.260452            0           0           0
      2.430588  1.908264  9.335223            0           0           0
     11.582563  8.722190  9.611925            0           0           0
     12.896644  6.427670  9.382979            0           0           0
      5.030347  1.902421  9.373235            0           0           0
      7.674919  6.445024  9.327562            0           0           0
      8.988410  4.192064  9.310495            0           0           0
      5.046053  6.435681  9.445068            0           0           0
      7.660218  1.899055  9.309260            0           0           0
      7.700971  3.395793  6.992317            0           0           0
      6.249499  1.108500  6.973044            0           0           0
      6.360598  1.118418  0.836434            0           0           0
      3.676042  4.170544  2.797305            0           0           0
      1.170282  1.242223  6.911821            0           0           0
      1.127025  1.175942  0.698123            0           0           0
      6.373624  8.680686  2.887431            0           0           0
      6.355182  4.175421  9.418618            0           0           0
      7.601892  4.941036  4.811584            0           0           0
     10.262360  6.428044  9.585434            0           0           0
     14.137687  7.160553  4.867965            0           0           0
     11.535871  5.647857  7.050561            0           0           0
      6.348452  5.712191  7.015616            0           0           0
      3.597724  2.553772  4.958234            0           0           0
     10.267537  4.969746  4.851478            0           0           0
      3.721085  5.704237  7.191284            0           0           0
     12.852282  7.807618  0.888681            0           0           0
      5.114080  7.849718  0.793090            0           0           0
      3.770227  5.682576  0.769145            0           0           0
      7.709702  1.997558  2.815724            0           0           0
      8.995271  8.651687  2.845548            0           0           0
      2.372402  3.478202  7.166370     0.179450    0.013564    0.983674
      2.337773  3.464190  0.785560            0           0           0
     10.246202  1.952172  2.805117            0           0           0
     12.841951  4.937451  4.921441            0           0           0
      3.711003  1.049986  7.073090            0           0           0
      8.951594  5.709709  7.091276            0           0           0
      3.713945  1.087838  0.825141            0           0           0
      8.998291  5.665219  0.927996            0           0           0
      5.067435  3.441468  0.812654            0           0           0
     11.517273  8.616645  2.892278            0           0           0
     11.544645  7.199779  4.832406            0           0           0
     12.758010  6.400910  2.817256            0           0           0
      8.957703  4.172950  2.778963            0           0           0
      7.700534  7.929781  6.990899            0           0           0
      7.731381  7.860956  0.860880            0           0           0
     10.294496  6.466176  2.809236            0           0           0
      2.488487  0.262328  4.996902            0           0           0
      7.672412  3.446372  0.727611            0           0           0
      5.033028  1.858433  2.892341            0           0           0
      5.101077  6.389203  2.874891            0           0           0
      7.636675  0.452821  4.849681            0           0           0
      8.971669  1.171139  6.975723            0           0           0
[...]
      8.979643  2.618940  4.903500            0           0           0
      6.305890  2.634134  4.855031            0           0           0
     11.542241  4.135108  2.790143            0           0           0
      2.419927  1.879955  2.817345            0           0           0
     11.543384  5.638735  0.858402            0           0           0
      6.387432  5.662223  0.891717            0           0           0
      7.749284  6.435515  2.821853            0           0           0
      6.361720  4.090624  2.759842            0           0           0
     10.276243  3.428026  7.047648            0           0           0
     10.245443  3.417720  0.834008            0           0           0
     10.269464  0.469889  4.869075            0           0           0
      8.958072  7.220273  4.930624            0           0           0
      6.392947  7.229252  4.938737            0           0           0
      4.999964  0.283003  4.879972            0           0           0
     10.970779  7.632230 10.764504            0           0           0

 Finite differences POTIM=  1.500000000000000E-002
  LATTYP: Found a hexagonal cell.
 ALAT       =    10.4600000381
 C/A-ratio  =     2.1032504704

  Lattice vectors:

 A1 = (   5.2300000190,  -9.0586257566,   0.0000000000)
 A2 = ( -10.4600000381,   0.0000000000,   0.0000000000)
 A3 = (   0.0000000000,   0.0000000000, -22.0000000000)

Analysis of symmetry for initial positions (statically):
 Subroutine PRICEL returns:
 Original cell was already a primitive cell.

[...]

The static configuration has the point symmetry C_1 .

Analysis of symmetry for dynamics (positions and initial velocities):
 Subroutine PRICEL returns:
 Original cell was already a primitive cell.

[...]

The dynamic configuration has the point symmetry C_1 .

Analysis of constrained symmetry for selective dynamics:
 Subroutine PRICEL returns:
 Original cell was already a primitive cell.

[...]

The constrained configuration has the point symmetry C_1 .

Analysis of structural, dynamic, and magnetic symmetry:
 Subroutine PRICEL returns:
 Original cell was already a primitive cell.

 Routine SETGRP: Setting up the symmetry group for a
 hexagonal supercell.

 Subroutine GETGRP returns: Found  1 space group operations
 (whereof  1 operations were pure point group operations)
 out of a pool of 24 trial point group operations.

The magnetic configuration has the point symmetry C_1 .

 Subroutine INISYM returns: Found  1 space group operations
 (whereof  1 operations are pure point group operations),
 and found     1 'primitive' translations

 KPOINTS: mesh auto

Automatic generation of k-mesh.
Space group operators:
 irot       det(A)        alpha          n_x          n_y          n_z        tau_x        tau_y        tau_z
    1     1.000000     0.000000     1.000000     0.000000     0.000000     0.000000     0.000000     0.000000

 Subroutine IBZKPT returns following result:

 Found      4 irreducible k-points:

 Following reciprocal coordinates:
            Coordinates               Weight
  0.000000  0.000000  0.000000      1.000000
  0.500000 -0.000000  0.000000      1.000000
  0.000000  0.500000  0.000000      1.000000
  0.500000  0.500000  0.000000      1.000000

 Following cartesian coordinates:
            Coordinates               Weight
  0.000000  0.000000  0.000000      1.000000
  0.047801 -0.027598  0.000000      1.000000
  0.000000  0.055196  0.000000      1.000000
  0.047801  0.027598  0.000000      1.000000

 TETIRR: Found     12 inequivalent tetrahedra from       24
 BZINTS: Fermi energy:  2.178714;778.000000 electrons
         Band energy:-613.224798;  BLOECHL correction: -0.205295