 vasp.5.4.4.18Apr17-6-g9f103f2a35 (build Nov 30 2020 22:55:02) complex

 executed on             LinuxIFC date 2023.09.11  09:05:06

 INCAR:
 POTCAR:    PAW_PBE Ni 02Aug2007
 POTCAR:    PAW_PBE Pt 04Feb2005
 POTCAR:    PAW_PBE H 15Jun2001

 POTCAR:    PAW_PBE Ni 02Aug2007
   VRHFIN =Ni:

   TITEL  = PAW_PBE Ni 02Aug2007
   POMASS =   58.690; ZVAL   =   10.000    mass and valenz
   ENMAX  =  269.532; ENMIN  =  202.149 eV

 POTCAR:    PAW_PBE Pt 04Feb2005
   VRHFIN =Pt: s1d9

   TITEL  = PAW_PBE Pt 04Feb2005
   POMASS =  195.080; ZVAL   =   10.000    mass and valenz
   ENMAX  =  230.283; ENMIN  =  172.712 eV

 POTCAR:    PAW_PBE H 15Jun2001
   VRHFIN =H: ultrasoft test

   TITEL  = PAW_PBE H 15Jun2001
   POMASS =    1.000; ZVAL   =    1.000    mass and valenz
   ENMAX  =  250.000; ENMIN  =  200.000 eV

 Optimization of the real space projectors (new method)

 maximal supplied QI-value         = 16.25
 optimisation between [QCUT,QGAM] = [ 11.86, 23.89] = [ 39.41,159.82] Ry
 Optimized for a Real-space Cutoff    1.33 Angstroem

   l    n(q)    QCUT    max X(q) W(low)/X(q) W(high)/X(q)  e(spline)
   2      9    11.864    60.317    0.21E-03    0.51E-03    0.25E-06
   2      9    11.864    55.921    0.21E-03    0.51E-03    0.26E-06
   0      9    11.864    51.690    0.22E-03    0.30E-04    0.17E-06
   0      9    11.864    30.015    0.20E-03    0.28E-04    0.15E-06
   1      9    11.864    18.849    0.76E-04    0.33E-03    0.17E-06
   1      9    11.864    14.624    0.60E-04    0.28E-03    0.15E-06
 Optimization of the real space projectors (new method)

[...]

   l    n(q)    QCUT    max X(q) W(low)/X(q) W(high)/X(q)  e(spline)
   2     10    11.920    66.195    0.79E-04    0.18E-03    0.24E-06
   2     10    11.920    64.643    0.81E-04    0.19E-03    0.24E-06
   0     11    11.920    95.520    0.28E-04    0.54E-04    0.18E-06
   0     11    11.920    63.403    0.27E-04    0.52E-04    0.17E-06
   1     10    11.920    19.961    0.18E-04    0.11E-03    0.23E-06
   1     10    11.920    13.289    0.25E-04    0.87E-04    0.19E-06
 Optimization of the real space projectors (new method)

 maximal supplied QI-value         = 34.20
 optimisation between [QCUT,QGAM] = [ 11.97, 23.94] = [ 40.13,160.53] Ry
 Optimized for a Real-space Cutoff    1.18 Angstroem

   l    n(q)    QCUT    max X(q) W(low)/X(q) W(high)/X(q)  e(spline)
   0      8    11.971    19.460    0.15E-03    0.31E-03    0.25E-06
   0      8    11.971    12.209    0.13E-03    0.29E-03    0.25E-06
   1      8    11.971     4.655    0.22E-03    0.24E-03    0.21E-06
  PAW_PBE Ni 02Aug2007                  :
  PAW_PBE Pt 04Feb2005                  :
  PAW_PBE H 15Jun2001                   :

 POSCAR: PtM\(2)
  positions in cartesian coordinates
 exchange correlation table for  LEXCH =        8
   RHO(1)=    0.500       N(1)  =     2000
   RHO(2)=  100.500       N(2)  =     4000

 ion  position               nearest neighbor table
   1  0.786  0.868  0.311-  39 2.43  55 2.43  20 2.43  65 2.63  72 2.63  73 2.63  29 2.64  56 2.64
                            57 2.64  40 2.64   2 2.64   3 2.64
   2  0.036  0.868  0.311-  39 2.43  52 2.43  49 2.43  65 2.63  67 2.63  77 2.63  56 2.64   3 2.64
                             1 2.64  33 2.64  23 2.64  41 2.64
   3  0.036  0.619  0.311-  12 2.43  60 2.43  39 2.43  77 2.63  73 2.63  66 2.63  40 2.64   2 2.64
                             1 2.64  41 2.64   9 2.64  15 2.64
   4  0.787  0.867  0.051-  21 2.44  62 2.44  19 2.45  42 2.64   5 2.64   6 2.64  59 2.64  58 2.65
                            30 2.66
   5  0.037  0.868  0.051-  54 2.44  35 2.44  62 2.45  24 2.64  43 2.64   4 2.64   6 2.64  58 2.65
                            34 2.65
   6  0.037  0.617  0.051-  32 2.44  54 2.44  21 2.45  18 2.63  43 2.63  10 2.63  42 2.64   4 2.64
                             5 2.64
   7  0.620  0.202  0.138-  28 2.44  30 2.44  58 2.45  55 2.46  63 2.46  64 2.46  19 2.64  62 2.64
                            37 2.64  45 2.64  22 2.64  11 2.64
   8  0.370  0.952  0.138-  16 2.44  24 2.44  59 2.45  53 2.46  50 2.46  26 2.46  38 2.64  37 2.64
                            35 2.64  25 2.64  19 2.64  44 2.64
   9  0.037  0.368  0.311-  46 2.43  61 2.43  12 2.43  68 2.63  66 2.63  71 2.63  15 2.64  13 2.64
                            33 2.64  47 2.64   3 2.64  40 2.64
  10  0.037  0.368  0.051-  38 2.44  32 2.44  31 2.45  18 2.63  16 2.63   6 2.63  34 2.63  42 2.64
                            48 2.64
  11  0.870  0.202  0.138-  48 2.44  58 2.44  34 2.45  49 2.46  63 2.46  61 2.46  35 2.64  31 2.64
                            22 2.64  38 2.64  62 2.64   7 2.64
  12  0.953  0.535  0.225-  40 2.43   3 2.43   9 2.43  32 2.45  31 2.46  21 2.46  61 2.64  51 2.64
                            39 2.64  46 2.64  20 2.64  60 2.64
  13  0.286  0.118  0.311-  26 2.43  46 2.43  53 2.43  74 2.63  71 2.63  69 2.63  15 2.64   9 2.64
                            23 2.64  29 2.64  57 2.64  33 2.64
  14  0.536  0.619  0.311-  51 2.43  50 2.43  36 2.43  75 2.62  76 2.62  80 2.63  57 2.64  40 2.64
                            23 2.64  41 2.64  47 2.64  27 2.64
  15  0.286  0.368  0.311-  46 2.43  64 2.43  60 2.43  79 2.63  66 2.63  74 2.63  13 2.64   9 2.64
                            29 2.64  27 2.64  41 2.64   3 2.64
  16  0.287  0.119  0.051-   8 2.44  37 2.44  38 2.45  30 2.63  10 2.63  34 2.63  18 2.64  59 2.64
                            24 2.64
  17  0.536  0.618  0.051-  22 2.44  25 2.44  44 2.45  28 2.64  43 2.64  24 2.64  48 2.64  59 2.65
                            42 2.65
  18  0.286  0.368  0.051-  37 2.44  45 2.44  32 2.45   6 2.63  43 2.63  10 2.63  16 2.64  30 2.64
                            28 2.64
  19  0.620  0.952  0.137-  59 2.44  30 2.44   4 2.45  55 2.46  20 2.46  53 2.46   7 2.64  62 2.64
                             8 2.64  21 2.64  25 2.64  37 2.64
  20  0.703  0.785  0.225-  57 2.43  40 2.43   1 2.43  21 2.46  19 2.46  25 2.46  50 2.64  53 2.64
                            51 2.64  55 2.64  39 2.64  12 2.64
  21  0.870  0.701  0.138-   4 2.44  42 2.44   6 2.45  39 2.46  20 2.46  12 2.46  31 2.64  32 2.64
                            54 2.64  25 2.64  19 2.64  62 2.64
  22  0.620  0.452  0.138-  17 2.44  28 2.44  48 2.45  63 2.46  51 2.46  36 2.46  25 2.64  11 2.64
                            31 2.64   7 2.64  45 2.64  44 2.64
  23  0.286  0.868  0.311-  26 2.43  52 2.43  50 2.43  75 2.62  69 2.63  67 2.63  33 2.64  13 2.64
                            14 2.64  57 2.64  41 2.64   2 2.64
  24  0.287  0.868  0.051-  44 2.44   8 2.44  35 2.45   5 2.64  34 2.64  17 2.64  59 2.64  16 2.64
                            43 2.65
  25  0.619  0.702  0.137-  59 2.44  17 2.44  42 2.45  20 2.46  50 2.46  51 2.46  22 2.64  31 2.64
                             8 2.64  44 2.64  21 2.64  19 2.64
  26  0.203  0.035  0.225-  23 2.43  13 2.43  33 2.43  38 2.46  35 2.46   8 2.46  53 2.64  46 2.64
                            50 2.64  52 2.64  49 2.64  61 2.64
  27  0.536  0.368  0.311-  64 2.43  63 2.43  36 2.43  76 2.62  79 2.63  78 2.63  41 2.64  47 2.64
                            56 2.64  14 2.64  29 2.64  15 2.64
  28  0.536  0.368  0.051-   7 2.44  22 2.44  45 2.45  43 2.64  30 2.64  17 2.64  18 2.64  58 2.64
                            48 2.65
  29  0.536  0.118  0.311-  55 2.43  53 2.43  64 2.43  78 2.63  72 2.63  74 2.63   1 2.64  57 2.64
                            56 2.64  13 2.64  15 2.64  27 2.64
  30  0.536  0.119  0.051-  19 2.44   7 2.44  37 2.44  16 2.63  18 2.64  28 2.64  59 2.64  58 2.65
                             4 2.66
  31  0.870  0.452  0.138-  42 2.44  48 2.44  10 2.45  51 2.46  12 2.46  61 2.46  21 2.64  32 2.64
                            11 2.64  38 2.64  25 2.64  22 2.64
  32  0.119  0.452  0.138-   6 2.44  10 2.44  18 2.45  46 2.45  12 2.45  60 2.46  21 2.64  38 2.64
                            31 2.64  37 2.64  54 2.64  45 2.64
  33  0.036  0.118  0.311-  26 2.43  61 2.43  49 2.43  70 2.63  67 2.63  71 2.63  23 2.64   9 2.64
                             2 2.64  47 2.64  13 2.64  56 2.64
  34  0.037  0.118  0.051-  35 2.44  38 2.44  11 2.45  16 2.63  10 2.63  24 2.64  48 2.64  58 2.64
                             5 2.65
  35  0.119  0.952  0.138-  34 2.44   5 2.44  24 2.45  49 2.46  26 2.46  52 2.46  11 2.64  44 2.64
                            38 2.64  62 2.64   8 2.64  54 2.64
  36  0.453  0.535  0.225-  14 2.43  41 2.43  27 2.43  45 2.45  44 2.46  22 2.46  50 2.64  51 2.64
                            52 2.64  60 2.64  63 2.64  64 2.64
  37  0.369  0.202  0.138-  18 2.44  16 2.44  30 2.44  46 2.45  64 2.46  53 2.46  45 2.64  38 2.64
                            32 2.64   7 2.64   8 2.64  19 2.64
  38  0.120  0.202  0.138-  10 2.44  34 2.44  16 2.45  46 2.45  26 2.46  61 2.46  32 2.64  37 2.64
                             8 2.64  11 2.64  31 2.64  35 2.64
  39  0.953  0.785  0.225-   1 2.43   2 2.43   3 2.43  54 2.46  21 2.46  62 2.46  55 2.64  20 2.64
                            12 2.64  49 2.64  60 2.64  52 2.64
  40  0.786  0.619  0.311-  12 2.43  51 2.43  20 2.43  80 2.62  73 2.63  68 2.63   1 2.64  57 2.64
                             3 2.64  14 2.64  47 2.64   9 2.64
  41  0.286  0.618  0.311-  60 2.43  36 2.43  52 2.43  75 2.62  79 2.63  77 2.63  27 2.64  14 2.64
                             3 2.64  23 2.64  15 2.64   2 2.64
  42  0.787  0.618  0.051-  31 2.44  21 2.44  25 2.45  48 2.63  10 2.64   4 2.64   6 2.64  59 2.65
                            17 2.65
  43  0.287  0.617  0.051-  45 2.44  44 2.44  54 2.45   6 2.63  18 2.63  28 2.64   5 2.64  17 2.64
                            24 2.65
  44  0.369  0.702  0.138-  24 2.44  43 2.44  17 2.45  36 2.46  52 2.46  50 2.46  54 2.64  35 2.64
                            45 2.64  25 2.64   8 2.64  22 2.64
  45  0.370  0.452  0.138-  43 2.44  18 2.44  28 2.45  36 2.45  64 2.46  60 2.46  37 2.64  44 2.64
                             7 2.64  32 2.64  54 2.64  22 2.64
  46  0.203  0.285  0.225-  15 2.43   9 2.43  13 2.43  32 2.45  38 2.45  37 2.45  26 2.64  53 2.64
                            64 2.64  61 2.64  60 2.64  12 2.64
  47  0.786  0.368  0.311-  61 2.43  63 2.43  51 2.43  76 2.62  68 2.63  70 2.63  33 2.64   9 2.64
                            27 2.64  40 2.64  14 2.64  56 2.64
  48  0.787  0.368  0.051-  11 2.44  31 2.44  22 2.45  42 2.63  10 2.64  34 2.64  58 2.64  17 2.64
                            28 2.65
  49  0.953  0.035  0.225-  56 2.43  33 2.43   2 2.43  35 2.46  11 2.46  62 2.46  61 2.64  63 2.64
                            52 2.64  26 2.64  39 2.64  55 2.64
  50  0.453  0.785  0.225-  14 2.43  23 2.43  57 2.43   8 2.46  44 2.46  25 2.46  20 2.64  36 2.64
                            53 2.64  52 2.64  51 2.64  26 2.64
  51  0.703  0.535  0.225-  14 2.43  40 2.43  47 2.43  31 2.46  22 2.46  25 2.46  20 2.64  36 2.64
                            50 2.64  63 2.64  12 2.64  61 2.64
  52  0.203  0.785  0.225-  23 2.43  41 2.43   2 2.43  54 2.46  44 2.46  35 2.46  36 2.64  50 2.64
                            26 2.64  60 2.64  49 2.64  39 2.64
  53  0.453  0.035  0.225-  57 2.43  29 2.43  13 2.43  37 2.46   8 2.46  19 2.46  26 2.64  20 2.64
                            55 2.64  50 2.64  46 2.64  64 2.64
[...]
      1.017804  1.081944  1.119986            0           0           0
      6.287244  8.705513  3.027682            0           0           0
      7.608136  4.894778  4.953216            0           0           0
      4.966895  1.846462  3.031031            0           0           0
      2.328793  1.845637  3.032086            0           0           0
     14.205367  7.180202  4.954426            0           0           0
     11.567704  5.656543  6.846573            0           0           0
      6.287640  5.653441  6.846964            0           0           0
     11.574645  5.647310  1.118180            0           0           0
      6.286892  5.647178  1.120360            0           0           0
      7.604774  6.418020  3.026047            0           0           0
      6.287058  4.130295  3.030444            0           0           0
      3.647925  2.606144  4.956668            0           0           0
     10.248323  3.368113  6.846329            0           0           0
     10.256619  3.366846  1.119299            0           0           0
     10.247710  0.321575  4.954028            0           0           0
      8.927175  7.179743  4.952739            0           0           0
     10.246879  4.894259  4.953744            0           0           0
      6.288088  7.179915  4.955754            0           0           0
      4.966519  0.319786  4.954410            0           0           0
      4.966517  6.417103  3.029832            0           0           0
      7.605160  0.320808  4.952498            0           0           0
      8.925756  1.080424  6.845815            0           0           0
     10.248104  7.941615  6.846534            0           0           0
      8.933630  1.081954  1.118451            0           0           0
     10.249997  7.940401  1.115771            0           0           0
      4.967880  4.893131  4.958052            0           0           0
[...]
     11.568149  4.128788  8.986161            0           0           0
      8.927313  8.702094  8.988279            0           0           0
     10.247086  1.841527  8.987433            0           0           0
      2.327688  1.841948  8.989938            0           0           0
     11.567886  8.701471  8.989461            0           0           0
     12.887379  6.415997  8.988919            0           0           0
      4.966251  1.842025  8.989750            0           0           0
      7.606954  6.414563  8.980741            0           0           0
      8.927202  4.128469  8.978563            0           0           0
      4.966889  6.415567  8.987222            0           0           0
      7.607248  1.841724  8.985884            0           0           0
      6.286572  4.128393  8.984070            0           0           0
     10.248042  6.415199  8.984047            0           0           0
      7.922341  5.069638 12.057719     0.617904    0.343411    0.022812
      8.580078  5.435531 12.083784    -0.617642   -0.342996   -0.024809

[...]

   5 f  =    4.501622 THz    28.284525 2PiTHz  150.157941 cm-1    18.617219 meV
             X         Y         Z           dx          dy          dz
     12.886240  7.941955  6.846714            0           0           0
      4.965283  7.942084  6.846822            0           0           0
      3.646517  5.656328  6.848048            0           0           0
     12.893920  7.930719  1.117496            0           0           0
      4.973660  7.934571  1.119596            0           0           0
      3.654460  5.644395  1.121176            0           0           0
      7.606901  1.843612  3.026040            0           0           0
      8.927632  8.704650  3.025391            0           0           0
      2.328730  3.365418  6.849130            0           0           0
      2.333745  3.364610  1.122270            0           0           0
     10.249248  1.845314  3.027106            0           0           0
     12.886267  4.892863  4.958193            0           0           0
      3.647757  1.082445  6.848766            0           0           0
      8.928604  5.656763  6.844409            0           0           0
      4.964662  3.365249  6.847928            0           0           0
      3.651856  1.084183  1.119879            0           0           0
      8.925611  5.650181  1.117095            0           0           0
      4.966979  3.368872  1.122004            0           0           0
     11.568378  8.703821  3.021896            0           0           0
     11.564934  7.179992  4.952356            0           0           0
     12.887203  6.415170  3.027520            0           0           0
      8.927828  4.130137  3.025448            0           0           0
      7.607899  7.942136  6.846976            0           0           0
      7.609859  7.938730  1.118362            0           0           0
     10.245960  6.416801  3.021468            0           0           0
      2.328495  0.320699  4.956489            0           0           0
      7.607271  3.368958  6.844666            0           0           0
      7.607570  3.366298  1.119211            0           0           0
      6.287106  1.080130  6.847043            0           0           0
      6.284510  1.085538  1.117767            0           0           0
     11.568186  4.131507  3.030214            0           0           0
      3.646484  4.130871  3.034459            0           0           0
      1.007084  1.081401  6.847802            0           0           0
      1.017804  1.081944  1.119986            0           0           0
      6.287244  8.705513  3.027682            0           0           0
      7.608136  4.894778  4.953216            0           0           0
      4.966895  1.846462  3.031031            0           0           0
      2.328793  1.845637  3.032086            0           0           0
     14.205367  7.180202  4.954426            0           0           0
     11.567704  5.656543  6.846573            0           0           0
      6.287640  5.653441  6.846964            0           0           0
     11.574645  5.647310  1.118180            0           0           0
      6.286892  5.647178  1.120360            0           0           0
      7.604774  6.418020  3.026047            0           0           0
      6.287058  4.130295  3.030444            0           0           0
      3.647925  2.606144  4.956668            0           0           0
     10.248323  3.368113  6.846329            0           0           0
     10.256619  3.366846  1.119299            0           0           0
     10.247710  0.321575  4.954028            0           0           0
      8.927175  7.179743  4.952739            0           0           0
     10.246879  4.894259  4.953744            0           0           0
      6.288088  7.179915  4.955754            0           0           0
      4.966519  0.319786  4.954410            0           0           0
      4.966517  6.417103  3.029832            0           0           0
      7.605160  0.320808  4.952498            0           0           0
      8.925756  1.080424  6.845815            0           0           0
     10.248104  7.941615  6.846534            0           0           0
      8.933630  1.081954  1.118451            0           0           0
     10.249997  7.940401  1.115771            0           0           0
      4.967880  4.893131  4.958052            0           0           0
[...]
     11.568149  4.128788  8.986161            0           0           0
      8.927313  8.702094  8.988279            0           0           0
     10.247086  1.841527  8.987433            0           0           0
      2.327688  1.841948  8.989938            0           0           0
     11.567886  8.701471  8.989461            0           0           0
     12.887379  6.415997  8.988919            0           0           0
      4.966251  1.842025  8.989750            0           0           0
      7.606954  6.414563  8.980741            0           0           0
      8.927202  4.128469  8.978563            0           0           0
      4.966889  6.415567  8.987222            0           0           0
      7.607248  1.841724  8.985884            0           0           0
      6.286572  4.128393  8.984070            0           0           0
     10.248042  6.415199  8.984047            0           0           0
      7.922341  5.069638 12.057719     0.156204    0.000980    0.964448
      8.580078  5.435531 12.083784     0.114037    0.132340    0.122154

   6 f/i=    2.559527 THz    16.081984 2PiTHz   85.376638 cm-1    10.585358 meV
             X         Y         Z           dx          dy          dz
     12.886240  7.941955  6.846714            0           0           0
      4.965283  7.942084  6.846822            0           0           0
      3.646517  5.656328  6.848048            0           0           0
     12.893920  7.930719  1.117496            0           0           0
      4.973660  7.934571  1.119596            0           0           0
      3.654460  5.644395  1.121176            0           0           0
      7.606901  1.843612  3.026040            0           0           0
      8.927632  8.704650  3.025391            0           0           0
      2.328730  3.365418  6.849130            0           0           0
      2.333745  3.364610  1.122270            0           0           0
     10.249248  1.845314  3.027106            0           0           0
     12.886267  4.892863  4.958193            0           0           0
      3.647757  1.082445  6.848766            0           0           0
      8.928604  5.656763  6.844409            0           0           0
      4.964662  3.365249  6.847928            0           0           0
      3.651856  1.084183  1.119879            0           0           0
      8.925611  5.650181  1.117095            0           0           0
      4.966979  3.368872  1.122004            0           0           0
     11.568378  8.703821  3.021896            0           0           0
     11.564934  7.179992  4.952356            0           0           0
     12.887203  6.415170  3.027520            0           0           0
      8.927828  4.130137  3.025448            0           0           0
      7.607899  7.942136  6.846976            0           0           0
      7.609859  7.938730  1.118362            0           0           0
     10.245960  6.416801  3.021468            0           0           0
      2.328495  0.320699  4.956489            0           0           0
      7.607271  3.368958  6.844666            0           0           0
      7.607570  3.366298  1.119211            0           0           0
      6.287106  1.080130  6.847043            0           0           0
      6.284510  1.085538  1.117767            0           0           0
     11.568186  4.131507  3.030214            0           0           0
      3.646484  4.130871  3.034459            0           0           0
      1.007084  1.081401  6.847802            0           0           0
      1.017804  1.081944  1.119986            0           0           0
      6.287244  8.705513  3.027682            0           0           0
      7.608136  4.894778  4.953216            0           0           0
      4.966895  1.846462  3.031031            0           0           0
      2.328793  1.845637  3.032086            0           0           0
     14.205367  7.180202  4.954426            0           0           0
     11.567704  5.656543  6.846573            0           0           0
      6.287640  5.653441  6.846964            0           0           0
     11.574645  5.647310  1.118180            0           0           0
      6.286892  5.647178  1.120360            0           0           0
      7.604774  6.418020  3.026047            0           0           0
      6.287058  4.130295  3.030444            0           0           0
      3.647925  2.606144  4.956668            0           0           0
     10.248323  3.368113  6.846329            0           0           0
     10.256619  3.366846  1.119299            0           0           0
     10.247710  0.321575  4.954028            0           0           0
      8.927175  7.179743  4.952739            0           0           0
     10.246879  4.894259  4.953744            0           0           0
      6.288088  7.179915  4.955754            0           0           0
      4.966519  0.319786  4.954410            0           0           0
      4.966517  6.417103  3.029832            0           0           0
      7.605160  0.320808  4.952498            0           0           0
      8.925756  1.080424  6.845815            0           0           0
     10.248104  7.941615  6.846534            0           0           0
      8.933630  1.081954  1.118451            0           0           0
     10.249997  7.940401  1.115771            0           0           0
      4.967880  4.893131  4.958052            0           0           0
[...]
     11.568149  4.128788  8.986161            0           0           0
      8.927313  8.702094  8.988279            0           0           0
     10.247086  1.841527  8.987433            0           0           0
      2.327688  1.841948  8.989938            0           0           0
     11.567886  8.701471  8.989461            0           0           0
     12.887379  6.415997  8.988919            0           0           0
      4.966251  1.842025  8.989750            0           0           0
      7.606954  6.414563  8.980741            0           0           0
      8.927202  4.128469  8.978563            0           0           0
      4.966889  6.415567  8.987222            0           0           0
      7.607248  1.841724  8.985884            0           0           0
      6.286572  4.128393  8.984070            0           0           0
     10.248042  6.415199  8.984047            0           0           0
      7.922341  5.069638 12.057719     0.355959   -0.616129   -0.015375
      8.580078  5.435531 12.083784     0.350813   -0.608575    0.002974

 Finite differences POTIM=  1.500000000000000E-002
  LATTYP: Found a hexagonal cell.
 ALAT       =    10.5600004196
 C/A-ratio  =     2.0833332505

  Lattice vectors:

 A1 = (   5.2800002098,  -9.1452286274,   0.0000000000)
 A2 = ( -10.5600004196,   0.0000000000,   0.0000000000)
 A3 = (   0.0000000000,   0.0000000000, -22.0000000000)

Analysis of symmetry for initial positions (statically):
 Subroutine PRICEL returns:
 Original cell was already a primitive cell.

[...]

The static configuration has the point symmetry C_1 .

Analysis of symmetry for dynamics (positions and initial velocities):
 Subroutine PRICEL returns:
 Original cell was already a primitive cell.

[...]

The dynamic configuration has the point symmetry C_1 .

Analysis of constrained symmetry for selective dynamics:
 Subroutine PRICEL returns:
 Original cell was already a primitive cell.

[...]

The constrained configuration has the point symmetry C_1 .

Analysis of structural, dynamic, and magnetic symmetry:
 Subroutine PRICEL returns:
 Original cell was already a primitive cell.

 Routine SETGRP: Setting up the symmetry group for a
 hexagonal supercell.

 Subroutine GETGRP returns: Found  1 space group operations
 (whereof  1 operations were pure point group operations)
 out of a pool of 24 trial point group operations.

The magnetic configuration has the point symmetry C_1 .

 Subroutine INISYM returns: Found  1 space group operations
 (whereof  1 operations are pure point group operations),
 and found     1 'primitive' translations

 KPOINTS: mesh auto

Automatic generation of k-mesh.
Space group operators:
 irot       det(A)        alpha          n_x          n_y          n_z        tau_x        tau_y        tau_z
    1     1.000000     0.000001     1.000000     0.000000     0.000000     0.000000     0.000000     0.000000

 Subroutine IBZKPT returns following result:

 Found      4 irreducible k-points:

 Following reciprocal coordinates:
            Coordinates               Weight
  0.000000  0.000000  0.000000      1.000000
  0.500000  0.000000  0.000000      1.000000
  0.000000  0.500000  0.000000      1.000000
  0.500000  0.500000  0.000000      1.000000

 Following cartesian coordinates:
            Coordinates               Weight
  0.000000  0.000000  0.000000      1.000000
  0.047348 -0.027337  0.000000      1.000000
  0.000000  0.054673  0.000000      1.000000
  0.047348  0.027337  0.000000      1.000000

 TETIRR: Found     12 inequivalent tetrahedra from       24
 BZINTS: Fermi energy:  1.540273;802.000000 electrons
         Band energy:-648.053569;  BLOECHL correction: -0.245482