 vasp.5.4.4.18Apr17-6-g9f103f2a35 (build Oct 25 2019 11:13:22) complex

 executed on             LinuxIFC date 2022.02.11  21:15:49

 INCAR:
 POTCAR:    PAW_PBE Pt 04Feb2005
 POTCAR:    PAW_PBE Fe 06Sep2000
 POTCAR:    PAW_PBE Co 02Aug2007
 POTCAR:    PAW_PBE Ni 02Aug2007
 POTCAR:    PAW_PBE H 15Jun2001
 POTCAR:    PAW_PBE Pt 04Feb2005
   VRHFIN =Pt: s1d9

   TITEL  = PAW_PBE Pt 04Feb2005
   POMASS =  195.080; ZVAL   =   10.000    mass and valenz
   ENMAX  =  230.283; ENMIN  =  172.712 eV

 POTCAR:    PAW_PBE Fe 06Sep2000
   VRHFIN =Fe:  d7 s1

   TITEL  = PAW_PBE Fe 06Sep2000
   POMASS =   55.847; ZVAL   =    8.000    mass and valenz
   ENMAX  =  267.882; ENMIN  =  200.911 eV

 POTCAR:    PAW_PBE Co 02Aug2007
   VRHFIN =Co: d8 s1

   TITEL  = PAW_PBE Co 02Aug2007
   POMASS =   58.933; ZVAL   =    9.000    mass and valenz
   ENMAX  =  267.968; ENMIN  =  200.976 eV

 POTCAR:    PAW_PBE Ni 02Aug2007
   VRHFIN =Ni:

   TITEL  = PAW_PBE Ni 02Aug2007
   POMASS =   58.690; ZVAL   =   10.000    mass and valenz
   ENMAX  =  269.532; ENMIN  =  202.149 eV

 POTCAR:    PAW_PBE H 15Jun2001
   VRHFIN =H: ultrasoft test

   TITEL  = PAW_PBE H 15Jun2001
   POMASS =    1.000; ZVAL   =    1.000    mass and valenz
   ENMAX  =  250.000; ENMIN  =  200.000 eV

 Optimization of the real space projectors (new method)

 maximal supplied QI-value         = 14.36
 optimisation between [QCUT,QGAM] = [ 11.92, 23.98] = [ 39.79,161.09] Ry
 Optimized for a Real-space Cutoff    1.49 Angstroem

   l    n(q)    QCUT    max X(q) W(low)/X(q) W(high)/X(q)  e(spline)
   2     10    11.920    66.195    0.79E-04    0.18E-03    0.24E-06
   2     10    11.920    64.643    0.81E-04    0.19E-03    0.24E-06
   0     11    11.920    95.520    0.28E-04    0.54E-04    0.18E-06
   0     11    11.920    63.403    0.27E-04    0.52E-04    0.17E-06
   1     10    11.920    19.961    0.18E-04    0.11E-03    0.23E-06
   1     10    11.920    13.289    0.25E-04    0.87E-04    0.19E-06
 Optimization of the real space projectors (new method)

[...]

   l    n(q)    QCUT    max X(q) W(low)/X(q) W(high)/X(q)  e(spline)
   2      9    11.864    60.317    0.21E-03    0.51E-03    0.25E-06
   2      9    11.864    55.921    0.21E-03    0.51E-03    0.26E-06
   0      9    11.864    51.690    0.22E-03    0.30E-04    0.17E-06
   0      9    11.864    30.015    0.20E-03    0.28E-04    0.15E-06
   1      9    11.864    18.849    0.76E-04    0.33E-03    0.17E-06
   1      9    11.864    14.624    0.60E-04    0.28E-03    0.15E-06
 Optimization of the real space projectors (new method)

 maximal supplied QI-value         = 34.20
 optimisation between [QCUT,QGAM] = [ 11.97, 23.94] = [ 40.13,160.53] Ry
 Optimized for a Real-space Cutoff    1.18 Angstroem

   l    n(q)    QCUT    max X(q) W(low)/X(q) W(high)/X(q)  e(spline)
   0      8    11.971    19.460    0.15E-03    0.31E-03    0.25E-06
   0      8    11.971    12.209    0.13E-03    0.29E-03    0.25E-06
   1      8    11.971     4.655    0.22E-03    0.24E-03    0.21E-06
  PAW_PBE Pt 04Feb2005                  :
  PAW_PBE Fe 06Sep2000                  :
  PAW_PBE Co 02Aug2007                  :
  PAW_PBE Ni 02Aug2007                  :
  PAW_PBE H 15Jun2001                   :

 POSCAR: 11.26
  positions in direct lattice
  velocities in cartesian coordinates
 exchange correlation table for  LEXCH =        8
   RHO(1)=    0.500       N(1)  =     2000
   RHO(2)=  100.500       N(2)  =     4000

 ion  position               nearest neighbor table
   1  0.783  0.870  0.304-  52 2.53  59 2.56  28 2.70  19 2.74   2 2.76  61 2.77   4 2.79  29 2.79
                            60 2.81  33 2.81  11 2.86  12 2.86
   2  0.029  0.871  0.301-  79 2.51  77 2.53   1 2.76  30 2.77  33 2.80   4 2.80  28 2.81  60 2.85
                             6 2.86  16 2.95  22 2.95
   3  0.281  0.360  0.311-  64 2.53  68 2.61  31 2.64   5 2.73  43 2.74  13 2.77  39 2.78  25 2.79
                            30 2.79  19 2.84  33 2.85  18 2.92
   4  0.866  0.958  0.406-  60 2.60  17 2.75   9 2.76  11 2.78   1 2.79   2 2.80  12 2.83  16 2.87
                             6 2.87
   5  0.111  0.457  0.410-  39 2.62  33 2.69  12 2.73   3 2.73  16 2.73   7 2.78  10 2.79  25 2.88
                            13 2.89
   6  0.125  0.952  0.405-  55 2.68  22 2.73  14 2.80  10 2.81   9 2.83   8 2.83   2 2.86   4 2.87
                            16 2.90
   7  0.869  0.447  0.411-  39 2.59  75 2.66  29 2.73   9 2.74  15 2.75   5 2.78  10 2.80  27 2.85
                            12 2.89
   8  0.375  0.954  0.417-  55 2.51  43 2.60  61 2.69  13 2.76  11 2.77  27 2.77  10 2.82   6 2.83
                            14 2.88
   9  0.871  0.202  0.406-  75 2.58  60 2.65   7 2.74  17 2.76   4 2.76  22 2.79  15 2.82   6 2.83
                            10 2.84
  10  0.123  0.203  0.411-  43 2.63  39 2.64  22 2.74  13 2.78   5 2.79   7 2.80   6 2.81   8 2.82
                             9 2.84
  11  0.625  0.947  0.413-  81 1.71  61 2.64  19 2.72  12 2.75  27 2.76   8 2.77   4 2.78  13 2.85
                             1 2.86  17 2.88
  12  0.871  0.703  0.411-  29 2.68  33 2.71  16 2.73   5 2.73  11 2.75  27 2.82   4 2.83   1 2.86
                             7 2.89
  13  0.371  0.202  0.415-  43 2.64   8 2.76  19 2.77   3 2.77  10 2.78  25 2.79  17 2.85  11 2.85
                             5 2.89
  14  0.372  0.700  0.404-  44 2.52  55 2.59  15 2.77  25 2.80   6 2.80  27 2.81  30 2.84  16 2.88
                             8 2.88
  15  0.620  0.455  0.408-  75 2.62  44 2.62   7 2.75  14 2.77  18 2.77  17 2.79  27 2.80  25 2.81
                             9 2.82
  16  0.117  0.698  0.411-  33 2.71  30 2.72  12 2.73   5 2.73  25 2.82   4 2.87  14 2.88   6 2.90
                             2 2.95
  17  0.624  0.205  0.411-  81 1.67  60 2.61   4 2.75  19 2.76   9 2.76  18 2.76  15 2.79  25 2.79
                            13 2.85  11 2.88
  18  0.539  0.365  0.307-  67 2.51  68 2.60  26 2.68  60 2.69  25 2.76  17 2.76  15 2.77  75 2.79
                            19 2.85   3 2.92  30 2.94  44 3.01
  19  0.538  0.112  0.313-  68 2.49  80 2.53  59 2.55  43 2.69  61 2.70  11 2.72  60 2.74   1 2.74
                            17 2.76  13 2.77   3 2.84  18 2.85
  20  0.538  0.117  0.053-  47 2.51  37 2.56  51 2.64  63 2.67  50 2.71  62 2.73  34 2.74  46 2.79
                            45 2.87
  21  0.106  0.420  0.118-  40 2.50  36 2.51  50 2.54  70 2.60  47 2.66  42 2.66  64 2.70  69 2.71
                            31 2.79  53 3.03
  22  0.049  0.123  0.306-  77 2.51  65 2.52  58 2.54  39 2.69   6 2.73  10 2.74  43 2.76   9 2.79
                            75 2.86  55 2.92   2 2.95  60 3.07  31 3.27
  23  0.025  0.110  0.043-  40 2.54  41 2.55  70 2.56  35 2.67  62 2.71  24 2.74  56 2.77  76 2.83
                            45 2.93
  24  0.117  0.952  0.146-  79 2.49  35 2.51  70 2.62  77 2.62  58 2.62  56 2.64  48 2.66  73 2.70
                            66 2.72  23 2.74  41 2.84  38 2.93
  25  0.372  0.450  0.409-  18 2.76  30 2.78   3 2.79  17 2.79  13 2.79  14 2.80  15 2.81  16 2.82
                             5 2.88
  26  0.451  0.562  0.222-  73 2.52  74 2.53  54 2.55  79 2.59  30 2.62  44 2.62  32 2.67  18 2.68
                            78 2.68  67 2.98  48 2.99
  27  0.620  0.704  0.413-  44 2.55  61 2.65  11 2.76   8 2.77  29 2.79  15 2.80  14 2.81  12 2.82
                             7 2.85
  28  0.949  0.756  0.207-  48 2.55  53 2.56  66 2.63  42 2.65  33 2.65   1 2.70  64 2.70   2 2.81
                            52 2.85  36 2.90  59 3.15
  29  0.797  0.616  0.313-  42 2.58  52 2.59  32 2.62  39 2.67  12 2.68  33 2.68   7 2.73  44 2.79
                             1 2.79  27 2.79  75 2.85  61 2.89
  30  0.266  0.616  0.306-  79 2.51  33 2.58  26 2.62  64 2.70  16 2.72   2 2.77  25 2.78   3 2.79
                            14 2.84  18 2.94  44 3.19  55 3.29
  31  0.191  0.261  0.224-  70 2.48  58 2.52  47 2.57  39 2.61  43 2.61   3 2.64  65 2.68  64 2.74
                            21 2.79  80 2.81  42 2.83  68 3.00  22 3.27
  32  0.700  0.539  0.222-  69 2.53  54 2.60  44 2.62  29 2.62  75 2.63  57 2.63  65 2.66  26 2.67
                            52 2.68  42 2.70  67 2.73  78 2.76
  33  0.034  0.620  0.311-  64 2.55  30 2.58  28 2.65  29 2.68   5 2.69  16 2.71  12 2.71  42 2.73
                             2 2.80   1 2.81  39 2.82   3 2.85
  34  0.791  0.885  0.059-  51 2.33  66 2.39  53 2.60  62 2.68  35 2.73  20 2.74  36 2.75  63 2.89

  35  0.043  0.865  0.057-  36 2.40  24 2.51  66 2.52  23 2.67  34 2.73  48 2.84  72 2.85  56 2.85
                            62 3.00
  36  0.042  0.658  0.084-  48 2.40  35 2.40  53 2.47  21 2.51  72 2.75  34 2.75  28 2.90
  37  0.624  0.211  0.138-  59 2.38  62 2.40  67 2.45  46 2.46  68 2.48  74 2.55  20 2.56  66 2.66
                            41 2.68  54 2.71  47 2.99  51 3.04
  38  0.377  0.954  0.136-  63 2.36  45 2.39  56 2.40  58 2.42  80 2.45  73 2.50  78 2.54  57 2.61
                            47 2.77  70 2.82  51 2.87  24 2.93
  39  0.028  0.372  0.317-   7 2.59  65 2.61  31 2.61   5 2.62  42 2.64  10 2.64  29 2.67  22 2.69
                            75 2.74   3 2.78  33 2.82  43 3.01
  40  0.983  0.354  0.043-  69 2.31  76 2.42  21 2.50  23 2.54  70 2.62  71 2.63  45 3.12
  41  0.866  0.206  0.135-  77 2.42  76 2.43  67 2.44  62 2.46  65 2.52  23 2.55  69 2.55  66 2.57
                            70 2.65  37 2.68  24 2.84  54 2.87
  42  0.948  0.521  0.217-  53 2.52  69 2.54  64 2.55  65 2.57  29 2.58  39 2.64  28 2.65  21 2.66
                            32 2.70  33 2.73  31 2.83  52 2.97
  43  0.300  0.108  0.320-  58 2.48  55 2.49   8 2.60  31 2.61  80 2.61  10 2.63  13 2.64  61 2.65
                            19 2.69   3 2.74  22 2.76  39 3.01
  44  0.541  0.631  0.318-  14 2.52  78 2.55  27 2.55  32 2.62  15 2.62  26 2.62  55 2.64  61 2.67
                            29 2.79  75 2.86  18 3.01  30 3.19
  45  0.285  0.111  0.053-  38 2.39  70 2.47  47 2.48  56 2.53  63 2.71  20 2.87  23 2.93  40 3.12

  46  0.535  0.367  0.050-  54 2.40  50 2.43  37 2.46  74 2.47  76 2.54  62 2.67  72 2.72  20 2.79
                            49 2.82
  47  0.359  0.209  0.135-  50 2.40  68 2.41  45 2.48  20 2.51  31 2.57  80 2.60  21 2.66  74 2.74
                            38 2.77  70 2.92  37 2.99
  48  0.180  0.691  0.158-  79 2.40  36 2.40  72 2.41  64 2.41  73 2.49  28 2.55  24 2.66  74 2.70
                            35 2.84  26 2.99
  49  0.521  0.625  0.052-  54 2.35  73 2.38  71 2.44  57 2.44  72 2.53  56 2.78  46 2.82  76 2.90
                            63 2.95
  50  0.315  0.374  0.056-  74 2.35  47 2.40  46 2.43  21 2.54  72 2.65  20 2.71
  51  0.642  0.932  0.141-  34 2.33  52 2.34  63 2.45  59 2.53  53 2.55  80 2.56  20 2.64  57 2.67
                            66 2.78  38 2.87  37 3.04
  52  0.683  0.786  0.223-  51 2.34  78 2.41  57 2.48  61 2.52   1 2.53  53 2.55  29 2.59  80 2.65
                            32 2.68  28 2.85  42 2.97  59 3.12
  53  0.830  0.681  0.129-  57 2.36  71 2.40  36 2.47  42 2.52  52 2.55  51 2.55  28 2.56  69 2.59
                            34 2.60  21 3.03
  54  0.609  0.460  0.130-  49 2.35  46 2.40  76 2.41  26 2.55  74 2.58  32 2.60  67 2.61  69 2.68
[...]

 FORCES acting on ions
    electron-ion (+dipol)            ewald-force                    non-local-force                 convergence-correction
   -.776E+02 0.593E+02 -.120E+04   0.770E+02 -.590E+02 0.120E+04   0.529E+00 -.347E+00 0.236E+01   0.751E-01 0.113E-01 0.155E-01
   0.345E+02 0.623E+02 -.112E+04   -.346E+02 -.622E+02 0.112E+04   0.210E+00 -.380E-01 0.204E+01   -.467E-01 0.251E-01 -.109E-01
   0.862E+01 -.554E+02 -.129E+04   -.989E+01 0.553E+02 0.129E+04   0.131E+01 0.167E+00 0.205E+01   -.242E-01 -.749E-03 -.309E-01
   -.214E+02 0.417E+02 -.261E+04   0.224E+02 -.413E+02 0.261E+04   -.110E+01 -.401E+00 0.223E+01   0.825E-02 0.284E-01 -.833E-02
   -.270E+02 -.172E+02 -.264E+04   0.262E+02 0.178E+02 0.264E+04   0.826E+00 -.581E+00 0.242E+01   -.126E-01 0.163E-01 0.162E-01
   0.525E+02 0.174E+02 -.259E+04   -.520E+02 -.178E+02 0.259E+04   -.471E+00 0.378E+00 0.185E+01   -.492E-01 0.371E-01 0.346E-01
   -.244E+02 -.153E+02 -.270E+04   0.241E+02 0.145E+02 0.270E+04   0.324E+00 0.787E+00 0.271E+01   0.101E-01 -.208E-01 0.299E-01
   0.332E+02 -.665E+01 -.279E+04   -.333E+02 0.672E+01 0.279E+04   0.449E-01 -.108E+00 0.349E+01   -.468E-02 0.406E-01 0.782E-01
   -.163E+02 0.444E+02 -.266E+04   0.161E+02 -.440E+02 0.266E+04   0.152E+00 -.286E+00 0.232E+01   -.227E-01 -.325E-01 0.153E-03
   0.234E+02 -.737E+01 -.268E+04   -.226E+02 0.765E+01 0.268E+04   -.719E+00 -.252E+00 0.262E+01   -.225E-01 -.260E-02 0.188E-01
   -.456E+02 0.143E+02 -.269E+04   0.453E+02 -.147E+02 0.269E+04   0.306E+00 0.416E+00 0.701E+00   0.479E-01 0.141E-01 0.521E-01
   -.337E+02 -.830E+01 -.265E+04   0.341E+02 0.759E+01 0.265E+04   -.400E+00 0.717E+00 0.218E+01   0.266E-01 0.119E-01 0.209E-01
   -.202E+02 -.496E+02 -.270E+04   0.187E+02 0.498E+02 0.270E+04   0.150E+01 -.210E+00 0.259E+01   -.146E-01 -.311E-02 0.235E-01
   0.694E+02 0.357E+02 -.263E+04   -.688E+02 -.355E+02 0.263E+04   -.603E+00 -.281E+00 0.256E+01   -.252E-01 -.310E-02 0.664E-01
   0.379E+02 -.132E+02 -.267E+04   -.376E+02 0.137E+02 0.267E+04   -.370E+00 -.466E+00 0.249E+01   0.134E-01 -.483E-01 0.368E-01
   -.153E+02 -.136E+02 -.262E+04   0.148E+02 0.129E+02 0.262E+04   0.602E+00 0.637E+00 0.211E+01   -.319E-01 0.219E-01 0.183E-01
   -.508E+00 -.291E+02 -.269E+04   0.548E+00 0.286E+02 0.269E+04   -.117E+00 0.563E+00 0.628E+00   0.433E-01 -.396E-01 0.720E-02
   0.741E+02 -.815E+02 -.128E+04   -.730E+02 0.807E+02 0.128E+04   -.109E+01 0.968E+00 0.173E+01   0.174E-01 -.519E-01 -.103E-01
   -.148E+02 -.292E+02 -.140E+04   0.143E+02 0.284E+02 0.140E+04   0.509E+00 0.799E+00 0.302E+01   0.380E-01 0.258E-01 0.896E-02
   0.510E+02 0.209E+02 0.274E+04   -.509E+02 -.211E+02 -.274E+04   -.946E-01 0.675E-01 -.269E+01   -.130E-01 0.138E-01 -.719E-01
   -.960E+02 -.110E+03 0.185E+04   0.958E+02 0.110E+03 -.185E+04   0.200E+00 -.232E+00 0.133E+01   0.177E-01 -.608E-02 -.118E+00
   -.336E+01 0.400E+02 -.127E+04   0.403E+01 -.392E+02 0.127E+04   -.659E+00 -.847E+00 0.227E+01   -.259E-01 0.974E-02 -.157E-01
   -.433E+02 0.102E+03 0.286E+04   0.435E+02 -.101E+03 -.286E+04   -.200E+00 -.879E+00 -.233E+01   -.109E-02 0.350E-02 -.429E-01
   0.877E+02 0.239E+02 0.133E+04   -.878E+02 -.248E+02 -.133E+04   0.134E+00 0.871E+00 -.389E+00   0.192E-01 0.498E-02 -.113E+00
   0.130E+02 -.246E+02 -.263E+04   -.127E+02 0.245E+02 0.263E+04   -.282E+00 0.753E-01 0.176E+01   -.997E-02 -.774E-02 0.254E-01
   0.998E+02 0.896E+02 -.400E+01   -.997E+02 -.892E+02 0.356E+01   -.346E+00 -.503E+00 0.206E+00   -.160E-01 0.160E-02 -.108E+00
   -.139E+02 0.421E+02 -.271E+04   0.136E+02 -.415E+02 0.271E+04   0.268E+00 -.629E+00 0.279E+01   0.335E-01 -.816E-02 0.695E-01
   -.473E+02 0.923E+01 0.369E+03   0.474E+02 -.112E+02 -.370E+03   -.151E+00 0.196E+01 0.430E+00   0.260E-01 -.135E-01 -.703E-01
   -.720E+02 -.298E+01 -.132E+04   0.730E+02 0.231E+01 0.132E+04   -.989E+00 0.718E+00 0.255E+01   0.496E-01 -.276E-01 -.640E-02
   0.332E+02 0.267E+02 -.122E+04   -.340E+02 -.263E+02 0.122E+04   0.908E+00 -.385E+00 0.193E+01   -.523E-01 -.513E-02 -.289E-01
   -.447E+02 -.984E+02 0.602E+02   0.442E+02 0.978E+02 -.602E+02   0.412E+00 0.771E+00 0.498E-01   -.652E-02 -.871E-02 -.800E-01
   -.287E+02 -.227E+02 0.318E+02   0.292E+02 0.226E+02 -.320E+02   -.249E+00 0.819E-01 0.135E+00   0.148E-01 -.172E-02 -.112E+00
   0.126E+01 -.762E+01 -.998E+03   -.110E+01 0.757E+01 0.998E+03   -.146E+00 0.958E-01 0.413E+00   -.395E-02 0.882E-02 -.157E-01
   -.366E+02 0.128E+03 0.221E+04   0.380E+02 -.127E+03 -.221E+04   -.132E+01 -.125E+01 -.382E+01   -.811E-02 -.316E-02 -.631E-01
   0.578E+02 0.102E+03 0.219E+04   -.588E+02 -.102E+03 -.218E+04   0.102E+01 -.406E-01 -.352E+01   0.913E-02 -.113E-02 -.472E-01
   0.461E+02 0.443E+02 0.193E+04   -.456E+02 -.428E+02 -.193E+04   -.493E+00 -.132E+01 -.190E+01   0.393E-02 -.162E-01 -.671E-01
   0.778E+02 0.407E+02 0.118E+04   -.771E+02 -.406E+02 -.118E+04   -.644E+00 -.266E+00 -.321E+00   -.101E-02 0.343E-02 -.119E+00
   -.212E+02 -.117E+03 0.123E+04   0.215E+02 0.117E+03 -.123E+04   -.292E+00 0.292E-01 -.128E+00   -.112E-01 -.218E-01 -.118E+00
   -.641E+02 -.331E+02 -.109E+04   0.639E+02 0.332E+02 0.109E+04   0.219E+00 -.136E+00 0.733E-01   0.134E-01 -.533E-02 -.775E-02
   -.245E+03 -.491E+02 0.234E+04   0.243E+03 0.483E+02 -.234E+04   0.238E+01 0.761E+00 -.456E+01   -.758E-02 0.162E-01 -.358E-01
   -.214E+02 0.634E+02 0.120E+04   0.207E+02 -.634E+02 -.120E+04   0.712E+00 -.123E+00 -.480E+00   0.111E-01 -.111E-01 -.104E+00
   -.107E+03 -.439E+02 0.123E+03   0.106E+03 0.440E+02 -.123E+03   0.276E+00 -.143E+00 -.186E+00   0.176E-01 -.562E-02 -.687E-01
   0.611E+01 -.974E+02 -.116E+04   -.602E+01 0.970E+02 0.116E+04   -.804E-01 0.442E+00 0.367E+00   -.174E-01 0.476E-01 -.185E-01
   0.345E+02 0.713E+02 -.114E+04   -.344E+02 -.706E+02 0.114E+04   -.156E+00 -.728E+00 -.478E+00   0.411E-02 -.477E-01 -.159E-01
   -.438E+02 -.108E+03 0.224E+04   0.442E+02 0.105E+03 -.224E+04   -.372E+00 0.262E+01 -.420E+01   0.446E-02 -.916E-02 -.417E-01
   0.835E+02 0.144E+02 0.229E+04   -.832E+02 -.145E+02 -.228E+04   -.234E+00 0.379E-01 -.334E+01   -.158E-01 0.173E-01 -.671E-01
   0.321E+02 -.154E+02 0.123E+04   -.324E+02 0.154E+02 -.123E+04   0.326E+00 -.446E-01 0.290E+00   -.149E-01 0.206E-01 -.110E+00
   0.154E+03 0.109E+01 0.903E+03   -.155E+03 -.105E+01 -.905E+03   0.654E+00 -.543E-01 0.111E+01   -.149E-02 -.526E-02 -.993E-01
   0.506E+02 -.409E+02 0.260E+04   -.508E+02 0.410E+02 -.259E+04   0.200E+00 -.137E+00 -.288E+01   0.304E-01 0.385E-01 -.660E-01
   0.190E+03 -.511E+02 0.250E+04   -.188E+03 0.508E+02 -.250E+04   -.179E+01 0.447E+00 -.375E+01   -.904E-03 0.618E-02 -.592E-01
   -.717E+02 -.550E+02 0.129E+04   0.714E+02 0.545E+02 -.129E+04   0.445E+00 0.649E+00 -.134E+00   -.268E-01 -.174E-01 -.152E+00
   -.166E+03 0.281E+02 0.353E+02   0.166E+03 -.279E+02 -.350E+02   0.328E+00 -.221E+00 -.183E+00   0.116E-01 -.298E-01 -.114E+00
   -.220E+03 -.634E+01 0.150E+04   0.220E+03 0.731E+01 -.150E+04   -.178E+00 -.101E+01 0.648E-01   -.297E-01 -.220E-01 -.136E+00
   0.456E+02 0.840E+01 0.134E+04   -.456E+02 -.887E+01 -.134E+04   0.360E-01 0.450E+00 -.230E+00   0.112E-01 0.540E-01 -.157E+00
   0.121E+03 0.231E+02 -.136E+04   -.120E+03 -.230E+02 0.136E+04   -.922E+00 -.159E+00 0.256E+00   -.323E-01 0.393E-01 -.193E-01
   0.667E+02 -.236E+02 0.256E+04   -.659E+02 0.241E+02 -.256E+04   -.933E+00 -.536E+00 -.280E+01   0.354E-01 -.364E-01 -.440E-01
   -.634E+02 -.716E+01 0.139E+04   0.635E+02 0.762E+01 -.139E+04   -.765E-01 -.464E+00 0.289E-02   -.331E-01 -.136E-01 -.189E+00
   0.843E+02 -.118E+03 0.926E+01   -.840E+02 0.118E+03 -.863E+01   -.468E+00 0.824E-01 -.703E+00   -.140E-01 0.462E-01 -.103E+00
   0.269E+02 0.104E+03 0.919E+02   -.269E+02 -.103E+03 -.918E+02   -.681E-01 -.311E+00 -.870E-02   0.385E-01 0.120E-01 -.294E-01
   0.149E+01 0.527E+02 -.127E+04   -.164E+01 -.525E+02 0.127E+04   0.177E+00 -.228E+00 0.233E+00   0.233E-01 -.579E-02 0.214E-01
[...]
   0.576E+02 -.799E+02 0.984E+02   -.570E+02 0.798E+02 -.980E+02   -.635E+00 0.803E-01 -.143E+00   -.210E-01 0.201E-01 -.813E-01
   -.147E+03 -.479E+02 0.150E+04   0.146E+03 0.482E+02 -.150E+04   0.304E+00 -.272E+00 -.810E+00   0.763E-02 0.247E-01 -.150E+00
   -.907E+02 0.232E+00 0.153E+04   0.911E+02 -.588E+00 -.153E+04   -.488E+00 0.326E+00 -.689E+00   0.103E-01 -.741E-02 -.105E+00
   -.229E+03 -.130E+03 0.291E+04   0.228E+03 0.129E+03 -.291E+04   0.144E+01 0.947E+00 -.354E+01   -.615E-01 0.257E-01 -.540E-01
   0.212E+03 -.340E+02 0.272E+04   -.213E+03 0.337E+02 -.271E+04   -.591E-01 0.333E+00 -.159E+01   0.413E-01 -.105E-01 -.775E-01
   0.106E+03 0.774E+01 0.149E+04   -.105E+03 -.783E+01 -.149E+04   -.255E+00 0.174E+00 0.103E+00   0.437E-01 -.321E-04 -.186E+00
   0.142E+03 -.321E+02 0.130E+04   -.142E+03 0.319E+02 -.130E+04   -.486E+00 0.237E+00 -.443E+00   -.396E-01 0.552E-02 -.152E+00
   -.525E+01 -.412E+02 -.140E+04   0.500E+01 0.410E+02 0.140E+04   0.304E+00 0.292E+00 0.262E+00   -.488E-02 -.556E-01 0.119E-02
   0.242E+02 0.221E+02 0.287E+04   -.248E+02 -.218E+02 -.287E+04   0.553E+00 -.341E+00 -.856E+00   0.687E-02 0.294E-01 -.776E-01
   -.592E+02 0.169E+03 -.113E+02   0.592E+02 -.169E+03 0.117E+02   0.234E-01 -.201E-01 -.506E+00   0.485E-02 -.478E-02 -.250E-01
   -.252E+02 0.578E+02 -.138E+02   0.252E+02 -.569E+02 0.140E+02   0.888E-01 -.846E+00 -.666E-01   -.172E-01 -.636E-02 -.185E+00
   0.208E+03 0.309E+02 -.173E+03   -.208E+03 -.304E+02 0.173E+03   0.129E+00 -.490E+00 -.500E+00   -.411E-01 0.183E-01 -.119E+00
   -.647E+02 -.912E+02 0.124E+03   0.648E+02 0.908E+02 -.124E+03   0.391E-01 0.390E+00 0.202E+00   -.428E-01 0.437E-01 -.107E+00
   -.258E+01 0.100E+01 -.320E+03   0.251E+01 -.116E+01 0.322E+03   0.839E-01 0.154E+00 -.169E+01   0.333E-02 -.638E-03 0.153E-02
   -.157E+01 -.176E+01 0.151E+01   0.680E-12 -.719E-13 0.637E-11   0.158E+01 0.173E+01 0.262E+01   0.170E-02 0.578E-01 -.411E+01

 POSITION                                       TOTAL-FORCE (eV/Angst)
     13.66910      8.46549      6.70082        -0.020257     -0.003632     -0.010799
      5.21236      8.45431      6.58298         0.019937     -0.011410      0.009393
      5.17151      3.50276      6.83317         0.015672      0.022650      0.009107
     15.18891      9.27184      8.91043        -0.014498      0.017418      0.013217
      3.82867      4.44279      9.02731        -0.002785      0.007677     -0.001803
      6.73170      9.20970      8.84507         0.027654     -0.024745      0.005018
     12.25290      4.35141      9.05090         0.000892     -0.015985      0.007593
      9.54005      9.25782      9.15076        -0.011993     -0.004088     -0.007860
     10.92988      1.94998      8.92343        -0.018961      0.012202     -0.018278
      2.51681      1.96845      9.03775         0.009480      0.009590     -0.003396
     12.32103      9.19445      9.14175         0.007781     -0.013310      0.005006
     13.74286      6.81843      9.04859        -0.005596      0.020799     -0.009662
      5.24596      1.99216      9.12809         0.009088      0.005326      0.018296
      8.08157      6.81894      8.90657        -0.019644     -0.000420      0.006642
      9.50141      4.41646      8.97490        -0.005234     -0.021478     -0.006909
      5.24960      6.82561      8.96806         0.010565     -0.021120      0.001112
      8.14795      2.00365      9.10085        -0.008468      0.010267     -0.022896
      8.09080      3.52957      6.76305        -0.010318      0.008541      0.033790
      6.66353      1.08697      6.90529         0.025836      0.002537      0.016976
      6.68830      1.13624      1.16869         0.010183     -0.016813     -0.018304
      3.54481      4.07903      2.60632        -0.007062      0.004427     -0.040412
      1.25144      1.21314      6.73292        -0.003001      0.009160      0.003681
      0.89178      1.06685      0.94626        -0.015547      0.002790     -0.012825
      6.65662      9.25676      3.21225        -0.003594      0.013516     -0.051808
      6.69473      4.41407      8.99758         0.003019      0.000570     -0.016531
      8.21162      5.46055      4.88522        -0.192237     -0.038969     -0.295086
     10.91443      6.84844      9.05794         0.004160      0.019396      0.003739
     14.89052      7.35140      4.54429        -0.020891      0.010202      0.027515
     12.41250      5.98351      6.87422        -0.002484      0.012795     -0.003628
      6.45218      5.96870      6.72187        -0.006857     -0.009174      0.030964
      3.61025      2.53567      4.92929        -0.123666      0.197737     -0.077352
     10.87699      5.23710      4.87771         0.207526     -0.034303     -0.078990
      3.86353      6.03915      6.84507         0.003413     -0.006189      0.006878
     13.83953      8.59728      1.29834         0.010086      0.005871      0.011005
      5.33586      8.40288      1.25445         0.005945     -0.008628      0.052819
      4.16277      6.39081      1.85096         0.008872     -0.015293      0.011909
      8.19107      2.05273      3.03386        -0.002581     -0.024367     -0.021720
      9.58169      9.27602      2.99468         0.041739     -0.003184      0.030290
      2.41282      3.62192      6.98420        -0.001533     -0.003824     -0.017414
     13.01773      3.43953      0.94254        -0.023934      0.006129      0.000634
     10.87071      1.99839      2.96738         0.027991     -0.003602     -0.012780
     13.56890      5.06817      4.77058         0.027244      0.004776      0.004486
      3.98575      1.04657      7.03600        -0.015282     -0.007047      0.001146
      9.59715      6.12766      6.99444         0.024427     -0.012428      0.010079
      3.81646      1.07543      1.16136        -0.011524     -0.010180      0.013702
      8.06104      3.56771      1.10023        -0.011702     -0.000671     -0.007493
      5.20370      2.03419      2.97809         0.008871     -0.059892      0.062777
      5.89506      6.72021      3.47528        -0.021252     -0.010531     -0.036996
      9.35391      6.06988      1.14808         0.009398     -0.030265      0.020449
      5.63380      3.63292      1.23723         0.051997      0.057144     -0.003626
     12.43866      9.06023      3.09611         0.020749      0.008047     -0.044297
     12.07766      7.63668      4.91324         0.014546     -0.017198      0.036791
     13.13008      6.61689      2.83040        -0.040757      0.006141     -0.039345
      9.41148      4.47169      2.86934         0.039520     -0.027653      0.015234
      8.50180      8.51635      7.00608         0.026381     -0.004225      0.021234
      8.18243      8.58957      1.16315        -0.014275      0.004077     -0.017724
     10.79405      6.97057      2.90238        -0.001710      0.013743      0.043163
      2.82111      0.14512      5.04740        -0.194362     -0.077366     -0.054799
      8.14725      0.55026      4.88481        -0.034541     -0.017733      0.119316
      9.39676      1.20508      6.89357         0.002831      0.016037     -0.001682
[...]
      9.60048      2.82018      4.87865        -0.027752      0.054329      0.051337
      6.60502      2.54502      4.87077        -0.004329     -0.073003      0.091140
     12.08196      4.24602      2.88896         0.012732      0.001937     -0.048807
      2.28916      1.82528      2.94996        -0.000379     -0.036247      0.039416
     11.76886      5.74999      1.05362         0.003761     -0.007180     -0.009514
      6.84033      5.98705      1.38644        -0.013619     -0.005231      0.006227
      8.30437      7.12497      3.00063        -0.003722      0.070272      0.032276
      6.85459      4.22009      3.15394        -0.056901     -0.033411      0.013727
     10.87597      3.57115      6.91279        -0.001504      0.001200     -0.006451
     10.60151      3.45495      1.03917        -0.014441     -0.009966     -0.024642
     10.73179      0.68889      4.99664        -0.009487      0.001272     -0.043049
      9.67006      7.71157      4.99333         0.050186      0.120144      0.085934
      7.17143      7.81748      5.18228         0.012777     -0.016273     -0.023064
      5.29940      0.29561      4.91544         0.190771     -0.036146      0.007716
      7.45597      0.77172     10.09631         0.021265     -0.004357      0.041719
    total drift:                                0.015482      0.025508      0.024396

  FREE ENERGIE OF THE ION-ELECTRON SYSTEM (eV)
  free  energy   TOTEN  =      -538.46591932 eV

  energy  without entropy=     -538.48975057  energy(sigma->0) =     -538.47386307

 d Force = 0.3347298E-03[-0.131E-05, 0.671E-03]  d Energy = 0.3176403E-03 0.171E-04
 d Force = 0.2706407E+01[ 0.270E+01, 0.272E+01]  d Ewald  = 0.2706415E+01-0.744E-05

 reached required accuracy - stopping structural energy minimisation