 vasp.5.4.4.18Apr17-6-g9f103f2a35 (build Oct 25 2019 11:13:22) complex

 executed on             LinuxIFC date 2022.02.08  17:59:54

 INCAR:
 POTCAR:    PAW_PBE Pt 04Feb2005
 POTCAR:    PAW_PBE Fe 06Sep2000
 POTCAR:    PAW_PBE Co 02Aug2007
 POTCAR:    PAW_PBE Ni 02Aug2007
 POTCAR:    PAW_PBE H 15Jun2001
 POTCAR:    PAW_PBE Pt 04Feb2005
   VRHFIN =Pt: s1d9

   TITEL  = PAW_PBE Pt 04Feb2005
   POMASS =  195.080; ZVAL   =   10.000    mass and valenz
   ENMAX  =  230.283; ENMIN  =  172.712 eV

 POTCAR:    PAW_PBE Fe 06Sep2000
   VRHFIN =Fe:  d7 s1

   TITEL  = PAW_PBE Fe 06Sep2000
   POMASS =   55.847; ZVAL   =    8.000    mass and valenz
   ENMAX  =  267.882; ENMIN  =  200.911 eV

 POTCAR:    PAW_PBE Co 02Aug2007
   VRHFIN =Co: d8 s1

   TITEL  = PAW_PBE Co 02Aug2007
   POMASS =   58.933; ZVAL   =    9.000    mass and valenz
   ENMAX  =  267.968; ENMIN  =  200.976 eV

 POTCAR:    PAW_PBE Ni 02Aug2007
   VRHFIN =Ni:

   TITEL  = PAW_PBE Ni 02Aug2007
   POMASS =   58.690; ZVAL   =   10.000    mass and valenz
   ENMAX  =  269.532; ENMIN  =  202.149 eV

 POTCAR:    PAW_PBE H 15Jun2001
   VRHFIN =H: ultrasoft test

   TITEL  = PAW_PBE H 15Jun2001
   POMASS =    1.000; ZVAL   =    1.000    mass and valenz
   ENMAX  =  250.000; ENMIN  =  200.000 eV

 Optimization of the real space projectors (new method)

 maximal supplied QI-value         = 14.36
 optimisation between [QCUT,QGAM] = [ 11.92, 23.98] = [ 39.79,161.09] Ry
 Optimized for a Real-space Cutoff    1.49 Angstroem

   l    n(q)    QCUT    max X(q) W(low)/X(q) W(high)/X(q)  e(spline)
   2     10    11.920    66.195    0.79E-04    0.18E-03    0.24E-06
   2     10    11.920    64.643    0.81E-04    0.19E-03    0.24E-06
   0     11    11.920    95.520    0.28E-04    0.54E-04    0.18E-06
   0     11    11.920    63.403    0.27E-04    0.52E-04    0.17E-06
   1     10    11.920    19.961    0.18E-04    0.11E-03    0.23E-06
   1     10    11.920    13.289    0.25E-04    0.87E-04    0.19E-06
 Optimization of the real space projectors (new method)

[...]

   l    n(q)    QCUT    max X(q) W(low)/X(q) W(high)/X(q)  e(spline)
   2      9    11.864    60.317    0.21E-03    0.51E-03    0.25E-06
   2      9    11.864    55.921    0.21E-03    0.51E-03    0.26E-06
   0      9    11.864    51.690    0.22E-03    0.30E-04    0.17E-06
   0      9    11.864    30.015    0.20E-03    0.28E-04    0.15E-06
   1      9    11.864    18.849    0.76E-04    0.33E-03    0.17E-06
   1      9    11.864    14.624    0.60E-04    0.28E-03    0.15E-06
 Optimization of the real space projectors (new method)

 maximal supplied QI-value         = 34.20
 optimisation between [QCUT,QGAM] = [ 11.97, 23.94] = [ 40.13,160.53] Ry
 Optimized for a Real-space Cutoff    1.18 Angstroem

   l    n(q)    QCUT    max X(q) W(low)/X(q) W(high)/X(q)  e(spline)
   0      8    11.971    19.460    0.15E-03    0.31E-03    0.25E-06
   0      8    11.971    12.209    0.13E-03    0.29E-03    0.25E-06
   1      8    11.971     4.655    0.22E-03    0.24E-03    0.21E-06
  PAW_PBE Pt 04Feb2005                  :
  PAW_PBE Fe 06Sep2000                  :
  PAW_PBE Co 02Aug2007                  :
  PAW_PBE Ni 02Aug2007                  :
  PAW_PBE H 15Jun2001                   :

 POSCAR: 11.26
  positions in direct lattice
  velocities in cartesian coordinates
 exchange correlation table for  LEXCH =        8
   RHO(1)=    0.500       N(1)  =     2000
   RHO(2)=  100.500       N(2)  =     4000

 ion  position               nearest neighbor table
   1  0.783  0.870  0.304-  52 2.53  59 2.56  28 2.70  19 2.74   2 2.76  61 2.77   4 2.79  29 2.79
                            60 2.81  33 2.81  11 2.86  12 2.86
   2  0.029  0.871  0.301-  79 2.51  77 2.53   1 2.76  30 2.77  33 2.80   4 2.80  28 2.81  60 2.85
                             6 2.86  16 2.95  22 2.95
   3  0.281  0.360  0.311-  64 2.53  68 2.61  31 2.64   5 2.73  43 2.74  13 2.77  39 2.78  25 2.79
                            30 2.79  19 2.84  33 2.85  18 2.92
   4  0.866  0.958  0.406-  60 2.60  17 2.75   9 2.76  11 2.78   1 2.79   2 2.80  12 2.83  16 2.87
                             6 2.87
   5  0.111  0.457  0.410-  81 1.65  39 2.62  33 2.69  12 2.73   3 2.73  16 2.73   7 2.78  10 2.79
                            25 2.88  13 2.89
   6  0.125  0.952  0.405-  55 2.68  22 2.73  14 2.80  10 2.81   9 2.83   8 2.83   2 2.86   4 2.87
                            16 2.90
   7  0.869  0.447  0.411-  39 2.59  75 2.66  29 2.73   9 2.74  15 2.75   5 2.78  10 2.80  27 2.85
                            12 2.89
   8  0.375  0.954  0.417-  55 2.51  43 2.60  61 2.69  13 2.76  11 2.77  27 2.77  10 2.82   6 2.83
                            14 2.88
   9  0.871  0.202  0.406-  75 2.58  60 2.65   7 2.74  17 2.76   4 2.76  22 2.79  15 2.82   6 2.83
                            10 2.84
  10  0.123  0.203  0.411-  43 2.63  39 2.64  22 2.74  13 2.78   5 2.79   7 2.80   6 2.81   8 2.82
                             9 2.84
  11  0.625  0.947  0.413-  61 2.64  19 2.72  12 2.75  27 2.76   8 2.77   4 2.78  13 2.85   1 2.86
                            17 2.88
  12  0.871  0.703  0.411-  29 2.68  33 2.71  16 2.73   5 2.73  11 2.75  27 2.82   4 2.83   1 2.86
                             7 2.89
  13  0.371  0.202  0.415-  43 2.64   8 2.76  19 2.77   3 2.77  10 2.78  25 2.79  17 2.85  11 2.85
                             5 2.89
  14  0.372  0.700  0.404-  44 2.52  55 2.59  15 2.77  25 2.80   6 2.80  27 2.81  30 2.84  16 2.88
                             8 2.88
  15  0.620  0.455  0.408-  75 2.62  44 2.62   7 2.75  14 2.77  18 2.77  17 2.79  27 2.80  25 2.81
                             9 2.82
  16  0.117  0.698  0.411-  81 1.65  33 2.71  30 2.72  12 2.73   5 2.73  25 2.82   4 2.87  14 2.88
                             6 2.90   2 2.95
  17  0.624  0.205  0.411-  60 2.61   4 2.75  19 2.76   9 2.76  18 2.76  15 2.79  25 2.79  13 2.85
                            11 2.88
  18  0.539  0.365  0.307-  67 2.51  68 2.60  26 2.68  60 2.69  25 2.76  17 2.76  15 2.77  75 2.79
                            19 2.85   3 2.92  30 2.94  44 3.01
  19  0.538  0.112  0.313-  68 2.49  80 2.53  59 2.55  43 2.69  61 2.70  11 2.72  60 2.74   1 2.74
                            17 2.76  13 2.77   3 2.84  18 2.85
  20  0.538  0.117  0.053-  47 2.51  37 2.56  51 2.64  63 2.67  50 2.71  62 2.73  34 2.74  46 2.79
                            45 2.87
  21  0.106  0.420  0.118-  40 2.50  36 2.51  50 2.54  70 2.60  47 2.66  42 2.66  64 2.70  69 2.71
                            31 2.79  53 3.03
  22  0.049  0.123  0.306-  77 2.51  65 2.52  58 2.54  39 2.69   6 2.73  10 2.74  43 2.76   9 2.79
                            75 2.86  55 2.92   2 2.95  60 3.07  31 3.27
  23  0.025  0.110  0.043-  40 2.54  41 2.55  70 2.56  35 2.67  62 2.71  24 2.74  56 2.77  76 2.83
                            45 2.93
  24  0.117  0.952  0.146-  79 2.49  35 2.51  70 2.62  77 2.62  58 2.62  56 2.64  48 2.66  73 2.70
                            66 2.72  23 2.74  41 2.84  38 2.93
  25  0.372  0.450  0.409-  18 2.76  30 2.78   3 2.79  17 2.79  13 2.79  14 2.80  15 2.81  16 2.82
                             5 2.88
  26  0.451  0.562  0.222-  73 2.52  74 2.53  54 2.55  79 2.59  30 2.62  44 2.62  32 2.67  18 2.68
                            78 2.68  67 2.98  48 2.99
  27  0.620  0.704  0.413-  44 2.55  61 2.65  11 2.76   8 2.77  29 2.79  15 2.80  14 2.81  12 2.82
                             7 2.85
  28  0.949  0.756  0.207-  48 2.55  53 2.56  66 2.63  42 2.65  33 2.65   1 2.70  64 2.70   2 2.81
                            52 2.85  36 2.90  59 3.15
  29  0.797  0.616  0.313-  42 2.58  52 2.59  32 2.62  39 2.67  12 2.68  33 2.68   7 2.73  44 2.79
                             1 2.79  27 2.79  75 2.85  61 2.89
  30  0.266  0.616  0.306-  79 2.51  33 2.58  26 2.62  64 2.70  16 2.72   2 2.77  25 2.78   3 2.79
                            14 2.84  18 2.94  44 3.19  55 3.29
  31  0.191  0.261  0.224-  70 2.48  58 2.52  47 2.57  39 2.61  43 2.61   3 2.64  65 2.68  64 2.74
                            21 2.79  80 2.81  42 2.83  68 3.00  22 3.27
  32  0.700  0.539  0.222-  69 2.53  54 2.60  44 2.62  29 2.62  75 2.63  57 2.63  65 2.66  26 2.67
                            52 2.68  42 2.70  67 2.73  78 2.76
  33  0.034  0.620  0.311-  64 2.55  30 2.58  28 2.65  29 2.68   5 2.69  16 2.71  12 2.71  42 2.73
                             2 2.80   1 2.81  39 2.82   3 2.85
  34  0.791  0.885  0.059-  51 2.33  66 2.39  53 2.60  62 2.68  35 2.73  20 2.74  36 2.75  63 2.89

  35  0.043  0.865  0.057-  36 2.40  24 2.51  66 2.52  23 2.67  34 2.73  48 2.84  72 2.85  56 2.85
                            62 3.00
  36  0.042  0.658  0.084-  48 2.40  35 2.40  53 2.47  21 2.51  72 2.75  34 2.75  28 2.90
  37  0.624  0.211  0.138-  59 2.38  62 2.40  67 2.45  46 2.46  68 2.48  74 2.55  20 2.56  66 2.66
                            41 2.68  54 2.71  47 2.99  51 3.04
  38  0.377  0.954  0.136-  63 2.36  45 2.39  56 2.40  58 2.42  80 2.45  73 2.50  78 2.54  57 2.61
                            47 2.77  70 2.82  51 2.87  24 2.93
  39  0.028  0.372  0.317-   7 2.59  65 2.61  31 2.61   5 2.62  42 2.64  10 2.64  29 2.67  22 2.69
                            75 2.74   3 2.78  33 2.82  43 3.01
  40  0.983  0.354  0.043-  69 2.31  76 2.42  21 2.50  23 2.54  70 2.62  71 2.63  45 3.12
  41  0.866  0.206  0.135-  77 2.42  76 2.43  67 2.44  62 2.46  65 2.52  23 2.55  69 2.55  66 2.57
                            70 2.65  37 2.68  24 2.84  54 2.87
  42  0.948  0.521  0.217-  53 2.52  69 2.54  64 2.55  65 2.57  29 2.58  39 2.64  28 2.65  21 2.66
                            32 2.70  33 2.73  31 2.83  52 2.97
  43  0.300  0.108  0.320-  58 2.48  55 2.49   8 2.60  31 2.61  80 2.61  10 2.63  13 2.64  61 2.65
                            19 2.69   3 2.74  22 2.76  39 3.01
  44  0.541  0.631  0.318-  14 2.52  78 2.55  27 2.55  32 2.62  15 2.62  26 2.62  55 2.64  61 2.67
                            29 2.79  75 2.86  18 3.01  30 3.19
  45  0.285  0.111  0.053-  38 2.39  70 2.47  47 2.48  56 2.53  63 2.71  20 2.87  23 2.93  40 3.12

  46  0.535  0.367  0.050-  54 2.40  50 2.43  37 2.46  74 2.47  76 2.54  62 2.67  72 2.72  20 2.79
                            49 2.82
  47  0.359  0.209  0.135-  50 2.40  68 2.41  45 2.48  20 2.51  31 2.57  80 2.60  21 2.66  74 2.74
                            38 2.77  70 2.92  37 2.99
  48  0.180  0.691  0.158-  79 2.40  36 2.40  72 2.41  64 2.41  73 2.49  28 2.55  24 2.66  74 2.70
                            35 2.84  26 2.99
  49  0.521  0.625  0.052-  54 2.35  73 2.38  71 2.44  57 2.44  72 2.53  56 2.78  46 2.82  76 2.90
                            63 2.95
  50  0.315  0.374  0.056-  74 2.35  47 2.40  46 2.43  21 2.54  72 2.65  20 2.71
  51  0.642  0.932  0.141-  34 2.33  52 2.34  63 2.45  59 2.53  53 2.55  80 2.56  20 2.64  57 2.67
                            66 2.78  38 2.87  37 3.04
  52  0.683  0.786  0.223-  51 2.34  78 2.41  57 2.48  61 2.52   1 2.53  53 2.55  29 2.59  80 2.65
                            32 2.68  28 2.85  42 2.97  59 3.12
  53  0.830  0.681  0.129-  57 2.36  71 2.40  36 2.47  42 2.52  52 2.55  51 2.55  28 2.56  69 2.59
                            34 2.60  21 3.03
  54  0.609  0.460  0.130-  49 2.35  46 2.40  76 2.41  26 2.55  74 2.58  32 2.60  67 2.61  69 2.68
[...]
   0.119E+02 -.596E+02 -.130E+04   -.134E+02 0.597E+02 0.130E+04   0.152E+01 -.576E-01 0.201E+01   -.496E-02 -.248E-01 0.141E-01
   -.300E+02 0.465E+02 -.262E+04   0.300E+02 -.453E+02 0.262E+04   -.300E-01 -.116E+01 0.174E+01   0.583E-02 0.882E-02 0.146E-02
   -.207E+02 -.743E+01 -.263E+04   0.199E+02 0.776E+01 0.263E+04   0.896E+00 -.224E+00 0.129E+01   -.208E-01 -.462E-01 -.182E-01
   0.517E+02 0.108E+02 -.259E+04   -.512E+02 -.114E+02 0.259E+04   -.523E+00 0.569E+00 0.192E+01   0.141E-01 -.685E-03 -.640E-02
   -.260E+02 -.178E+02 -.270E+04   0.257E+02 0.169E+02 0.270E+04   0.323E+00 0.974E+00 0.273E+01   0.890E-02 -.167E-01 -.149E-01
   0.332E+02 -.696E+01 -.279E+04   -.332E+02 0.727E+01 0.279E+04   -.661E-01 -.307E+00 0.347E+01   -.266E-02 0.260E-02 -.164E-01
   -.211E+02 0.419E+02 -.267E+04   0.206E+02 -.417E+02 0.267E+04   0.497E+00 -.152E+00 0.227E+01   0.104E-01 0.607E-02 -.118E-01
   0.220E+02 -.188E+01 -.267E+04   -.213E+02 0.234E+01 0.267E+04   -.709E+00 -.455E+00 0.264E+01   0.277E-02 0.119E-01 -.250E-01
   -.522E+02 -.251E+01 -.271E+04   0.518E+02 0.189E+01 0.271E+04   0.481E+00 0.608E+00 0.199E+01   -.161E-01 0.500E-02 -.482E-02
   -.363E+02 0.107E+01 -.264E+04   0.358E+02 -.101E+01 0.264E+04   0.531E+00 -.577E-01 0.250E+01   -.234E-02 -.623E-02 -.703E-02
   -.148E+02 -.538E+02 -.271E+04   0.143E+02 0.533E+02 0.271E+04   0.509E+00 0.473E+00 0.228E+01   -.199E-01 0.335E-02 -.119E-01
   0.728E+02 0.389E+02 -.263E+04   -.720E+02 -.385E+02 0.263E+04   -.751E+00 -.399E+00 0.257E+01   0.724E-02 0.362E-02 -.156E-01
   0.391E+02 -.478E+01 -.267E+04   -.386E+02 0.565E+01 0.267E+04   -.430E+00 -.896E+00 0.245E+01   -.384E-02 0.789E-02 -.135E-01
   -.244E+02 -.190E+02 -.260E+04   0.237E+02 0.183E+02 0.260E+04   0.716E+00 0.656E+00 0.191E+00   0.753E-03 0.188E-03 0.675E-02
   0.111E+02 -.163E+02 -.270E+04   -.107E+02 0.161E+02 0.270E+04   -.414E+00 0.212E+00 0.233E+01   0.113E-02 0.889E-02 -.109E-01
   0.762E+02 -.825E+02 -.127E+04   -.752E+02 0.820E+02 0.127E+04   -.988E+00 0.571E+00 0.197E+01   0.305E-01 -.229E-02 -.178E-01
   -.985E+01 -.336E+02 -.138E+04   0.933E+01 0.329E+02 0.138E+04   0.516E+00 0.762E+00 0.284E+01   0.622E-02 -.546E-02 -.129E-01
   0.511E+02 0.209E+02 0.274E+04   -.510E+02 -.209E+02 -.274E+04   -.108E+00 0.554E-01 -.271E+01   0.252E-02 -.217E-01 0.455E-02
   -.966E+02 -.110E+03 0.185E+04   0.964E+02 0.110E+03 -.185E+04   0.213E+00 -.238E+00 0.135E+01   -.201E-01 -.371E-03 0.119E-03
   -.716E+01 0.417E+02 -.128E+04   0.776E+01 -.409E+02 0.127E+04   -.591E+00 -.788E+00 0.223E+01   0.113E-02 0.165E-02 -.130E-01
   -.435E+02 0.103E+03 0.286E+04   0.437E+02 -.102E+03 -.286E+04   -.183E+00 -.878E+00 -.234E+01   -.292E-02 0.325E-02 0.501E-02
   0.875E+02 0.251E+02 0.133E+04   -.877E+02 -.259E+02 -.133E+04   0.167E+00 0.862E+00 -.405E+00   0.357E-02 0.385E-02 0.154E-01
   0.205E+02 -.336E+02 -.262E+04   -.195E+02 0.327E+02 0.262E+04   -.106E+01 0.951E+00 0.212E+01   0.817E-02 0.234E-02 -.267E-02
   0.104E+03 0.863E+02 -.476E+01   -.104E+03 -.860E+02 0.423E+01   -.519E+00 -.420E+00 0.241E+00   0.343E-01 0.278E-02 -.462E-02
   -.152E+02 0.359E+02 -.272E+04   0.148E+02 -.356E+02 0.271E+04   0.343E+00 -.306E+00 0.275E+01   -.153E-01 0.952E-03 -.873E-02
   -.502E+02 0.135E+02 0.367E+03   0.503E+02 -.154E+02 -.367E+03   -.836E-01 0.184E+01 0.488E+00   0.875E-03 0.274E-01 -.296E-02
   -.774E+02 -.155E+01 -.132E+04   0.785E+02 0.846E+00 0.132E+04   -.105E+01 0.705E+00 0.247E+01   -.198E-01 -.947E-02 -.917E-04
   0.366E+02 0.250E+02 -.124E+04   -.376E+02 -.245E+02 0.123E+04   0.106E+01 -.492E+00 0.183E+01   0.199E-01 0.851E-02 -.714E-02
   -.462E+02 -.995E+02 0.592E+02   0.458E+02 0.989E+02 -.593E+02   0.431E+00 0.780E+00 0.221E-01   -.233E-01 -.195E-01 0.267E-01
   -.285E+02 -.239E+02 0.335E+02   0.290E+02 0.238E+02 -.337E+02   -.269E+00 0.430E-01 0.104E+00   -.284E-01 -.148E-01 -.891E-02
   -.816E+00 -.326E+01 -.101E+04   0.107E+01 0.324E+01 0.101E+04   -.236E+00 0.792E-01 0.542E+00   -.299E-02 -.254E-02 0.721E-02
   -.368E+02 0.128E+03 0.221E+04   0.382E+02 -.127E+03 -.221E+04   -.133E+01 -.126E+01 -.381E+01   -.110E-01 0.932E-03 0.695E-02
   0.577E+02 0.103E+03 0.219E+04   -.587E+02 -.103E+03 -.218E+04   0.102E+01 -.476E-01 -.352E+01   0.553E-02 0.191E-02 0.318E-02
   0.458E+02 0.444E+02 0.193E+04   -.453E+02 -.430E+02 -.193E+04   -.516E+00 -.133E+01 -.191E+01   0.118E-02 0.929E-02 -.451E-02
   0.781E+02 0.403E+02 0.118E+04   -.775E+02 -.401E+02 -.118E+04   -.673E+00 -.265E+00 -.302E+00   0.251E-01 -.349E-02 0.256E-01
   -.208E+02 -.117E+03 0.123E+04   0.211E+02 0.117E+03 -.123E+04   -.315E+00 0.476E-01 -.135E+00   -.137E-02 -.189E-01 0.761E-02
   -.762E+02 -.380E+02 -.109E+04   0.760E+02 0.381E+02 0.109E+04   0.342E+00 -.709E-01 0.181E+00   -.100E-01 -.171E-01 0.992E-02
   -.245E+03 -.491E+02 0.234E+04   0.243E+03 0.483E+02 -.234E+04   0.239E+01 0.767E+00 -.453E+01   -.177E-01 0.518E-02 -.569E-03
   -.217E+02 0.636E+02 0.120E+04   0.211E+02 -.636E+02 -.120E+04   0.735E+00 -.110E+00 -.474E+00   -.890E-02 0.151E-01 0.237E-01
   -.110E+03 -.462E+02 0.122E+03   0.110E+03 0.464E+02 -.122E+03   0.321E+00 -.123E+00 -.200E+00   -.190E-01 -.139E-01 0.621E-02
   0.840E+01 -.101E+03 -.116E+04   -.835E+01 0.100E+03 0.116E+04   -.297E-01 0.419E+00 0.390E+00   -.117E-01 -.362E-02 0.195E-02
   0.369E+02 0.693E+02 -.114E+04   -.367E+02 -.686E+02 0.114E+04   -.172E+00 -.751E+00 -.433E+00   0.186E-03 0.429E-02 -.115E-01
   -.438E+02 -.108E+03 0.224E+04   0.441E+02 0.105E+03 -.224E+04   -.368E+00 0.262E+01 -.423E+01   -.220E-02 -.150E-01 -.236E-02
   0.836E+02 0.141E+02 0.229E+04   -.835E+02 -.142E+02 -.228E+04   -.223E+00 0.858E-01 -.333E+01   0.293E-01 0.144E-01 0.853E-02
   0.325E+02 -.161E+02 0.123E+04   -.328E+02 0.161E+02 -.123E+04   0.312E+00 -.294E-01 0.327E+00   -.997E-03 -.198E-01 0.436E-02
   0.154E+03 0.165E+01 0.901E+03   -.155E+03 -.161E+01 -.902E+03   0.659E+00 -.720E-01 0.108E+01   0.155E-01 0.133E-01 -.507E-03
   0.508E+02 -.410E+02 0.260E+04   -.511E+02 0.411E+02 -.259E+04   0.213E+00 -.113E+00 -.288E+01   0.122E-01 -.825E-02 0.163E-01
   0.190E+03 -.515E+02 0.250E+04   -.188E+03 0.511E+02 -.250E+04   -.181E+01 0.463E+00 -.373E+01   0.517E-02 0.304E-02 -.103E-01
   -.716E+02 -.545E+02 0.129E+04   0.712E+02 0.539E+02 -.129E+04   0.442E+00 0.630E+00 -.110E+00   0.105E-02 0.544E-02 0.366E-02
   -.166E+03 0.290E+02 0.357E+02   0.166E+03 -.289E+02 -.356E+02   0.308E+00 -.221E+00 -.191E+00   -.189E-01 0.890E-02 -.364E-02
   -.220E+03 -.605E+01 0.150E+04   0.221E+03 0.701E+01 -.150E+04   -.162E+00 -.101E+01 0.703E-01   -.217E-01 0.712E-02 -.106E-01
   0.461E+02 0.789E+01 0.134E+04   -.461E+02 -.831E+01 -.134E+04   0.472E-01 0.446E+00 -.238E+00   0.165E-01 0.436E-02 0.660E-02
   0.122E+03 0.244E+02 -.136E+04   -.122E+03 -.243E+02 0.136E+04   -.943E+00 -.147E+00 0.333E+00   0.110E-01 0.869E-02 -.128E-01
   0.669E+02 -.234E+02 0.256E+04   -.660E+02 0.240E+02 -.256E+04   -.903E+00 -.543E+00 -.281E+01   0.946E-02 -.118E-01 0.843E-02
   -.632E+02 -.725E+01 0.139E+04   0.632E+02 0.771E+01 -.139E+04   -.822E-01 -.471E+00 -.955E-02   -.218E-01 -.787E-02 -.767E-02
   0.850E+02 -.118E+03 0.865E+01   -.848E+02 0.117E+03 -.812E+01   -.418E+00 0.146E+00 -.720E+00   -.398E-02 -.763E-02 0.133E-01
   0.264E+02 0.105E+03 0.964E+02   -.263E+02 -.104E+03 -.964E+02   -.691E-01 -.288E+00 -.528E-01   0.174E-01 0.798E-02 -.273E-03
   -.334E+01 0.522E+02 -.126E+04   0.331E+01 -.521E+02 0.126E+04   0.781E-01 -.143E+00 0.117E+00   0.123E-02 0.108E-01 -.345E-01
[...]
   0.606E+02 -.854E+02 0.982E+02   -.600E+02 0.853E+02 -.979E+02   -.676E+00 0.144E+00 -.189E+00   0.321E-01 -.167E-01 0.168E-01
   -.147E+03 -.482E+02 0.150E+04   0.147E+03 0.485E+02 -.150E+04   0.315E+00 -.281E+00 -.814E+00   -.399E-01 -.562E-02 0.174E-02
   -.911E+02 0.390E+00 0.153E+04   0.916E+02 -.751E+00 -.153E+04   -.472E+00 0.328E+00 -.685E+00   -.189E-01 -.843E-02 0.177E-01
   -.230E+03 -.130E+03 0.291E+04   0.228E+03 0.129E+03 -.291E+04   0.143E+01 0.100E+01 -.353E+01   -.277E-01 -.167E-02 0.127E-02
   0.213E+03 -.341E+02 0.271E+04   -.213E+03 0.338E+02 -.271E+04   -.602E-01 0.295E+00 -.161E+01   0.284E-01 0.145E-01 -.271E-04
   0.106E+03 0.781E+01 0.149E+04   -.106E+03 -.790E+01 -.149E+04   -.252E+00 0.159E+00 0.364E-01   0.232E-01 -.901E-02 0.625E-02
   0.143E+03 -.332E+02 0.130E+04   -.143E+03 0.330E+02 -.130E+04   -.483E+00 0.232E+00 -.430E+00   0.442E-01 0.136E-01 0.680E-02
   -.309E+01 -.412E+02 -.140E+04   0.286E+01 0.409E+02 0.140E+04   0.283E+00 0.292E+00 0.260E+00   -.154E-02 -.640E-02 -.212E-01
   0.242E+02 0.220E+02 0.287E+04   -.247E+02 -.217E+02 -.287E+04   0.531E+00 -.317E+00 -.818E+00   -.488E-02 0.250E-01 0.200E-01
   -.609E+02 0.173E+03 -.849E+01   0.609E+02 -.172E+03 0.871E+01   0.509E-01 -.142E+00 -.452E+00   -.117E-01 0.251E-01 0.318E-02
   -.240E+02 0.570E+02 -.150E+02   0.240E+02 -.562E+02 0.151E+02   0.119E+00 -.808E+00 -.104E+00   -.138E-01 -.544E-02 0.284E-02
   0.209E+03 0.343E+02 -.176E+03   -.210E+03 -.339E+02 0.176E+03   0.501E-01 -.497E+00 -.457E+00   0.260E-01 0.113E-01 0.365E-04
   -.616E+02 -.899E+02 0.126E+03   0.617E+02 0.895E+02 -.126E+03   0.306E-01 0.378E+00 0.164E+00   -.780E-02 -.184E-01 0.982E-02
   -.230E+01 0.148E+01 -.318E+03   0.216E+01 -.173E+01 0.320E+03   0.151E+00 0.262E+00 -.174E+01   0.550E-03 0.323E-03 0.985E-03
   -.204E+01 -.172E+01 -.204E+01   0.241E-12 0.416E-12 -.182E-10   0.207E+01 0.174E+01 0.206E+01   -.155E-01 -.191E-02 -.114E-01

 POSITION                                       TOTAL-FORCE (eV/Angst)
     13.67911      8.45846      6.69635        -0.014941     -0.003193     -0.008638
      5.21316      8.44332      6.59201         0.007074     -0.009369      0.016023
      5.15277      3.50702      6.84229         0.020040      0.013242      0.015176
     15.13473      9.31066      8.93486         0.009111     -0.000618     -0.007361
      3.81733      4.39549      9.08034         0.013690      0.014560      0.025216
      6.73116      9.21230      8.85266         0.011069     -0.006174      0.001748
     12.24694      4.33085      9.04908         0.012203      0.011674     -0.006679
      9.54506      9.26053      9.15440         0.012762      0.008134      0.005588
     10.90917      1.94424      8.92510         0.006735      0.005788     -0.001368
      2.52770      1.97353      9.02039         0.005839      0.009711      0.022100
     12.32949      9.21679      9.09424        -0.002635     -0.004917      0.002931
     13.71109      6.84881      9.04368         0.003594      0.004886      0.000427
      5.30045      1.94380      9.13319         0.001261      0.013457      0.000396
      8.09030      6.82623      8.91148        -0.003762      0.004527      0.002425
      9.50318      4.43155      8.97590         0.004605     -0.009224      0.001308
      5.25969      6.88462      9.01256         0.004950      0.007982      0.005756
      8.14423      1.96824      9.04524        -0.004328      0.003683      0.002496
      8.09399      3.54376      6.76095        -0.014692      0.013322     -0.006411
      6.66497      1.08914      6.88958        -0.001064     -0.008013     -0.003954
      6.68830      1.13624      1.16869         0.005699     -0.012573     -0.018834
      3.54481      4.07903      2.60632        -0.000368     -0.000112     -0.043771
      1.23468      1.19669      6.73745         0.012722      0.026105     -0.008309
      0.89178      1.06685      0.94626        -0.017372      0.003563     -0.011062
      6.65662      9.25676      3.21225         0.007394      0.010346     -0.048415
      6.73113      4.36420      8.99244        -0.005299     -0.004894     -0.006048
      8.21162      5.46055      4.88522        -0.229976     -0.066399     -0.238393
     10.91270      6.83732      9.06909        -0.015273     -0.006840      0.006856
     14.89052      7.35140      4.54429         0.001846     -0.016832      0.078919
     12.40798      5.98154      6.87584         0.003891     -0.018483      0.011017
      6.44779      5.96303      6.73915        -0.007759     -0.009338      0.012639
      3.61025      2.53567      4.92929        -0.111282      0.197196     -0.081842
     10.87699      5.23710      4.87771         0.222134     -0.020928     -0.088084
      3.86708      6.02856      6.86997         0.007361     -0.009630     -0.013499
     13.83953      8.59728      1.29834         0.012175      0.007064      0.013493
      5.33586      8.40288      1.25445         0.002731     -0.009524      0.057915
      4.16277      6.39081      1.85096         0.020588     -0.014436      0.017254
      8.19107      2.05273      3.03386        -0.007386     -0.018968     -0.014473
      9.58169      9.27602      2.99468         0.028915      0.005688      0.020449
      2.37746      3.61125      6.96258         0.018800      0.001801     -0.005239
     13.01773      3.43953      0.94254        -0.025512      0.009197     -0.004807
     10.87071      1.99839      2.96738         0.027846     -0.018608     -0.032026
     13.56890      5.06817      4.77058         0.025040      0.031145      0.002450
      3.98705      1.04519      7.03381        -0.000553     -0.003630      0.004142
      9.60309      6.13176      6.99347         0.006450     -0.005475      0.004208
      3.81646      1.07543      1.16136        -0.006676     -0.010986      0.018648
      8.06104      3.56771      1.10023        -0.004935     -0.004691     -0.006523
      5.20370      2.03419      2.97809        -0.001957     -0.058538      0.068536
      5.89506      6.72021      3.47528        -0.016156     -0.011955     -0.030313
      9.35391      6.06988      1.14808         0.006398     -0.024687      0.020206
      5.63380      3.63292      1.23723         0.046086      0.058241     -0.003398
     12.43866      9.06023      3.09611         0.009042     -0.005068     -0.038128
     12.07766      7.63668      4.91324         0.025047     -0.023148      0.026188
     13.13008      6.61689      2.83040        -0.049284      0.015065     -0.024228
      9.41148      4.47169      2.86934         0.017206     -0.026037      0.006865
      8.50764      8.51996      7.00842         0.002760     -0.019285     -0.001257
      8.18243      8.58957      1.16315        -0.008623      0.009651     -0.014032
     10.79405      6.97057      2.90238        -0.004761      0.011513      0.046183
      2.82111      0.14512      5.04740        -0.190049     -0.051309     -0.055932
      8.14725      0.55026      4.88481        -0.019999     -0.036111      0.060098
      9.39765      1.19503      6.88589         0.004740      0.000045     -0.002877
[...]
      9.60048      2.82018      4.87865        -0.045933      0.063177      0.038737
      6.60502      2.54502      4.87077        -0.020965     -0.017034      0.053198
     12.08196      4.24602      2.88896         0.023988      0.000741     -0.043413
      2.28916      1.82528      2.94996        -0.004043     -0.039987      0.039108
     11.76886      5.74999      1.05362         0.000686     -0.013500     -0.006953
      6.84033      5.98705      1.38644        -0.015461      0.005675      0.007630
      8.30437      7.12497      3.00063        -0.002740      0.043254      0.024271
      6.85459      4.22009      3.15394        -0.057054     -0.030108      0.005113
     10.87439      3.56799      6.91077         0.006568      0.006322     -0.001334
     10.60151      3.45495      1.03917        -0.006967     -0.006790     -0.016667
     10.73179      0.68889      4.99664         0.019382      0.015632     -0.123346
      9.67006      7.71157      4.99333         0.042930      0.129735      0.094589
      7.17143      7.81748      5.18228        -0.014645     -0.040455      0.034689
      5.29940      0.29561      4.91544         0.170466     -0.060997     -0.039754
      4.57357      5.70683     10.04922         0.016361      0.019099      0.024986
    total drift:                                0.014289      0.025127      0.009801

  FREE ENERGIE OF THE ION-ELECTRON SYSTEM (eV)
  free  energy   TOTEN  =      -538.41196703 eV

  energy  without entropy=     -538.42345862  energy(sigma->0) =     -538.41579756

 d Force = 0.1949226E-02[ 0.103E-02, 0.287E-02]  d Energy = 0.2005828E-02-0.566E-04
 d Force = 0.3048413E+02[ 0.305E+02, 0.305E+02]  d Ewald  = 0.3048411E+02 0.218E-04

 Conjugate gradient step on ions:
 trial-energy change:   -0.002006  1 .order   -0.001949   -0.002872   -0.001027
  (g-gl).g = 0.168E-02      g.g   = 0.163E-02  gl.gl    = 0.343E-02
 g(Force)  = 0.163E-02   g(Stress)= 0.000E+00 ortho     =-0.190E-04
 gamma     =   0.49040
 trial     =   1.76997
 opt step  =   2.54849  (harmonic =   2.75481) maximal distance =0.01256621
 next E    =  -538.412198   (d E  =  -0.00224)

 reached required accuracy - stopping structural energy minimisation