 vasp.5.4.4.18Apr17-6-g9f103f2a35 (build Oct 25 2019 11:13:22) complex

 executed on             LinuxIFC date 2021.10.30  02:09:11

 INCAR:
 POTCAR:    PAW_PBE Pt 04Feb2005
 POTCAR:    PAW_PBE Fe 06Sep2000
 POTCAR:    PAW_PBE Co 02Aug2007
 POTCAR:    PAW_PBE Cu 22Jun2005
 POTCAR:    PAW_PBE Ni 02Aug2007
 POTCAR:    PAW_PBE H 15Jun2001
 POTCAR:    PAW_PBE Pt 04Feb2005
   VRHFIN =Pt: s1d9

   TITEL  = PAW_PBE Pt 04Feb2005
   POMASS =  195.080; ZVAL   =   10.000    mass and valenz
   ENMAX  =  230.283; ENMIN  =  172.712 eV

 POTCAR:    PAW_PBE Fe 06Sep2000
   VRHFIN =Fe:  d7 s1

   TITEL  = PAW_PBE Fe 06Sep2000
   POMASS =   55.847; ZVAL   =    8.000    mass and valenz
   ENMAX  =  267.882; ENMIN  =  200.911 eV

 POTCAR:    PAW_PBE Co 02Aug2007
   VRHFIN =Co: d8 s1

   TITEL  = PAW_PBE Co 02Aug2007
   POMASS =   58.933; ZVAL   =    9.000    mass and valenz
   ENMAX  =  267.968; ENMIN  =  200.976 eV

 POTCAR:    PAW_PBE Cu 22Jun2005
   VRHFIN =Cu: d10 p1

   TITEL  = PAW_PBE Cu 22Jun2005
   POMASS =   63.546; ZVAL   =   11.000    mass and valenz
   ENMAX  =  295.446; ENMIN  =  221.585 eV

 POTCAR:    PAW_PBE Ni 02Aug2007
   VRHFIN =Ni:

   TITEL  = PAW_PBE Ni 02Aug2007
   POMASS =   58.690; ZVAL   =   10.000    mass and valenz
   ENMAX  =  269.532; ENMIN  =  202.149 eV

 POTCAR:    PAW_PBE H 15Jun2001
   VRHFIN =H: ultrasoft test

   TITEL  = PAW_PBE H 15Jun2001
   POMASS =    1.000; ZVAL   =    1.000    mass and valenz
   ENMAX  =  250.000; ENMIN  =  200.000 eV

 Optimization of the real space projectors (new method)

 maximal supplied QI-value         = 14.36
 optimisation between [QCUT,QGAM] = [ 11.92, 23.98] = [ 39.79,161.09] Ry
 Optimized for a Real-space Cutoff    1.49 Angstroem

   l    n(q)    QCUT    max X(q) W(low)/X(q) W(high)/X(q)  e(spline)
   2     10    11.920    66.195    0.79E-04    0.18E-03    0.24E-06
   2     10    11.920    64.643    0.81E-04    0.19E-03    0.24E-06
   0     11    11.920    95.520    0.28E-04    0.54E-04    0.18E-06
   0     11    11.920    63.403    0.27E-04    0.52E-04    0.17E-06
   1     10    11.920    19.961    0.18E-04    0.11E-03    0.23E-06
   1     10    11.920    13.289    0.25E-04    0.87E-04    0.19E-06
 Optimization of the real space projectors (new method)

[...]

   l    n(q)    QCUT    max X(q) W(low)/X(q) W(high)/X(q)  e(spline)
   2      9    11.864    60.317    0.21E-03    0.51E-03    0.25E-06
   2      9    11.864    55.921    0.21E-03    0.51E-03    0.26E-06
   0      9    11.864    51.690    0.22E-03    0.30E-04    0.17E-06
   0      9    11.864    30.015    0.20E-03    0.28E-04    0.15E-06
   1      9    11.864    18.849    0.76E-04    0.33E-03    0.17E-06
   1      9    11.864    14.624    0.60E-04    0.28E-03    0.15E-06
 Optimization of the real space projectors (new method)

 maximal supplied QI-value         = 34.20
 optimisation between [QCUT,QGAM] = [ 11.97, 23.94] = [ 40.13,160.53] Ry
 Optimized for a Real-space Cutoff    1.18 Angstroem

   l    n(q)    QCUT    max X(q) W(low)/X(q) W(high)/X(q)  e(spline)
   0      8    11.971    19.460    0.15E-03    0.31E-03    0.25E-06
   0      8    11.971    12.209    0.13E-03    0.29E-03    0.25E-06
   1      8    11.971     4.655    0.22E-03    0.24E-03    0.21E-06
  PAW_PBE Pt 04Feb2005                  :
  PAW_PBE Fe 06Sep2000                  :
  PAW_PBE Co 02Aug2007                  :
  PAW_PBE Cu 22Jun2005                  :
  PAW_PBE Ni 02Aug2007                  :
  PAW_PBE H 15Jun2001                   :

 POSCAR: 11.26-high
  positions in direct lattice
  velocities in cartesian coordinates
 exchange correlation table for  LEXCH =        8
   RHO(1)=    0.500       N(1)  =     2000
   RHO(2)=  100.500       N(2)  =     4000

 ion  position               nearest neighbor table
   1  0.776  0.870  0.315-  56 2.59  32 2.67  15 2.74  33 2.75  65 2.77  23 2.78   8 2.78  40 2.79
                            16 2.83  41 2.87   3 2.88   2 2.93
   2  0.037  0.869  0.316-  38 2.65  79 2.66  32 2.76  26 2.76   8 2.79  34 2.81  58 2.81  10 2.81
                            41 2.83   3 2.83  20 2.84   1 2.93
   3  0.036  0.617  0.313-  50 2.60  68 2.63  32 2.69   6 2.81   9 2.81   4 2.81   2 2.83  20 2.84
                            33 2.85  34 2.86  16 2.87   1 2.88
   4  0.028  0.371  0.319-  50 2.61  36 2.68  42 2.70  11 2.72  77 2.76   9 2.77  14 2.77  33 2.80
                             3 2.81  26 2.83   6 2.88   5 2.96
   5  0.290  0.106  0.318-  61 2.55  36 2.68  12 2.69  39 2.69  58 2.70  26 2.77  65 2.77  14 2.78
                            17 2.79  23 2.80   6 2.92   4 2.96
   6  0.287  0.368  0.317-  68 2.59  71 2.62  36 2.71  23 2.75  29 2.76   9 2.80  17 2.81   3 2.81
                            34 2.86   4 2.88  22 2.90   5 2.92
   7  0.860  0.689  0.125-  74 2.52  43 2.54  45 2.59  55 2.63  60 2.65  50 2.65  56 2.66  32 2.70
                            72 2.71  25 2.83  64 3.07
   8  0.861  0.955  0.416-  15 2.76  21 2.77   1 2.78  41 2.78   2 2.79  16 2.80  13 2.83  20 2.87
                            10 2.94
   9  0.115  0.456  0.419-  20 2.72   4 2.77  16 2.78  11 2.79   6 2.80  29 2.81   3 2.81  14 2.84
                            17 2.90
  10  0.124  0.953  0.420-  58 2.71  14 2.76  26 2.76  12 2.78   2 2.81  18 2.83  13 2.87  20 2.90
                             8 2.94
  11  0.870  0.449  0.421-   4 2.72  77 2.72  19 2.74  13 2.76  14 2.79   9 2.79  33 2.82  31 2.82
                            16 2.83
  12  0.375  0.947  0.418-  81 1.87   5 2.69  65 2.70  58 2.70  18 2.72  15 2.74  31 2.75  10 2.78
                            17 2.79  14 2.86
  13  0.866  0.205  0.416-  77 2.72  11 2.76  21 2.77  26 2.77  41 2.77  19 2.78  14 2.83   8 2.83
                            10 2.87
  14  0.120  0.201  0.420-  10 2.76   4 2.77   5 2.78  11 2.79  26 2.81  17 2.81  13 2.83   9 2.84
                            12 2.86
  15  0.619  0.946  0.418-   1 2.74  12 2.74  16 2.75  65 2.75  31 2.76   8 2.76  17 2.79  23 2.81
                            21 2.92
  16  0.867  0.703  0.420-  15 2.75  20 2.76  33 2.77   9 2.78  31 2.79   8 2.80   1 2.83  11 2.83
                             3 2.87
  17  0.372  0.197  0.420-  23 2.75  12 2.79   5 2.79  15 2.79   6 2.81  14 2.81  21 2.82  29 2.83
                             9 2.90
  18  0.378  0.703  0.417-  81 1.85  51 2.60  58 2.67  31 2.69  12 2.72  34 2.74  19 2.75  10 2.83
                            29 2.89  20 2.98
  19  0.622  0.456  0.419-  51 2.65  77 2.66  31 2.72  22 2.73  11 2.74  18 2.75  13 2.78  21 2.82
                            29 2.88
  20  0.115  0.699  0.421-   9 2.72  16 2.76  29 2.81  34 2.82   3 2.84   2 2.84   8 2.87  10 2.90
                            18 2.98
  21  0.619  0.206  0.417-  22 2.75  13 2.77   8 2.77  23 2.77  29 2.78  41 2.80  17 2.82  19 2.82
                            15 2.92
  22  0.541  0.377  0.317-  70 2.59  30 2.64  71 2.64  77 2.68  51 2.70  19 2.73  21 2.75  34 2.79
                            41 2.80  29 2.80   6 2.90  23 2.92
  23  0.532  0.121  0.317-  71 2.65  40 2.70  39 2.75  17 2.75   6 2.75  21 2.77   1 2.78   5 2.80
                            15 2.81  41 2.84  22 2.92  65 2.94
  24  0.544  0.120  0.050-  46 2.53  63 2.54  55 2.60  43 2.70  66 2.73  54 2.84  62 2.84  52 2.87
                            67 2.92
  25  0.114  0.439  0.123-  54 2.49  48 2.53  45 2.58  36 2.70  73 2.70  63 2.75  50 2.75  68 2.78
                             7 2.83  72 2.85  64 2.94  76 3.11
  26  0.039  0.114  0.316-  79 2.55  61 2.63  42 2.67   2 2.76  10 2.76  13 2.77   5 2.77  58 2.79
                            14 2.81  41 2.82   4 2.83  77 2.96
  27  0.024  0.132  0.037-  48 2.54  49 2.59  73 2.61  28 2.65  78 2.71  59 2.73  66 2.74  52 2.92
                            44 3.11
  28  0.115  0.958  0.130-  59 2.54  79 2.58  44 2.59  38 2.63  27 2.65  61 2.66  69 2.68  73 2.69
                            47 2.79  49 2.84  35 2.87  64 2.93
  29  0.368  0.451  0.419-   6 2.76  34 2.77  21 2.78  22 2.80   9 2.81  20 2.81  17 2.83  19 2.88
                            18 2.89
  30  0.456  0.540  0.221-  76 2.51  57 2.56  22 2.64  34 2.68  51 2.72  37 2.72  35 2.73  80 2.74
                            71 2.76  38 2.79  70 2.79  68 2.85
  31  0.619  0.700  0.421-  81 1.85  51 2.68  18 2.69  65 2.72  19 2.72  33 2.75  12 2.75  15 2.76
                            16 2.79  11 2.82
  32  0.941  0.791  0.218-  64 2.57  69 2.60   1 2.67   3 2.69   7 2.70   2 2.76  56 2.78  40 2.87
                            50 2.87  79 2.91  68 3.02  38 3.04
  33  0.780  0.622  0.318-  56 2.60  37 2.62  50 2.62  65 2.69  77 2.73  31 2.75  51 2.75   1 2.75
                            16 2.77   4 2.80  11 2.82   3 2.85
  34  0.289  0.621  0.318-  38 2.67  30 2.68  68 2.74  18 2.74  58 2.75  29 2.77  51 2.77  22 2.79
                             2 2.81  20 2.82   6 2.86   3 2.86
  35  0.377  0.709  0.122-  53 2.48  75 2.55  59 2.60  47 2.62  60 2.68  30 2.73  80 2.74  38 2.75
                            57 2.85  76 2.87  28 2.87  64 2.87
  36  0.198  0.277  0.223-  73 2.54  63 2.54   4 2.68   5 2.68  25 2.70   6 2.71  61 2.76  42 2.81
                            68 2.83  50 2.84  39 2.91  71 2.97
  37  0.694  0.548  0.222-  72 2.55  60 2.56  57 2.60  33 2.62  56 2.63  80 2.66  51 2.69  77 2.70
                            30 2.72  50 2.75  70 2.82  42 2.88
  38  0.211  0.792  0.224-  64 2.58  58 2.59  61 2.62  28 2.63   2 2.65  34 2.67  80 2.70  35 2.75
                            30 2.79  79 2.85  68 3.02  32 3.04
  39  0.456  0.016  0.221-  47 2.49  55 2.60  80 2.62  63 2.64  65 2.65  61 2.65   5 2.69  56 2.69
                            23 2.75  40 2.78  36 2.91  71 3.11
  40  0.686  0.047  0.215-  46 2.52  69 2.55  55 2.59  23 2.70  71 2.71  41 2.74  39 2.78   1 2.79
                            70 2.86  32 2.87  56 2.93  79 2.99
  41  0.785  0.121  0.313-  70 2.55  79 2.58  40 2.74  13 2.77   8 2.78  21 2.80  22 2.80  26 2.82
                             2 2.83  23 2.84  77 2.87   1 2.87
  42  0.943  0.286  0.222-  49 2.49  72 2.55  70 2.65  26 2.67  79 2.67  73 2.68  77 2.70   4 2.70
                            50 2.78  36 2.81  37 2.88  61 3.01
  43  0.787  0.882  0.049-  55 2.41  69 2.50   7 2.54  44 2.64  24 2.70  66 2.72  45 2.88  67 2.95

  44  0.036  0.851  0.047-  45 2.41  69 2.53  64 2.55  28 2.59  43 2.64  75 2.68  59 3.07  27 3.11

  45  0.048  0.630  0.044-  44 2.41  75 2.46  64 2.49  25 2.58   7 2.59  54 2.82  43 2.88
  46  0.621  0.226  0.132-  70 2.50  62 2.51  57 2.51  40 2.52  24 2.53  66 2.58  76 2.58  71 2.59
                            49 2.65  69 2.81  63 2.90
  47  0.371  0.944  0.131-  59 2.38  52 2.40  39 2.49  67 2.54  61 2.56  35 2.62  80 2.62  60 2.68
                            73 2.76  55 2.77  28 2.79
  48  0.994  0.372  0.045-  72 2.33  78 2.48  74 2.51  25 2.53  27 2.54  73 2.62
  49  0.863  0.212  0.131-  78 2.43  42 2.49  66 2.56  70 2.57  27 2.59  79 2.61  72 2.63  69 2.64
                            46 2.65  57 2.68  28 2.84  73 2.86
  50  0.946  0.532  0.224-   3 2.60   4 2.61  33 2.62  72 2.64   7 2.65  37 2.75  25 2.75  56 2.78
                            42 2.78  36 2.84  32 2.87  68 2.92
  51  0.537  0.619  0.323-  18 2.60  80 2.64  19 2.65  65 2.67  31 2.68  37 2.69  77 2.69  22 2.70
[...]

 FORCES acting on ions
    electron-ion (+dipol)            ewald-force                    non-local-force                 convergence-correction
   -.674E+02 -.466E+00 -.130E+04   0.663E+02 0.260E+00 0.129E+04   0.975E+00 0.211E+00 0.141E+01   0.387E-01 0.107E-01 -.106E-02
   0.443E+02 0.341E+02 -.132E+04   -.438E+02 -.339E+02 0.132E+04   -.548E+00 -.213E+00 0.162E+01   0.333E-01 0.148E-01 0.134E-01
   0.117E+02 -.253E+02 -.128E+04   -.119E+02 0.246E+02 0.128E+04   0.165E+00 0.725E+00 0.228E+01   0.448E-01 0.320E-01 0.855E-02
   -.416E+02 0.750E+00 -.135E+04   0.409E+02 -.108E+00 0.135E+04   0.646E+00 -.647E+00 0.160E+01   -.355E-01 -.990E-02 0.778E-02
   -.975E+00 -.785E+02 -.137E+04   0.413E+00 0.772E+02 0.137E+04   0.566E+00 0.140E+01 0.165E+01   -.238E-01 -.411E-01 0.260E-02
   0.510E+02 0.308E+01 -.140E+04   -.507E+02 -.318E+01 0.140E+04   -.288E+00 0.796E-01 0.167E+01   0.185E-01 0.307E-01 -.234E-01
   -.121E+03 -.424E+01 0.153E+04   0.120E+03 0.492E+01 -.154E+04   0.970E+00 -.727E+00 0.669E+00   -.273E-01 0.366E-01 -.669E-01
   -.345E+01 -.210E+01 -.265E+04   0.362E+01 0.188E+01 0.265E+04   -.245E+00 0.239E+00 0.163E+01   0.648E-01 -.134E-01 -.404E-02
   -.111E+02 0.113E+02 -.266E+04   0.108E+02 -.106E+02 0.266E+04   0.290E+00 -.810E+00 0.152E+01   0.123E-01 0.381E-01 0.206E-01
   0.326E+02 -.667E+01 -.267E+04   -.326E+02 0.648E+01 0.267E+04   0.420E-01 0.214E+00 0.239E+01   -.233E-01 -.257E-01 -.313E-01
   -.390E+02 0.239E+01 -.270E+04   0.390E+02 -.306E+01 0.270E+04   0.155E-01 0.700E+00 0.183E+01   -.118E-01 -.199E-01 0.822E-02
   0.133E+02 -.429E+02 -.270E+04   -.135E+02 0.439E+02 0.270E+04   0.203E+00 -.105E+01 0.187E+01   -.570E-01 -.284E-01 -.790E-02
   -.527E+00 0.437E+02 -.266E+04   0.265E+00 -.433E+02 0.266E+04   0.267E+00 -.330E+00 0.166E+01   0.103E-02 -.234E-01 -.153E-01
   -.504E+01 -.114E+02 -.268E+04   0.515E+01 0.114E+02 0.268E+04   -.437E-01 0.528E-01 0.161E+01   -.410E-01 -.298E-01 0.146E-01
   -.386E+02 -.344E+02 -.268E+04   0.390E+02 0.337E+02 0.268E+04   -.403E+00 0.701E+00 0.166E+01   0.268E-01 -.138E-01 0.231E-01
   -.413E+02 0.213E+01 -.266E+04   0.408E+02 -.186E+01 0.266E+04   0.478E+00 -.314E+00 0.137E+01   0.306E-01 0.162E-01 0.170E-01
   0.119E+01 -.330E+02 -.269E+04   -.850E+00 0.323E+02 0.268E+04   -.347E+00 0.696E+00 0.174E+01   0.401E-02 0.103E-01 0.290E-01
   0.596E+02 0.188E+02 -.268E+04   -.592E+02 -.189E+02 0.267E+04   -.317E+00 0.272E-01 0.160E+01   -.613E-01 0.311E-01 -.770E-02
   0.378E+02 0.182E+02 -.272E+04   -.369E+02 -.179E+02 0.271E+04   -.888E+00 -.250E+00 0.228E+01   0.408E-02 -.361E-01 0.219E-01
   0.131E+02 -.844E+01 -.266E+04   -.132E+02 0.820E+01 0.265E+04   0.372E-01 0.201E+00 0.140E+01   0.316E-01 0.307E-01 -.770E-02
   0.546E+01 0.235E+02 -.268E+04   -.544E+01 -.229E+02 0.268E+04   -.798E-01 -.575E+00 0.194E+01   0.388E-01 -.166E-02 0.109E-01
   0.484E+02 -.743E+00 -.142E+04   -.470E+02 0.154E+01 0.142E+04   -.139E+01 -.788E+00 0.135E+01   0.221E-01 -.164E-01 -.263E-01
   -.278E+01 0.160E+02 -.135E+04   0.245E+01 -.158E+02 0.135E+04   0.264E+00 -.240E+00 0.116E+01   0.245E-01 0.281E-02 -.284E-01
   0.821E+02 0.606E+02 0.270E+04   -.819E+02 -.608E+02 -.270E+04   -.305E+00 0.875E-01 -.264E+01   0.546E-03 0.648E-01 -.419E-01
   0.521E+02 -.337E+02 0.159E+04   -.528E+02 0.336E+02 -.160E+04   0.632E+00 0.145E+00 0.143E+01   0.137E+00 -.405E-02 -.877E-01
   -.159E+02 -.155E+02 -.135E+04   0.161E+02 0.152E+02 0.135E+04   -.706E-01 0.395E+00 0.186E+01   -.493E-01 -.403E-01 0.240E-01
   -.789E+02 0.858E+02 0.283E+04   0.796E+02 -.845E+02 -.283E+04   -.640E+00 -.134E+01 -.294E+01   -.461E-01 -.272E-01 -.363E-01
   -.154E+02 0.282E+02 0.149E+04   0.151E+02 -.281E+02 -.149E+04   0.311E+00 -.925E-01 -.338E+00   -.448E-01 -.471E-01 -.496E-01
   0.123E+02 0.764E+01 -.269E+04   -.129E+02 -.766E+01 0.269E+04   0.584E+00 -.547E-01 0.188E+01   0.403E-02 0.419E-01 0.164E-01
   0.939E+01 -.806E+02 0.368E+01   -.907E+01 0.799E+02 -.417E+01   -.348E+00 0.690E+00 0.619E+00   -.198E-01 -.218E-01 -.103E+00
   -.336E+02 0.136E+02 -.271E+04   0.339E+02 -.142E+02 0.271E+04   -.222E+00 0.569E+00 0.153E+01   0.203E-02 0.137E-01 0.232E-01
   0.235E+02 0.317E+02 0.990E+02   -.242E+02 -.324E+02 -.991E+02   0.761E+00 0.720E+00 0.983E-01   0.428E-01 0.257E-01 -.373E-01
   -.786E+02 0.225E+02 -.136E+04   0.775E+02 -.221E+02 0.135E+04   0.111E+01 -.384E+00 0.214E+01   -.116E-01 -.115E-01 -.139E-02
   0.456E+02 -.130E+02 -.138E+04   -.442E+02 0.138E+02 0.138E+04   -.141E+01 -.786E+00 0.101E+01   -.116E-01 0.583E-01 0.179E-03
   0.406E+02 -.782E+02 0.159E+04   -.392E+02 0.782E+02 -.159E+04   -.138E+01 -.161E-01 0.135E+01   0.102E-02 -.745E-01 -.846E-01
   0.399E+02 -.295E+02 0.262E+01   -.403E+02 0.296E+02 -.317E+01   0.405E+00 0.252E-01 0.578E+00   0.398E-01 0.266E-01 -.441E-01
   -.478E+02 -.876E+01 0.296E+01   0.483E+02 0.100E+02 -.357E+01   -.456E+00 -.125E+01 0.738E+00   -.279E-01 -.257E-01 -.974E-01
   0.484E+02 -.171E+01 0.251E+02   -.476E+02 0.285E+01 -.249E+02   -.868E+00 -.112E+01 -.186E+00   -.236E-01 -.236E-01 -.328E-02
   -.305E+02 -.553E+02 0.851E+02   0.295E+02 0.537E+02 -.865E+02   0.106E+01 0.160E+01 0.158E+01   0.254E-01 0.157E-02 -.420E-01
   0.163E+02 0.776E+02 0.139E+03   -.166E+02 -.768E+02 -.141E+03   0.388E+00 -.858E+00 0.162E+01   0.386E-01 0.194E-01 -.433E-01
   0.204E+02 0.715E+02 -.134E+04   -.201E+02 -.711E+02 0.134E+04   -.307E+00 -.370E+00 0.147E+01   0.416E-01 0.344E-02 -.169E-01
   -.107E+03 0.465E+00 0.281E+02   0.106E+03 -.610E+00 -.293E+02   0.952E+00 0.103E+00 0.128E+01   -.735E-01 0.536E-02 -.878E-02
   -.602E+00 0.746E+02 0.220E+04   0.176E+01 -.741E+02 -.220E+04   -.121E+01 -.474E+00 -.363E+01   -.902E-04 0.185E-01 -.286E-01
   -.190E+02 -.161E+02 0.222E+04   0.173E+02 0.143E+02 -.222E+04   0.176E+01 0.197E+01 -.306E+01   -.416E-02 -.918E-02 -.136E-01
   0.122E+03 0.273E+02 0.225E+04   -.120E+03 -.260E+02 -.224E+04   -.203E+01 -.132E+01 -.399E+01   0.702E-01 -.231E-01 -.115E-01
   0.424E+02 0.106E+03 0.112E+04   -.419E+02 -.106E+03 -.112E+04   -.590E+00 -.247E+00 -.654E+00   -.148E-01 0.422E-01 -.572E-01
   0.900E+01 -.394E+02 0.114E+04   -.884E+01 0.392E+02 -.114E+04   -.218E+00 0.148E+00 -.547E+00   0.249E-01 -.529E-01 -.651E-01
   -.212E+03 0.613E+01 0.225E+04   0.209E+03 -.635E+01 -.224E+04   0.270E+01 0.167E+00 -.344E+01   0.400E-02 0.129E-01 -.212E-01
   -.616E+02 0.685E+02 0.113E+04   0.614E+02 -.675E+02 -.113E+04   0.335E+00 -.107E+01 -.688E+00   -.426E-01 0.153E-01 -.241E-01
   -.535E+02 -.108E+02 0.340E+02   0.529E+02 0.107E+02 -.335E+02   0.575E+00 -.208E-02 -.651E+00   -.488E-02 0.327E-02 -.372E-01
   0.236E+02 0.370E+01 -.115E+04   -.235E+02 -.389E+01 0.115E+04   -.328E-03 0.102E+00 -.235E+00   -.232E-01 0.983E-02 0.354E-02
   -.290E+02 -.104E+03 0.220E+04   0.283E+02 0.102E+03 -.220E+04   0.704E+00 0.259E+01 -.313E+01   0.575E-01 0.196E-01 -.375E-01
   0.105E+03 -.140E+03 0.252E+04   -.104E+03 0.139E+03 -.252E+04   -.126E+01 0.104E+01 -.309E+01   -.298E-01 -.855E-02 0.233E-01
   0.201E+03 0.808E+02 0.252E+04   -.200E+03 -.796E+02 -.252E+04   -.117E+01 -.139E+01 -.300E+01   0.678E-01 0.212E-01 -.180E-01
   -.496E+02 -.579E+02 0.131E+04   0.494E+02 0.574E+02 -.131E+04   0.226E+00 0.647E+00 -.569E+00   0.977E-02 -.226E-01 -.882E-01
   -.957E+02 -.227E+01 0.367E+02   0.955E+02 0.204E+01 -.368E+02   0.231E+00 0.260E+00 0.153E+00   -.164E-01 -.797E-02 -.606E-01
   -.165E+01 -.471E+02 0.122E+04   0.188E+01 0.464E+02 -.122E+04   -.239E+00 0.770E+00 -.445E+00   -.239E-01 0.293E-01 -.634E-01
   0.468E+02 0.649E+01 -.126E+04   -.466E+02 -.653E+01 0.126E+04   -.292E+00 0.752E-01 0.353E+00   -.439E-01 -.101E-01 0.393E-01
   0.708E+02 0.480E+02 0.255E+04   -.701E+02 -.461E+02 -.254E+04   -.717E+00 -.186E+01 -.408E+01   -.751E-03 -.567E-01 -.216E-01
   -.544E+01 -.357E+02 0.127E+04   0.566E+01 0.361E+02 -.127E+04   -.223E+00 -.371E+00 -.420E+00   -.308E-01 -.358E-01 -.702E-01
[...]
   0.120E+03 -.523E+02 0.276E+02   -.120E+03 0.515E+02 -.269E+02   -.389E-01 0.789E+00 -.665E+00   0.559E-01 0.109E-01 -.888E-01
   0.397E+02 0.113E+03 0.157E+04   -.395E+02 -.113E+03 -.157E+04   -.280E+00 -.701E+00 -.128E+01   -.901E-02 -.522E-02 -.649E-01
   -.126E+02 0.396E+02 -.198E+02   0.133E+02 -.400E+02 0.198E+02   -.631E+00 0.433E+00 -.138E-01   0.105E-01 0.968E-02 -.396E-01
   0.500E+02 0.729E+02 -.333E+02   -.495E+02 -.723E+02 0.335E+02   -.506E+00 -.670E+00 -.946E-01   0.230E-01 0.416E-01 -.979E-01
   -.149E+03 -.721E+01 0.134E+04   0.148E+03 0.707E+01 -.134E+04   0.759E+00 0.136E+00 -.938E+00   -.883E-01 0.400E-01 -.282E-01
   -.221E+02 -.111E+02 0.146E+04   0.225E+02 0.109E+02 -.146E+04   -.477E+00 0.260E+00 -.753E+00   0.965E-02 0.108E-01 -.473E-01
   -.204E+03 -.116E+03 0.285E+04   0.204E+03 0.114E+03 -.285E+04   0.521E+00 0.136E+01 -.259E+01   -.723E-01 0.460E-01 0.174E-01
   -.197E+02 -.126E+03 0.282E+04   0.178E+02 0.126E+03 -.282E+04   0.199E+01 0.265E+00 -.165E+01   0.154E-01 -.119E+00 -.221E-02
   0.621E+02 -.397E+02 0.140E+04   -.613E+02 0.395E+02 -.140E+04   -.838E+00 0.303E+00 -.592E+00   -.390E-01 -.393E-03 -.165E+00
   -.538E+02 0.125E+02 -.139E+04   0.535E+02 -.122E+02 0.139E+04   0.419E+00 -.358E+00 0.503E-02   -.769E-02 -.499E-01 -.229E-01
   -.595E+02 0.500E+02 0.281E+04   0.600E+02 -.494E+02 -.281E+04   -.301E+00 -.627E+00 -.129E+01   -.832E-01 0.297E-01 -.167E-02
   -.114E+02 0.597E+02 0.198E+02   0.118E+02 -.594E+02 -.196E+02   -.361E+00 -.391E+00 -.324E+00   -.336E-01 -.480E-02 -.608E-02
   0.382E+02 0.699E+01 0.181E+01   -.379E+02 -.676E+01 -.156E+01   -.329E+00 -.267E+00 -.285E+00   -.127E-01 -.278E-01 -.567E-01
   0.117E+01 -.204E+01 -.319E+03   -.113E+01 0.215E+01 0.321E+03   -.739E-01 -.147E+00 -.142E+01   -.282E-02 0.849E-03 0.241E-02
   -.241E+00 0.885E+00 0.648E+01   0.274E-12 0.455E-12 -.249E-10   0.413E+00 -.806E+00 -.443E+01   -.174E+00 -.552E-01 -.201E+01

 POSITION                                       TOTAL-FORCE (eV/Angst)
     13.58676      8.45807      6.92336        -0.014162     -0.000909     -0.013719
      5.27440      8.45197      6.92730         0.025201     -0.006267      0.016908
      3.86567      5.98645      6.87852        -0.006879      0.013402     -0.001982
      2.40142      3.60537      7.01260        -0.004147     -0.002770      0.001172
      3.85251      1.03005      7.00550        -0.011636      0.005352      0.031680
      5.28031      3.57254      6.97853         0.001838      0.002325      0.003112
     13.51950      6.69208      2.75694        -0.024142     -0.015513      0.013612
     15.09478      9.25213      9.16645        -0.009030     -0.002099      0.002370
      3.85143      4.44544      9.22634        -0.013017     -0.004133     -0.003239
      6.67893      9.23292      9.17030         0.017493      0.001244      0.015156
     12.28737      4.34935      9.26010         0.006903      0.005224     -0.003406
      9.49127      9.25703      9.24346        -0.007624      0.003427     -0.011779
     10.88088      1.98341      9.14354         0.001296      0.015212      0.008673
      2.47180      1.95180      9.24666         0.019052     -0.005104     -0.016573
     12.29844      9.21859      9.19075         0.005434      0.019314      0.009353
     13.68874      6.84412      9.23230         0.002679     -0.007202     -0.006491
      5.28839      1.91787      9.23842         0.004073     -0.007563     -0.011766
      8.10025      6.81751      9.22458         0.018535      0.000756      0.022033
      9.54916      4.40419      9.22074         0.027498     -0.006205      0.009069
      5.25456      6.81644      9.20682        -0.012842      0.002233      0.009436
      8.09040      1.99950      9.17567        -0.008642     -0.007555      0.007845
      8.17975      3.65545      6.98961         0.002272      0.019071     -0.009205
      6.64563      1.18271      6.95723        -0.002086     -0.006965      0.017719
      6.78185      1.16816      1.10976        -0.015487      0.004132     -0.001275
      3.74327      4.26289      2.71491         0.010817      0.012933     -0.018548
      1.08176      1.10947      6.94412         0.009936      0.000108     -0.005979
      1.01575      1.28649      0.81183         0.010320     -0.000819      0.016820
      6.67142      9.31568      2.85544        -0.003038      0.015338     -0.027833
      6.64741      4.39757      9.22986         0.001300     -0.028511      0.001570
      8.14285      5.24496      4.86976         0.002896      0.033437      0.016564
     10.91845      6.78822      9.28518        -0.008774      0.002725      0.014502
     14.99686      7.68362      4.79411        -0.011041     -0.009685     -0.026599
     12.24309      6.05002      7.00292         0.010649     -0.011552     -0.013761
      6.74120      6.04042      6.99953        -0.018211     -0.009647     -0.038862
      8.20780      6.89173      2.69128        -0.005779      0.002359     -0.013975
      3.77766      2.69345      4.90572        -0.012247      0.032791     -0.065852
     10.86552      5.33036      4.88657        -0.004662      0.025036      0.021114
      6.80891      7.69639      4.91949         0.026823     -0.006205      0.057945
      5.20720      0.16029      4.85410        -0.014295     -0.021765      0.021461
      7.96508      0.45571      4.72390         0.012624      0.004629     -0.021742
      9.48000      1.18003      6.89150        -0.004112     -0.000093     -0.012228
     12.19222      2.77766      4.87496         0.016952      0.020580      0.014857
     13.78001      8.57392      1.07376        -0.006708     -0.019878     -0.000176
      5.17612      8.26819      1.02395         0.015754      0.009850     -0.000799
      4.07688      6.12594      0.96722         0.018126      0.004722      0.011768
      8.23477      2.19285      2.91186         0.004636     -0.007029     -0.000280
      9.46232      9.17873      2.88867        -0.000476      0.003996     -0.010825
     13.23829      3.61532      0.98546         0.004646     -0.004633      0.003664
     10.87798      2.06279      2.87872        -0.006451     -0.007704     -0.001952
     13.60649      5.17210      4.92826         0.012388     -0.017264     -0.026582
      9.49594      6.02163      7.12864         0.005102     -0.009251     -0.026962
      3.91652      1.06390      1.10530         0.009221      0.000586      0.036768
      9.69052      5.79723      1.02825        -0.017929     -0.005311      0.006621
      5.55996      3.72993      1.09992        -0.005054     -0.030281     -0.000063
     12.22782      8.97667      2.86865        -0.003664      0.006265      0.002204
     12.22062      7.58099      4.89646        -0.023506     -0.014594      0.017030
      9.50033      4.35926      2.89266        -0.002488      0.004490     -0.006852
      8.10249      8.43259      7.04640         0.006703     -0.007311     -0.003039
      8.20297      8.78072      0.90411         0.009326      0.009736     -0.001001
     10.87946      6.90186      2.86164        -0.023273     -0.003720      0.003734
[...]
     10.84088      8.41789      0.89812        -0.019029      0.013029     -0.003139
      5.29878      5.08233      4.87221         0.013426      0.002560     -0.030670
     15.21969      9.46320      2.91158         0.011474      0.003993      0.008379
      9.54798      2.83243      4.93973        -0.007275     -0.001673     -0.010610
      6.74099      2.86414      4.91726         0.019032      0.013888     -0.007457
     12.12718      4.37157      2.88927         0.005922     -0.005378     -0.006048
      2.50652      1.86558      2.87455        -0.002272      0.007775     -0.001450
     12.02738      5.81407      0.92547        -0.019044     -0.002774     -0.001462
      6.52756      5.95530      1.01982        -0.002770     -0.041895     -0.000691
      6.84854      4.37406      2.90086        -0.013433     -0.009071      0.012434
     10.85460      3.69260      7.02957        -0.002092      0.002967      0.000804
     10.75754      3.55271      0.95995        -0.000917     -0.000163      0.002222
     10.94499      0.41654      4.90182         0.004263      0.017956     -0.017205
      9.50574      7.61774      4.99769        -0.009310      0.009328      0.059740
      9.47695      7.58267     10.15721        -0.040421     -0.028835     -0.001698
    total drift:                               -0.001096      0.023883      0.034524

  FREE ENERGIE OF THE ION-ELECTRON SYSTEM (eV)
  free  energy   TOTEN  =      -507.84571245 eV

  energy  without entropy=     -507.84994487  energy(sigma->0) =     -507.84712325

 d Force =-0.4398847E-05[-0.469E-04, 0.381E-04]  d Energy = 0.3993409E-04-0.443E-04
 d Force = 0.6608048E-01[ 0.657E-01, 0.664E-01]  d Ewald  = 0.6608117E-01-0.698E-06

 reached required accuracy - stopping structural energy minimisation