 vasp.5.4.4.18Apr17-6-g9f103f2a35 (build Oct 25 2019 11:13:22) complex

 executed on             LinuxIFC date 2022.02.08  07:43:54

 INCAR:
 POTCAR:    PAW_PBE Pt 04Feb2005
 POTCAR:    PAW_PBE Fe 06Sep2000
 POTCAR:    PAW_PBE Co 02Aug2007
 POTCAR:    PAW_PBE Ni 02Aug2007
 POTCAR:    PAW_PBE H 15Jun2001
 POTCAR:    PAW_PBE Pt 04Feb2005
   VRHFIN =Pt: s1d9

   TITEL  = PAW_PBE Pt 04Feb2005
   POMASS =  195.080; ZVAL   =   10.000    mass and valenz
   ENMAX  =  230.283; ENMIN  =  172.712 eV

 POTCAR:    PAW_PBE Fe 06Sep2000
   VRHFIN =Fe:  d7 s1

   TITEL  = PAW_PBE Fe 06Sep2000
   POMASS =   55.847; ZVAL   =    8.000    mass and valenz
   ENMAX  =  267.882; ENMIN  =  200.911 eV

 POTCAR:    PAW_PBE Co 02Aug2007
   VRHFIN =Co: d8 s1

   TITEL  = PAW_PBE Co 02Aug2007
   POMASS =   58.933; ZVAL   =    9.000    mass and valenz
   ENMAX  =  267.968; ENMIN  =  200.976 eV

 POTCAR:    PAW_PBE Ni 02Aug2007
   VRHFIN =Ni:

   TITEL  = PAW_PBE Ni 02Aug2007
   POMASS =   58.690; ZVAL   =   10.000    mass and valenz
   ENMAX  =  269.532; ENMIN  =  202.149 eV

 POTCAR:    PAW_PBE H 15Jun2001
   VRHFIN =H: ultrasoft test

   TITEL  = PAW_PBE H 15Jun2001
   POMASS =    1.000; ZVAL   =    1.000    mass and valenz
   ENMAX  =  250.000; ENMIN  =  200.000 eV

 Optimization of the real space projectors (new method)

 maximal supplied QI-value         = 14.36
 optimisation between [QCUT,QGAM] = [ 11.92, 23.98] = [ 39.79,161.09] Ry
 Optimized for a Real-space Cutoff    1.49 Angstroem

   l    n(q)    QCUT    max X(q) W(low)/X(q) W(high)/X(q)  e(spline)
   2     10    11.920    66.195    0.79E-04    0.18E-03    0.24E-06
   2     10    11.920    64.643    0.81E-04    0.19E-03    0.24E-06
   0     11    11.920    95.520    0.28E-04    0.54E-04    0.18E-06
   0     11    11.920    63.403    0.27E-04    0.52E-04    0.17E-06
   1     10    11.920    19.961    0.18E-04    0.11E-03    0.23E-06
   1     10    11.920    13.289    0.25E-04    0.87E-04    0.19E-06
 Optimization of the real space projectors (new method)

[...]

   l    n(q)    QCUT    max X(q) W(low)/X(q) W(high)/X(q)  e(spline)
   2      9    11.864    60.317    0.21E-03    0.51E-03    0.25E-06
   2      9    11.864    55.921    0.21E-03    0.51E-03    0.26E-06
   0      9    11.864    51.690    0.22E-03    0.30E-04    0.17E-06
   0      9    11.864    30.015    0.20E-03    0.28E-04    0.15E-06
   1      9    11.864    18.849    0.76E-04    0.33E-03    0.17E-06
   1      9    11.864    14.624    0.60E-04    0.28E-03    0.15E-06
 Optimization of the real space projectors (new method)

 maximal supplied QI-value         = 34.20
 optimisation between [QCUT,QGAM] = [ 11.97, 23.94] = [ 40.13,160.53] Ry
 Optimized for a Real-space Cutoff    1.18 Angstroem

   l    n(q)    QCUT    max X(q) W(low)/X(q) W(high)/X(q)  e(spline)
   0      8    11.971    19.460    0.15E-03    0.31E-03    0.25E-06
   0      8    11.971    12.209    0.13E-03    0.29E-03    0.25E-06
   1      8    11.971     4.655    0.22E-03    0.24E-03    0.21E-06
  PAW_PBE Pt 04Feb2005                  :
  PAW_PBE Fe 06Sep2000                  :
  PAW_PBE Co 02Aug2007                  :
  PAW_PBE Ni 02Aug2007                  :
  PAW_PBE H 15Jun2001                   :

 POSCAR: 11.26
  positions in cartesian coordinates
 exchange correlation table for  LEXCH =        8
   RHO(1)=    0.500       N(1)  =     2000
   RHO(2)=  100.500       N(2)  =     4000

 ion  position               nearest neighbor table
   1  0.783  0.871  0.304-  52 2.53  59 2.56  28 2.71  19 2.74   2 2.76  61 2.77  60 2.79  33 2.79
                            29 2.80   4 2.81  11 2.84  12 2.85
   2  0.029  0.870  0.299-  79 2.50  77 2.52   1 2.76  33 2.78  28 2.79  30 2.79   4 2.80   6 2.82
                            16 2.87  60 2.88  22 2.98
   3  0.279  0.360  0.311-  64 2.53  68 2.62  31 2.64  43 2.71   5 2.74  13 2.74  39 2.75  30 2.77
                            25 2.78  19 2.83  33 2.87  18 2.93
   4  0.871  0.958  0.406-  60 2.62   9 2.73  17 2.78   2 2.80  16 2.81   1 2.81  11 2.81   6 2.82
                            12 2.82
   5  0.110  0.459  0.410-  39 2.62  33 2.69  12 2.72   3 2.74   7 2.78  16 2.78  10 2.81  25 2.86
                            13 2.89
   6  0.127  0.947  0.401-  81 1.82  55 2.65  22 2.72  14 2.74  16 2.80   2 2.82   4 2.82   9 2.84
                            10 2.85   8 2.85
   7  0.870  0.446  0.411-  39 2.58  75 2.66  29 2.72   9 2.75  15 2.76   5 2.78  10 2.81  27 2.87
                            12 2.93
   8  0.375  0.956  0.415-  55 2.50  43 2.59  61 2.68  13 2.75  11 2.77  27 2.77  10 2.78   6 2.85
                            14 2.90
   9  0.873  0.199  0.404-  75 2.58  60 2.65   4 2.73   7 2.75  17 2.78  22 2.79  10 2.84   6 2.84
                            15 2.89
  10  0.125  0.201  0.409-  39 2.62  43 2.65  22 2.73  13 2.75   8 2.78   7 2.81   5 2.81   9 2.84
                             6 2.85
  11  0.625  0.949  0.413-  61 2.67  19 2.71  12 2.75  27 2.76   8 2.77   4 2.81   1 2.84  13 2.86
                            17 2.87
  12  0.872  0.706  0.411-  33 2.68  29 2.71   5 2.72  16 2.73  11 2.75   4 2.82  27 2.84   1 2.85
                             7 2.93
  13  0.369  0.203  0.414-  43 2.62   3 2.74   8 2.75  10 2.75  19 2.76  25 2.80  11 2.86  17 2.87
                             5 2.89
  14  0.369  0.701  0.401-  44 2.53  55 2.55   6 2.74  15 2.76  25 2.80  30 2.82  16 2.82  27 2.84
                             8 2.90
  15  0.618  0.459  0.404-  44 2.60  75 2.60  18 2.74   7 2.76  14 2.76  27 2.78  17 2.82  25 2.84
                             9 2.89
  16  0.116  0.704  0.407-  81 1.63  33 2.65  30 2.69  12 2.73   5 2.78   6 2.80   4 2.81  14 2.82
                            25 2.83   2 2.87
  17  0.623  0.205  0.411-  60 2.60  18 2.76  19 2.77   9 2.78   4 2.78  25 2.81  15 2.82  13 2.87
                            11 2.87
  18  0.538  0.365  0.307-  67 2.51  68 2.59  60 2.67  26 2.67  15 2.74  17 2.76  25 2.78  75 2.81
                            19 2.85  30 2.92   3 2.93  44 3.06
  19  0.536  0.112  0.313-  68 2.49  80 2.52  59 2.56  43 2.64  61 2.68  60 2.71  11 2.71   1 2.74
                            13 2.76  17 2.77   3 2.83  18 2.85
  20  0.538  0.117  0.053-  47 2.51  37 2.56  51 2.64  63 2.67  50 2.71  62 2.73  34 2.74  46 2.79
                            45 2.87
  21  0.106  0.420  0.118-  40 2.50  36 2.51  50 2.54  70 2.60  47 2.66  42 2.66  64 2.70  69 2.71
                            31 2.79  53 3.03
  22  0.051  0.124  0.305-  65 2.50  77 2.51  58 2.51  39 2.68   6 2.72  10 2.73  43 2.77   9 2.79
                            75 2.85  55 2.92   2 2.98  60 3.13  31 3.24
  23  0.025  0.110  0.043-  40 2.54  41 2.55  70 2.56  35 2.67  62 2.71  24 2.74  56 2.77  76 2.83
                            45 2.93
  24  0.117  0.952  0.146-  79 2.49  35 2.51  70 2.62  77 2.62  58 2.62  56 2.64  48 2.66  73 2.70
                            66 2.72  23 2.74  41 2.84  38 2.93
  25  0.369  0.452  0.409-  30 2.78  18 2.78   3 2.78  13 2.80  14 2.80  17 2.81  16 2.83  15 2.84
                             5 2.86
  26  0.451  0.562  0.222-  73 2.52  74 2.53  54 2.55  30 2.59  79 2.59  44 2.61  18 2.67  32 2.67
                            78 2.68  67 2.98  48 2.99
  27  0.619  0.706  0.411-  44 2.53  61 2.65  11 2.76  29 2.77   8 2.77  15 2.78  12 2.84  14 2.84
                             7 2.87
  28  0.949  0.756  0.207-  48 2.55  53 2.56  66 2.63  42 2.65  33 2.65  64 2.70   1 2.71   2 2.79
                            52 2.85  36 2.90  59 3.15
  29  0.797  0.615  0.312-  42 2.57  52 2.59  32 2.62  33 2.66  39 2.67  12 2.71   7 2.72  44 2.77
                            27 2.77   1 2.80  75 2.85  61 2.92
  30  0.267  0.613  0.305-  79 2.52  26 2.59  33 2.60  64 2.66  16 2.69   3 2.77  25 2.78   2 2.79
                            14 2.82  18 2.92  44 3.22
  31  0.191  0.261  0.224-  70 2.48  58 2.52  47 2.57  43 2.58  39 2.60   3 2.64  65 2.68  64 2.74
                            21 2.79  80 2.81  42 2.83  68 3.00  22 3.24
  32  0.700  0.539  0.222-  69 2.53  44 2.59  54 2.60  29 2.62  75 2.62  57 2.63  65 2.66  26 2.67
                            52 2.68  42 2.70  67 2.73  78 2.76
  33  0.030  0.623  0.311-  64 2.58  30 2.60  16 2.65  28 2.65  29 2.66  12 2.68   5 2.69  42 2.74
                             2 2.78   1 2.79  39 2.83   3 2.87
  34  0.791  0.885  0.059-  51 2.33  66 2.39  53 2.60  62 2.68  35 2.73  20 2.74  36 2.75  63 2.89

  35  0.043  0.865  0.057-  36 2.40  24 2.51  66 2.52  23 2.67  34 2.73  48 2.84  72 2.85  56 2.85
                            62 3.00
  36  0.042  0.658  0.084-  48 2.40  35 2.40  53 2.47  21 2.51  72 2.75  34 2.75  28 2.90
  37  0.624  0.211  0.138-  59 2.38  62 2.40  67 2.45  46 2.46  68 2.48  74 2.55  20 2.56  66 2.66
                            41 2.68  54 2.71  47 2.99  51 3.04
  38  0.377  0.954  0.136-  63 2.36  45 2.39  56 2.40  58 2.42  80 2.45  73 2.50  78 2.54  57 2.61
                            47 2.77  70 2.82  51 2.87  24 2.93
  39  0.029  0.372  0.317-   7 2.58  31 2.60  65 2.61  10 2.62   5 2.62  42 2.64  29 2.67  22 2.68
                            75 2.74   3 2.75  33 2.83  43 3.02
  40  0.983  0.354  0.043-  69 2.31  76 2.42  21 2.50  23 2.54  70 2.62  71 2.63  45 3.12
  41  0.866  0.206  0.135-  77 2.42  76 2.43  67 2.44  62 2.46  65 2.52  23 2.55  69 2.55  66 2.57
                            70 2.65  37 2.68  24 2.84  54 2.87
  42  0.948  0.521  0.217-  53 2.52  69 2.54  64 2.55  65 2.57  29 2.57  39 2.64  28 2.65  21 2.66
                            32 2.70  33 2.74  31 2.83  52 2.97
  43  0.303  0.108  0.318-  58 2.47  55 2.51  80 2.57  31 2.58   8 2.59  61 2.62  13 2.62  19 2.64
                            10 2.65   3 2.71  22 2.77  39 3.02
  44  0.541  0.635  0.316-  78 2.49  14 2.53  27 2.53  32 2.59  15 2.60  55 2.60  26 2.61  61 2.64
                            29 2.77  75 2.90  18 3.06  30 3.22
  45  0.285  0.111  0.053-  38 2.39  70 2.47  47 2.48  56 2.53  63 2.71  20 2.87  23 2.93  40 3.12

  46  0.535  0.367  0.050-  54 2.40  50 2.43  37 2.46  74 2.47  76 2.54  62 2.67  72 2.72  20 2.79
                            49 2.82
  47  0.359  0.209  0.135-  50 2.40  68 2.41  45 2.48  20 2.51  31 2.57  80 2.60  21 2.66  74 2.74
                            38 2.77  70 2.92  37 2.99
  48  0.180  0.691  0.158-  79 2.40  36 2.40  72 2.41  64 2.41  73 2.49  28 2.55  24 2.66  74 2.70
                            35 2.84  26 2.99
  49  0.521  0.625  0.052-  54 2.35  73 2.38  71 2.44  57 2.44  72 2.53  56 2.78  46 2.82  76 2.90
                            63 2.95
  50  0.315  0.374  0.056-  74 2.35  47 2.40  46 2.43  21 2.54  72 2.65  20 2.71
  51  0.642  0.932  0.141-  34 2.33  52 2.34  63 2.45  59 2.53  53 2.55  80 2.56  20 2.64  57 2.67
                            66 2.78  38 2.87  37 3.04
  52  0.683  0.786  0.223-  51 2.34  78 2.41  57 2.48  61 2.50   1 2.53  53 2.55  29 2.59  80 2.65
                            32 2.68  28 2.85  42 2.97  59 3.12
  53  0.830  0.681  0.129-  57 2.36  71 2.40  36 2.47  42 2.52  52 2.55  51 2.55  28 2.56  69 2.59
                            34 2.60  21 3.03
  54  0.609  0.460  0.130-  49 2.35  46 2.40  76 2.41  26 2.55  74 2.58  32 2.60  67 2.61  69 2.68
[...]
   0.104E+02 -.569E+02 -.129E+04   -.117E+02 0.569E+02 0.129E+04   0.133E+01 0.899E-01 0.205E+01   -.788E-02 -.338E-01 0.877E-02
   -.366E+02 0.485E+02 -.262E+04   0.358E+02 -.472E+02 0.261E+04   0.821E+00 -.135E+01 0.207E+01   0.118E-01 -.123E-01 -.141E-01
   -.302E+02 -.801E+01 -.263E+04   0.293E+02 0.882E+01 0.263E+04   0.937E+00 -.760E+00 0.247E+01   -.830E-02 0.993E-03 -.194E-02
   0.478E+02 0.767E+01 -.258E+04   -.474E+02 -.830E+01 0.258E+04   -.419E+00 0.626E+00 0.868E-01   0.118E-01 -.115E-01 -.500E-01
   -.250E+02 -.175E+02 -.270E+04   0.249E+02 0.166E+02 0.270E+04   0.126E+00 0.920E+00 0.265E+01   0.907E-02 0.191E-01 0.727E-02
   0.322E+02 -.583E+01 -.279E+04   -.318E+02 0.620E+01 0.279E+04   -.330E+00 -.369E+00 0.346E+01   -.176E-01 0.183E-01 -.412E-01
   -.177E+02 0.450E+02 -.267E+04   0.172E+02 -.446E+02 0.266E+04   0.520E+00 -.401E+00 0.227E+01   0.834E-02 -.213E-01 0.669E-02
   0.146E+02 -.137E+02 -.268E+04   -.140E+02 0.140E+02 0.267E+04   -.618E+00 -.182E+00 0.264E+01   0.242E-01 -.293E-01 -.148E-01
   -.537E+02 -.715E+01 -.271E+04   0.532E+02 0.637E+01 0.271E+04   0.468E+00 0.763E+00 0.195E+01   -.723E-02 0.103E-01 -.471E-02
   -.345E+02 -.323E+01 -.265E+04   0.348E+02 0.281E+01 0.265E+04   -.290E+00 0.440E+00 0.211E+01   0.349E-03 -.118E-01 -.620E-02
   -.145E+02 -.549E+02 -.271E+04   0.141E+02 0.546E+02 0.271E+04   0.504E+00 0.287E+00 0.234E+01   -.220E-01 -.273E-02 -.220E-01
   0.746E+02 0.346E+02 -.261E+04   -.733E+02 -.349E+02 0.261E+04   -.137E+01 0.256E+00 0.292E+01   -.192E-02 0.108E-01 -.410E-01
   0.433E+02 -.815E+01 -.267E+04   -.427E+02 0.877E+01 0.267E+04   -.591E+00 -.635E+00 0.244E+01   -.985E-02 0.224E-01 -.131E-01
   -.633E+01 -.386E+01 -.262E+04   0.590E+01 0.331E+01 0.261E+04   0.484E+00 0.595E+00 0.827E+00   -.125E-01 -.598E-02 -.784E-02
   0.163E+02 -.146E+02 -.270E+04   -.159E+02 0.146E+02 0.270E+04   -.448E+00 -.241E-01 0.239E+01   -.752E-02 0.130E-01 0.934E-02
   0.757E+02 -.850E+02 -.127E+04   -.746E+02 0.844E+02 0.127E+04   -.987E+00 0.593E+00 0.201E+01   -.306E-01 0.107E-01 0.580E-02
   -.100E+02 -.320E+02 -.139E+04   0.959E+01 0.313E+02 0.138E+04   0.499E+00 0.790E+00 0.282E+01   -.434E-01 0.187E-01 0.237E-01
   0.511E+02 0.209E+02 0.274E+04   -.510E+02 -.210E+02 -.274E+04   -.115E+00 0.598E-01 -.273E+01   0.338E-02 0.570E-01 -.735E-02
   -.966E+02 -.110E+03 0.185E+04   0.963E+02 0.110E+03 -.185E+04   0.226E+00 -.212E+00 0.135E+01   0.553E-01 -.146E-01 -.159E-01
   -.401E+01 0.429E+02 -.128E+04   0.465E+01 -.424E+02 0.127E+04   -.689E+00 -.422E+00 0.195E+01   0.496E-01 -.518E-01 0.337E-01
   -.434E+02 0.103E+03 0.286E+04   0.436E+02 -.102E+03 -.286E+04   -.185E+00 -.886E+00 -.236E+01   -.153E-01 0.232E-01 0.127E-03
   0.879E+02 0.255E+02 0.133E+04   -.881E+02 -.264E+02 -.133E+04   0.177E+00 0.875E+00 -.407E+00   -.228E-01 0.655E-02 0.534E-01
   0.123E+02 -.273E+02 -.263E+04   -.121E+02 0.268E+02 0.263E+04   -.220E+00 0.511E+00 0.178E+01   0.101E-02 0.897E-03 -.123E-01
   0.105E+03 0.841E+02 -.662E+01   -.105E+03 -.838E+02 0.610E+01   -.513E+00 -.385E+00 0.270E+00   -.373E-01 -.137E-01 0.339E-01
   -.178E+02 0.398E+02 -.272E+04   0.173E+02 -.394E+02 0.272E+04   0.501E+00 -.442E+00 0.276E+01   0.108E-02 0.398E-02 -.137E-01
   -.539E+02 0.860E+01 0.367E+03   0.538E+02 -.106E+02 -.368E+03   0.769E-01 0.201E+01 0.450E+00   0.391E-01 0.705E-02 0.224E-01
   -.771E+02 -.240E+01 -.132E+04   0.780E+02 0.171E+01 0.132E+04   -.887E+00 0.668E+00 0.253E+01   -.488E-02 0.168E-01 0.754E-01
   0.337E+02 0.203E+02 -.123E+04   -.347E+02 -.197E+02 0.123E+04   0.104E+01 -.585E+00 0.183E+01   -.257E-02 0.135E-01 -.213E-02
   -.453E+02 -.972E+02 0.600E+02   0.447E+02 0.967E+02 -.602E+02   0.454E+00 0.769E+00 0.214E-01   0.251E-01 -.214E-01 0.474E-01
   -.276E+02 -.234E+02 0.359E+02   0.281E+02 0.233E+02 -.361E+02   -.253E+00 0.999E-02 0.409E-01   -.330E-01 -.181E-01 0.467E-01
   -.436E+01 -.140E+02 -.997E+03   0.454E+01 0.138E+02 0.997E+03   -.172E+00 0.200E+00 0.527E+00   0.179E-01 0.904E-03 0.301E-01
   -.369E+02 0.128E+03 0.221E+04   0.383E+02 -.127E+03 -.221E+04   -.133E+01 -.126E+01 -.382E+01   0.273E-01 0.947E-02 -.624E-02
   0.576E+02 0.103E+03 0.219E+04   -.585E+02 -.103E+03 -.218E+04   0.101E+01 -.531E-01 -.353E+01   -.216E-01 -.455E-02 0.548E-02
   0.455E+02 0.441E+02 0.193E+04   -.451E+02 -.426E+02 -.193E+04   -.499E+00 -.134E+01 -.193E+01   0.213E-01 -.194E-01 0.201E-02
   0.778E+02 0.406E+02 0.118E+04   -.772E+02 -.404E+02 -.118E+04   -.648E+00 -.285E+00 -.304E+00   -.129E-01 0.262E-01 0.578E-02
   -.203E+02 -.117E+03 0.123E+04   0.207E+02 0.117E+03 -.123E+04   -.312E+00 0.435E-01 -.150E+00   -.983E-02 0.492E-01 0.512E-01
   -.684E+02 -.322E+02 -.109E+04   0.682E+02 0.323E+02 0.109E+04   0.247E+00 -.118E+00 0.577E-01   0.278E-01 -.246E-01 0.324E-01
   -.245E+03 -.489E+02 0.234E+04   0.243E+03 0.482E+02 -.234E+04   0.242E+01 0.759E+00 -.452E+01   0.183E-01 -.114E-01 -.433E-02
   -.218E+02 0.642E+02 0.120E+04   0.212E+02 -.641E+02 -.120E+04   0.717E+00 -.110E+00 -.499E+00   -.448E-02 -.440E-02 0.832E-02
   -.108E+03 -.448E+02 0.124E+03   0.107E+03 0.449E+02 -.124E+03   0.252E+00 -.138E+00 -.191E+00   0.261E-01 -.132E-01 0.195E-01
   0.608E+01 -.997E+02 -.116E+04   -.608E+01 0.994E+02 0.116E+04   0.334E-01 0.407E+00 0.364E+00   -.746E-02 -.117E-01 0.192E-01
   0.403E+02 0.686E+02 -.114E+04   -.402E+02 -.680E+02 0.114E+04   -.170E+00 -.757E+00 -.501E+00   -.190E-01 0.284E-01 0.308E-01
   -.437E+02 -.107E+03 0.224E+04   0.440E+02 0.105E+03 -.224E+04   -.372E+00 0.264E+01 -.423E+01   0.964E-02 0.552E-01 -.116E-02
   0.837E+02 0.142E+02 0.229E+04   -.834E+02 -.142E+02 -.228E+04   -.230E+00 0.722E-01 -.333E+01   -.417E-01 -.137E-01 0.135E-01
   0.325E+02 -.156E+02 0.123E+04   -.329E+02 0.156E+02 -.123E+04   0.320E+00 -.355E-01 0.333E+00   0.912E-02 0.451E-01 0.350E-02
   0.154E+03 0.235E+00 0.900E+03   -.154E+03 -.175E+00 -.901E+03   0.635E+00 -.603E-01 0.108E+01   -.605E-02 -.218E-01 0.275E-01
   0.510E+02 -.411E+02 0.260E+04   -.512E+02 0.412E+02 -.259E+04   0.203E+00 -.117E+00 -.287E+01   -.289E-01 -.554E-01 -.935E-02
   0.190E+03 -.515E+02 0.250E+04   -.188E+03 0.511E+02 -.250E+04   -.180E+01 0.456E+00 -.372E+01   0.289E-02 0.850E-02 0.889E-02
   -.716E+02 -.548E+02 0.129E+04   0.711E+02 0.542E+02 -.129E+04   0.443E+00 0.650E+00 -.124E+00   0.256E-01 0.355E-01 0.231E-01
   -.165E+03 0.278E+02 0.370E+02   0.165E+03 -.276E+02 -.369E+02   0.305E+00 -.221E+00 -.210E+00   0.584E-02 0.223E-01 0.636E-01
   -.220E+03 -.640E+01 0.150E+04   0.221E+03 0.737E+01 -.150E+04   -.154E+00 -.102E+01 0.764E-01   0.546E-01 -.216E-02 0.114E-02
   0.463E+02 0.784E+01 0.134E+04   -.463E+02 -.823E+01 -.134E+04   0.436E-01 0.479E+00 -.239E+00   -.388E-01 -.483E-01 0.313E-01
   0.127E+03 0.268E+02 -.136E+04   -.127E+03 -.266E+02 0.136E+04   -.939E+00 -.170E+00 0.410E+00   -.571E-02 0.232E-01 0.244E-01
   0.671E+02 -.234E+02 0.256E+04   -.662E+02 0.240E+02 -.256E+04   -.893E+00 -.579E+00 -.281E+01   -.319E-01 0.285E-01 -.229E-03
   -.627E+02 -.755E+01 0.139E+04   0.627E+02 0.802E+01 -.139E+04   -.113E+00 -.475E+00 -.192E-01   0.706E-02 -.782E-02 0.449E-01
   0.855E+02 -.116E+03 0.825E+01   -.853E+02 0.115E+03 -.779E+01   -.419E+00 0.137E+00 -.703E+00   -.571E-03 0.254E-02 0.801E-01
   0.257E+02 0.104E+03 0.958E+02   -.256E+02 -.104E+03 -.958E+02   -.665E-01 -.294E+00 -.391E-01   -.304E-02 0.142E-01 0.253E-01
   -.372E+01 0.532E+02 -.126E+04   0.375E+01 -.532E+02 0.126E+04   0.677E-02 -.894E-01 0.114E+00   -.539E-03 -.129E-01 0.197E-01
[...]
   0.590E+02 -.831E+02 0.100E+03   -.584E+02 0.829E+02 -.100E+03   -.642E+00 0.127E+00 -.201E+00   -.170E-01 0.295E-01 0.230E-01
   -.147E+03 -.477E+02 0.150E+04   0.147E+03 0.481E+02 -.150E+04   0.311E+00 -.283E+00 -.783E+00   0.581E-02 -.437E-01 -.128E-03
   -.908E+02 0.112E+01 0.153E+04   0.912E+02 -.149E+01 -.153E+04   -.479E+00 0.317E+00 -.689E+00   0.972E-02 0.999E-02 0.203E-01
   -.229E+03 -.130E+03 0.291E+04   0.228E+03 0.129E+03 -.291E+04   0.142E+01 0.981E+00 -.353E+01   0.445E-01 -.417E-01 -.287E-01
   0.213E+03 -.343E+02 0.271E+04   -.213E+03 0.341E+02 -.271E+04   -.501E-01 0.307E+00 -.158E+01   -.640E-01 -.656E-01 0.192E-01
   0.107E+03 0.728E+01 0.149E+04   -.107E+03 -.736E+01 -.149E+04   -.235E+00 0.169E+00 0.321E-01   -.656E-01 -.240E-01 0.819E-01
   0.143E+03 -.337E+02 0.130E+04   -.142E+03 0.335E+02 -.130E+04   -.488E+00 0.245E+00 -.432E+00   -.319E-01 -.136E-01 0.302E-02
   -.410E+01 -.395E+02 -.140E+04   0.390E+01 0.392E+02 0.140E+04   0.252E+00 0.310E+00 0.305E+00   -.458E-02 0.289E-02 0.297E-01
   0.243E+02 0.222E+02 0.287E+04   -.248E+02 -.218E+02 -.287E+04   0.502E+00 -.290E+00 -.829E+00   -.873E-02 -.334E-01 -.254E-02
   -.622E+02 0.175E+03 -.926E+01   0.622E+02 -.175E+03 0.954E+01   0.185E-01 -.152E+00 -.479E+00   0.182E-01 -.152E-01 0.251E-01
   -.207E+02 0.554E+02 -.165E+02   0.207E+02 -.546E+02 0.165E+02   0.109E+00 -.784E+00 -.892E-01   -.457E-01 0.253E-01 0.103E+00
   0.211E+03 0.320E+02 -.179E+03   -.211E+03 -.315E+02 0.180E+03   0.446E-01 -.491E+00 -.544E+00   -.254E-02 0.568E-02 0.680E-01
   -.606E+02 -.898E+02 0.124E+03   0.608E+02 0.894E+02 -.125E+03   0.382E-01 0.371E+00 0.168E+00   -.234E-01 0.365E-01 0.735E-01
   0.128E+01 0.821E+00 -.317E+03   -.134E+01 -.964E+00 0.319E+03   0.862E-01 0.120E+00 -.172E+01   0.506E-03 0.682E-03 -.195E-02
   -.146E+01 -.165E+01 -.320E+01   0.167E-11 -.219E-12 -.210E-10   0.161E+01 0.168E+01 0.201E+01   -.140E+00 0.319E-02 0.120E+01

 POSITION                                       TOTAL-FORCE (eV/Angst)
     13.67569      8.45954      6.69000         0.011671     -0.003153      0.000397
      5.21545      8.46328      6.61532         0.003557     -0.006601     -0.015869
      5.17057      3.50103      6.83427        -0.006557      0.004127     -0.007178
     15.09954      9.30993      8.92815         0.005517      0.015521      0.011478
      3.81398      4.44467      9.01067         0.027786      0.019293      0.015565
      6.74482      9.25148      8.90540        -0.002946      0.008602      0.020508
     12.26143      4.34047      9.04813         0.010230      0.012028      0.011302
      9.56402      9.26785      9.16401         0.003334      0.015776     -0.026048
     10.90562      1.96316      8.92628         0.010376     -0.013172     -0.003634
      2.52211      1.96979      9.03506         0.005465     -0.014882     -0.021804
     12.32900      9.20851      9.09428        -0.006291     -0.013574     -0.005355
     13.72615      6.83740      9.04379         0.002888      0.000806      0.011525
      5.29625      1.96451      9.13472         0.001108     -0.005897     -0.015582
      8.10098      6.79896      8.89401         0.028540     -0.002071      0.014901
      9.51247      4.42035      8.96932        -0.005709      0.012103      0.020173
      5.22889      6.78324      9.04270         0.027904      0.005992     -0.022604
      8.14559      1.98812      9.03576        -0.005685     -0.014790      0.019926
      8.09276      3.54881      6.75502        -0.005759     -0.000846      0.013526
      6.66312      1.08838      6.89314        -0.012299     -0.002031     -0.000253
      6.68830      1.13624      1.16869         0.002268     -0.012109     -0.020039
      3.54481      4.07903      2.60632         0.006912     -0.007514     -0.038925
      1.24070      1.19806      6.73958         0.003863      0.006436      0.034800
      0.89178      1.06685      0.94626        -0.012646     -0.004430     -0.010747
      6.65662      9.25676      3.21225         0.017808      0.000987     -0.051097
      6.69812      4.37681      8.99326        -0.018622     -0.002849      0.019472
      8.21162      5.46055      4.88522        -0.267696     -0.011888     -0.167688
     10.90621      6.84694      9.07709         0.001576     -0.012059     -0.003513
     14.89052      7.35140      4.54429         0.044151      0.021360      0.031688
     12.39853      5.98575      6.87721         0.018264     -0.010686      0.019602
      6.43767      5.98275      6.73736        -0.014363     -0.008912      0.014744
      3.61025      2.53567      4.92929        -0.108249      0.193158     -0.071949
     10.87699      5.23710      4.87771         0.209723     -0.054453     -0.132484
      3.85592      6.02680      6.83679         0.021802      0.016189     -0.009552
     13.83953      8.59728      1.29834         0.022900      0.011725      0.018849
      5.33586      8.40288      1.25445         0.000964     -0.011666      0.058199
      4.16277      6.39081      1.85096         0.031727     -0.011949      0.004576
      8.19107      2.05273      3.03386        -0.001952     -0.019047     -0.020109
      9.58169      9.27602      2.99468         0.040059      0.004676      0.015616
      2.40061      3.61479      6.97304         0.008270      0.007521      0.009252
     13.01773      3.43953      0.94254        -0.033367      0.017193      0.002070
     10.87071      1.99839      2.96738         0.023902     -0.004742     -0.003309
     13.56890      5.06817      4.77058         0.020082      0.030843      0.039046
      3.97729      1.04799      7.04145         0.009820     -0.000200     -0.008765
      9.61842      6.13402      6.99134        -0.024508     -0.034331      0.002877
      3.81646      1.07543      1.16136        -0.012233     -0.019523      0.016494
      8.06104      3.56771      1.10023        -0.014034     -0.006009      0.000819
      5.20370      2.03419      2.97809        -0.000561     -0.053728      0.070307
      5.89506      6.72021      3.47528        -0.015804     -0.011237     -0.033042
      9.35391      6.06988      1.14808         0.010400     -0.033672      0.015827
      5.63380      3.63292      1.23723         0.051123      0.061574      0.000326
     12.43866      9.06023      3.09611         0.007446      0.001842     -0.046414
     12.07766      7.63668      4.91324         0.002426     -0.017225     -0.001987
     13.13008      6.61689      2.83040        -0.037270      0.011884     -0.005930
      9.41148      4.47169      2.86934         0.021809     -0.014626     -0.000059
      8.50397      8.53048      7.01717        -0.004616     -0.012954     -0.005644
      8.18243      8.58957      1.16315        -0.013811      0.021191     -0.020576
     10.79405      6.97057      2.90238        -0.014944      0.022912      0.045786
      2.82111      0.14512      5.04740        -0.191050     -0.046989     -0.044095
      8.14725      0.55026      4.88481        -0.030686     -0.014009      0.060426
      9.40085      1.20016      6.88483        -0.005005     -0.015561      0.007466
[...]
      9.60048      2.82018      4.87865        -0.008002      0.054480      0.030893
      6.60502      2.54502      4.87077        -0.013165     -0.046361      0.036348
     12.08196      4.24602      2.88896         0.021617     -0.000781     -0.061160
      2.28916      1.82528      2.94996        -0.001236     -0.035930      0.042529
     11.76886      5.74999      1.05362         0.002739     -0.016615     -0.011670
      6.84033      5.98705      1.38644        -0.016854      0.008007      0.014245
      8.30437      7.12497      3.00063        -0.004255      0.046589      0.021129
      6.85459      4.22009      3.15394        -0.041360     -0.032084     -0.001412
     10.88347      3.57049      6.90636         0.002096     -0.000204      0.008486
     10.60151      3.45495      1.03917        -0.004071     -0.002025     -0.025147
     10.73179      0.68889      4.99664         0.022990     -0.038522     -0.062997
      9.67006      7.71157      4.99333         0.013746      0.131950      0.126990
      7.17143      7.81748      5.18228        -0.037535      0.003917      0.056110
      5.29940      0.29561      4.91544         0.172981     -0.058416     -0.026880
      6.03672      8.08244      9.95263         0.022932     -0.022697      0.026994
    total drift:                                0.009133      0.027449      0.008870

  FREE ENERGIE OF THE ION-ELECTRON SYSTEM (eV)
  free  energy   TOTEN  =      -538.38062346 eV

  energy  without entropy=     -538.38994576  energy(sigma->0) =     -538.38373089

 d Force = 0.3320614E-02[ 0.165E-02, 0.499E-02]  d Energy = 0.3118959E-02 0.202E-03
 d Force = 0.1590583E+03[ 0.159E+03, 0.159E+03]  d Ewald  = 0.1590583E+03-0.676E-05

 Conjugate gradient step on ions:
 trial-energy change:   -0.003119  1 .order   -0.003321   -0.004989   -0.001652
  (g-gl).g = 0.273E-02      g.g   = 0.280E-02  gl.gl    = 0.570E-02
 g(Force)  = 0.280E-02   g(Stress)= 0.000E+00 ortho     =-0.634E-04
 gamma     =   0.47880
 trial     =   1.80370
 opt step  =   2.69705  (harmonic =   2.69705) maximal distance =0.01184378
 next E    =  -538.381234   (d E  =  -0.00373)

 reached required accuracy - stopping structural energy minimisation