 vasp.5.4.4.18Apr17-6-g9f103f2a35 (build Nov 30 2020 22:55:02) complex

 executed on             LinuxIFC date 2021.11.24  21:12:39

 INCAR:
 POTCAR:    PAW_PBE Pt 04Feb2005
 POTCAR:    PAW_PBE Fe 06Sep2000
 POTCAR:    PAW_PBE Co 02Aug2007
 POTCAR:    PAW_PBE Cu 22Jun2005
 POTCAR:    PAW_PBE Ni 02Aug2007
 POTCAR:    PAW_PBE H 15Jun2001

 POTCAR:    PAW_PBE Pt 04Feb2005
   VRHFIN =Pt: s1d9

   TITEL  = PAW_PBE Pt 04Feb2005
   POMASS =  195.080; ZVAL   =   10.000    mass and valenz
   ENMAX  =  230.283; ENMIN  =  172.712 eV

 POTCAR:    PAW_PBE Fe 06Sep2000
   VRHFIN =Fe:  d7 s1

   TITEL  = PAW_PBE Fe 06Sep2000
   POMASS =   55.847; ZVAL   =    8.000    mass and valenz
   ENMAX  =  267.882; ENMIN  =  200.911 eV

 POTCAR:    PAW_PBE Co 02Aug2007
   VRHFIN =Co: d8 s1

   TITEL  = PAW_PBE Co 02Aug2007
   POMASS =   58.933; ZVAL   =    9.000    mass and valenz
   ENMAX  =  267.968; ENMIN  =  200.976 eV

 POTCAR:    PAW_PBE Cu 22Jun2005
   VRHFIN =Cu: d10 p1

   TITEL  = PAW_PBE Cu 22Jun2005
   POMASS =   63.546; ZVAL   =   11.000    mass and valenz
   ENMAX  =  295.446; ENMIN  =  221.585 eV

 POTCAR:    PAW_PBE Ni 02Aug2007
   VRHFIN =Ni:

   TITEL  = PAW_PBE Ni 02Aug2007
   POMASS =   58.690; ZVAL   =   10.000    mass and valenz
   ENMAX  =  269.532; ENMIN  =  202.149 eV

 POTCAR:    PAW_PBE H 15Jun2001
   VRHFIN =H: ultrasoft test

   TITEL  = PAW_PBE H 15Jun2001
   POMASS =    1.000; ZVAL   =    1.000    mass and valenz
   ENMAX  =  250.000; ENMIN  =  200.000 eV

 Optimization of the real space projectors (new method)

 maximal supplied QI-value         = 14.36
 optimisation between [QCUT,QGAM] = [ 11.92, 23.98] = [ 39.79,161.09] Ry
 Optimized for a Real-space Cutoff    1.49 Angstroem

   l    n(q)    QCUT    max X(q) W(low)/X(q) W(high)/X(q)  e(spline)
   2     10    11.920    66.195    0.79E-04    0.18E-03    0.24E-06
   2     10    11.920    64.643    0.81E-04    0.19E-03    0.24E-06
   0     11    11.920    95.520    0.28E-04    0.54E-04    0.18E-06
   0     11    11.920    63.403    0.27E-04    0.52E-04    0.17E-06
   1     10    11.920    19.961    0.18E-04    0.11E-03    0.23E-06
   1     10    11.920    13.289    0.25E-04    0.87E-04    0.19E-06
 Optimization of the real space projectors (new method)

[...]

   l    n(q)    QCUT    max X(q) W(low)/X(q) W(high)/X(q)  e(spline)
   2      9    11.864    60.317    0.21E-03    0.51E-03    0.25E-06
   2      9    11.864    55.921    0.21E-03    0.51E-03    0.26E-06
   0      9    11.864    51.690    0.22E-03    0.30E-04    0.17E-06
   0      9    11.864    30.015    0.20E-03    0.28E-04    0.15E-06
   1      9    11.864    18.849    0.76E-04    0.33E-03    0.17E-06
   1      9    11.864    14.624    0.60E-04    0.28E-03    0.15E-06
 Optimization of the real space projectors (new method)

 maximal supplied QI-value         = 34.20
 optimisation between [QCUT,QGAM] = [ 11.97, 23.94] = [ 40.13,160.53] Ry
 Optimized for a Real-space Cutoff    1.18 Angstroem

   l    n(q)    QCUT    max X(q) W(low)/X(q) W(high)/X(q)  e(spline)
   0      8    11.971    19.460    0.15E-03    0.31E-03    0.25E-06
   0      8    11.971    12.209    0.13E-03    0.29E-03    0.25E-06
   1      8    11.971     4.655    0.22E-03    0.24E-03    0.21E-06
  PAW_PBE Pt 04Feb2005                  :
  PAW_PBE Fe 06Sep2000                  :
  PAW_PBE Co 02Aug2007                  :
  PAW_PBE Cu 22Jun2005                  :
  PAW_PBE Ni 02Aug2007                  :
  PAW_PBE H 15Jun2001                   :

 POSCAR: 10.56
  positions in cartesian coordinates
 exchange correlation table for  LEXCH =        8
   RHO(1)=    0.500       N(1)  =     2000
   RHO(2)=  100.500       N(2)  =     4000

 ion  position               nearest neighbor table
   1  0.787  0.879  0.318-  28 2.62  49 2.62  19 2.63  59 2.65  61 2.66  33 2.66  29 2.67  60 2.69
                             2 2.72  11 2.77   4 2.82  12 2.85
   2  0.043  0.882  0.316-  79 2.54  77 2.60  60 2.62  30 2.65  28 2.65  52 2.66  33 2.68  22 2.69
                             1 2.72   6 2.76   4 2.83  16 2.90
   3  0.280  0.380  0.320-  39 2.56  64 2.58  33 2.59  31 2.63  19 2.70  43 2.70  30 2.71  68 2.71
                             5 2.79  13 2.80  18 2.81  25 2.85
   4  0.875  0.962  0.424-  17 2.63   9 2.63   6 2.64  11 2.64  16 2.65  12 2.65  60 2.81   1 2.82
                             2 2.83
   5  0.124  0.462  0.428-  12 2.62   7 2.63  16 2.64  10 2.64  25 2.66  13 2.67  33 2.73  39 2.74
                             3 2.79
   6  0.126  0.961  0.422-   8 2.64   4 2.64  10 2.64  14 2.64   9 2.64  16 2.65   2 2.76  52 2.77
                            22 2.86
   7  0.875  0.460  0.427-  15 2.62   5 2.63   9 2.63  10 2.64  12 2.65  27 2.65  39 2.68  75 2.77
                            29 2.80
   8  0.376  0.960  0.421-  43 2.61  14 2.61  27 2.63  13 2.63   6 2.64  10 2.64  11 2.64  52 2.70
                            61 2.72
   9  0.875  0.211  0.421-   4 2.63   7 2.63  15 2.63  17 2.63   6 2.64  10 2.65  75 2.68  60 2.72
                            22 2.81
  10  0.127  0.211  0.422-  13 2.62   5 2.64   6 2.64   8 2.64   7 2.64   9 2.65  39 2.66  43 2.71
                            22 2.78
  11  0.626  0.961  0.424-  13 2.63  12 2.64  17 2.64   4 2.64  27 2.64   8 2.64   1 2.77  19 2.83
                            61 2.85
  12  0.875  0.711  0.427-   5 2.62  11 2.64  16 2.64   7 2.65  27 2.65   4 2.65  33 2.69  29 2.83
                             1 2.85
  13  0.376  0.209  0.425-  10 2.62  11 2.63   8 2.63  17 2.65  25 2.66   5 2.67  43 2.77   3 2.80
                            19 2.83
  14  0.377  0.712  0.424-  27 2.61   8 2.61   6 2.64  15 2.64  25 2.66  16 2.66  44 2.70  52 2.77
                            30 2.77
  15  0.627  0.461  0.423-   7 2.62  27 2.63   9 2.63  14 2.64  17 2.65  25 2.65  44 2.70  75 2.71
                            18 2.76
  16  0.126  0.711  0.427-  25 2.64   5 2.64  12 2.64   6 2.65   4 2.65  14 2.66  33 2.69  30 2.83
                             2 2.90
  17  0.626  0.210  0.422-   4 2.63   9 2.63  11 2.64  25 2.65  15 2.65  13 2.65  18 2.76  60 2.77
                            19 2.86
  18  0.549  0.375  0.317-  67 2.56  60 2.59  75 2.60  44 2.65  68 2.66  26 2.67  30 2.71  19 2.73
                            15 2.76  17 2.76   3 2.81  25 2.88
  19  0.535  0.124  0.315-  80 2.55  43 2.56  68 2.58  59 2.60   1 2.63  61 2.64   3 2.70  18 2.73
                            60 2.76  13 2.83  11 2.83  17 2.86
  20  0.547  0.124  0.040-  37 2.55  57 2.56  48 2.58  62 2.64  63 2.68  47 2.68  45 2.68  56 2.70
                            34 2.71
  21  0.121  0.460  0.128-  40 2.52  36 2.53  47 2.53  42 2.60  69 2.61  64 2.62  70 2.64  50 2.64
                            58 2.67  31 2.70  57 2.71  74 2.72
  22  0.044  0.137  0.314-  65 2.52  55 2.53  77 2.58  39 2.58  43 2.58  75 2.60  60 2.68   2 2.69
                            52 2.72  10 2.78   9 2.81   6 2.86  31 3.39
  23  0.042  0.130  0.033-  70 2.58  40 2.60  41 2.61  45 2.62  62 2.64  76 2.64  24 2.69  35 2.73
                            53 2.78
  24  0.130  0.958  0.132-  79 2.51  77 2.54  35 2.57  53 2.57  55 2.58  70 2.62  38 2.64  58 2.64
                            73 2.65  23 2.69  66 2.70  41 2.72
  25  0.376  0.461  0.426-  16 2.64  17 2.65  15 2.65  14 2.66   5 2.66  13 2.66  30 2.84   3 2.85
                            18 2.88
  26  0.455  0.546  0.219-  73 2.50  74 2.54  51 2.56  79 2.61  64 2.63  30 2.65  18 2.67  68 2.67
                            78 2.67  32 2.68  67 2.72  44 2.75
  27  0.625  0.711  0.424-  14 2.61   8 2.63  15 2.63  11 2.64  12 2.65   7 2.65  44 2.70  61 2.78
                            29 2.79
  28  0.956  0.790  0.221-  58 2.57  66 2.57  50 2.58  42 2.59  49 2.61   1 2.62  64 2.63   2 2.65
                            59 2.70  33 2.73  79 2.76  77 2.77
  29  0.795  0.622  0.319-  39 2.54  42 2.55  75 2.58  32 2.62  44 2.64  33 2.65   1 2.67  61 2.68
                            49 2.69  27 2.79   7 2.80  12 2.83
  30  0.292  0.631  0.318-  79 2.57  64 2.61  52 2.61  44 2.62   2 2.65  26 2.65  33 2.66  18 2.71
                             3 2.71  14 2.77  16 2.83  25 2.84
  31  0.203  0.281  0.225-  70 2.52  55 2.56  65 2.57  43 2.60  57 2.60   3 2.63  39 2.67  80 2.70
                            21 2.70  42 2.71  68 2.75  64 2.79  22 3.39
  32  0.706  0.549  0.221-  54 2.53  69 2.56  51 2.58  49 2.59  42 2.60  29 2.62  78 2.62  65 2.63
                            26 2.68  75 2.69  44 2.70  67 2.70
  33  0.041  0.631  0.326-   3 2.59  39 2.64  29 2.65  30 2.66   1 2.66   2 2.68  16 2.69  12 2.69
                            64 2.70  28 2.73   5 2.73  42 2.74
  34  0.797  0.862  0.042-  50 2.38  66 2.51  48 2.53  36 2.55  71 2.56  63 2.61  20 2.71  35 2.76
                            62 2.76
  35  0.056  0.866  0.038-  58 2.54  72 2.55  36 2.56  24 2.57  66 2.62  53 2.65  23 2.73  62 2.73
                            34 2.76
  36  0.046  0.628  0.037-  21 2.53  34 2.55  35 2.56  58 2.58  50 2.61  47 2.63  72 2.64  40 2.69
                            71 2.72
  37  0.627  0.222  0.129-  51 2.51  74 2.51  67 2.52  56 2.53  41 2.55  20 2.55  68 2.56  59 2.56
                            62 2.59  66 2.66  57 2.73  48 2.89
  38  0.382  0.955  0.130-  53 2.47  80 2.48  45 2.49  78 2.53  48 2.54  73 2.55  63 2.55  54 2.56
                            55 2.59  57 2.62  24 2.64  70 2.67
  39  0.036  0.383  0.325-  29 2.54   3 2.56  22 2.58  75 2.59  33 2.64  10 2.66  42 2.67  31 2.67
                             7 2.68   5 2.74  65 2.76  43 2.78
  40  0.031  0.382  0.038-  69 2.44  21 2.52  71 2.53  76 2.56  70 2.57  23 2.60  36 2.69  45 2.78
                            47 2.78
  41  0.872  0.215  0.128-  76 2.45  65 2.52  77 2.53  67 2.54  37 2.55  69 2.57  62 2.57  51 2.59
                            23 2.61  70 2.65  66 2.66  24 2.72
  42  0.955  0.545  0.224-  29 2.55  50 2.56  28 2.59  21 2.60  32 2.60  69 2.61  49 2.63  65 2.64
                            64 2.65  39 2.67  31 2.71  33 2.74
  43  0.297  0.116  0.322-  52 2.54  55 2.54  19 2.56  61 2.57  22 2.58  31 2.60   8 2.61  80 2.66
                             3 2.70  10 2.71  13 2.77  39 2.78
  44  0.541  0.630  0.322-  61 2.56  52 2.58  30 2.62  78 2.64  29 2.64  18 2.65  75 2.66  32 2.70
                            14 2.70  15 2.70  27 2.70  26 2.75
  45  0.295  0.119  0.039-  70 2.49  38 2.49  57 2.57  53 2.60  23 2.62  63 2.64  20 2.68  47 2.75
                            40 2.78
  46  0.548  0.625  0.044-  51 2.38  73 2.39  54 2.41  71 2.56  53 2.56  63 2.58  76 2.59  56 2.62
                            72 2.64
  47  0.296  0.379  0.039-  74 2.41  21 2.53  57 2.61  72 2.61  56 2.62  36 2.63  20 2.68  45 2.75
                            40 2.78
  48  0.625  0.950  0.132-  49 2.40  80 2.48  54 2.48  34 2.53  38 2.54  59 2.55  50 2.56  63 2.57
                            20 2.58  57 2.65  66 2.68  37 2.89
  49  0.706  0.794  0.220-  48 2.40  50 2.48  54 2.49  80 2.53  32 2.59  28 2.61  78 2.61   1 2.62
                            61 2.63  42 2.63  29 2.69  59 2.69
  50  0.866  0.706  0.129-  34 2.38  71 2.42  54 2.48  49 2.48  42 2.56  48 2.56  69 2.58  28 2.58
                            36 2.61  21 2.64  66 2.76  58 2.85
[...]
      2.51347      0.25826      5.00083         0.044834      0.001610      0.003301
      7.74264      3.48454      0.76157        -0.002643     -0.007927      0.006267
      5.07835      1.87760      2.91701        -0.005115     -0.010737     -0.006166
      5.16037      6.44715      2.89923        -0.008895     -0.008459     -0.009685
      7.70892      0.45986      4.84799         0.013862      0.014748      0.003228
      9.06650      1.18785      6.97886        -0.023500     -0.019886     -0.022774
[...]
      6.37169      2.66558      4.85827        -0.005247      0.009327      0.012985
     11.65891      4.17486      2.81483        -0.024173      0.001822     -0.014496
      2.44098      1.89237      2.83279        -0.001341     -0.001036      0.010575
     11.64953      5.68621      0.88546         0.011251      0.037423      0.002785
      6.44743      5.71949      0.92597        -0.013516      0.016529     -0.010240
      7.82927      6.50651      2.83621         0.003280     -0.001970      0.007883
      6.41922      4.13007      2.78290        -0.001841     -0.019923     -0.010216
     10.37884      3.46393      7.05279         0.028008      0.024332     -0.024059
     10.34410      3.45013      0.86804         0.002002     -0.033121     -0.028557
     10.37063      0.48410      4.87151        -0.011159     -0.007997      0.017843
      9.04079      7.29017      4.93700         0.014657     -0.019970     -0.000389
      6.46265      7.29503      4.94074         0.035273      0.014826      0.000203
      5.04247      0.27633      4.88406        -0.019028      0.001655      0.012529
      1.30927      0.81547     12.24765         0.046478     -0.030463      0.030528
      1.95478      0.42893     12.19134        -0.051188      0.030107      0.036737
    total drift:                               -0.007586     -0.010267     -0.014007

  FREE ENERGIE OF THE ION-ELECTRON SYSTEM (eV)
  free  energy   TOTEN  =      -514.37391727 eV

  energy  without entropy=     -514.37391727  energy(sigma->0) =     -514.37391727

 d Force =-0.1000254E-02[-0.110E-02,-0.898E-03]  d Energy =-0.9527487E-03-0.475E-04
 d Force =-0.7531354E+01[-0.755E+01,-0.752E+01]  d Ewald  =-0.7531308E+01-0.466E-04

 Finite differences progress:
  Degree of freedom:   6/  6
  Displacement:        2/  2
  Total:              12/ 12

 SECOND DERIVATIVES (NOT SYMMETRIZED)
              81X         81Y         81Z         82X         82Y         82Z
 81X   -23.713735   14.195005    1.584590   23.613352  -14.113959   -1.434563
 81Y    14.188300   -8.556447   -0.950510  -14.135737    8.507780    0.858716
 81Z     1.627961   -0.982135   -0.238774   -1.570992    0.943958    0.002959
 82X    23.622537  -14.139629   -1.572826  -23.696081   14.174157    1.437210
 82Y   -14.090174    8.489164    0.932426   14.106072   -8.502710   -0.857268
 82Z    -1.439933    0.866192    0.005323    1.440890   -0.865739   -0.226322

 Eigenvectors and eigenvalues of the dynamical matrix

   1 f  =  125.511359 THz   788.611129 2PiTHz 4186.608173 cm-1   519.073445 meV
             X         Y         Z           dx          dy          dz
     12.953625  8.037409  6.986027            0           0           0
      5.109569  8.069430  6.947923            0           0           0
      4.965239  3.478292  7.033398            0           0           0
     14.324911  8.798186  9.332696            0           0           0
      3.743674  4.225068  9.422496            0           0           0
      6.404020  8.789216  9.273470            0           0           0
     11.673643  4.206157  9.390122            0           0           0
      9.040186  8.776610  9.251224            0           0           0
     10.357703  1.931714  9.257433            0           0           0
      2.450410  1.927376  9.288219            0           0           0
     11.683441  8.784160  9.331889            0           0           0
     12.997688  6.499667  9.389350            0           0           0
      5.074437  1.911675  9.357558            0           0           0
      7.739612  6.510217  9.326659            0           0           0
      9.053223  4.216816  9.295784            0           0           0
      5.079468  6.501880  9.391035            0           0           0
      7.723979  1.925009  9.289486            0           0           0
      7.777361  3.432528  6.977826            0           0           0
      6.303928  1.136533  6.930508            0           0           0
      6.428579  1.129740  0.878720            0           0           0
      3.705484  4.208436  2.816869            0           0           0
      1.183469  1.249762  6.911469            0           0           0
      1.135691  1.190800  0.725566            0           0           0
      6.436066  8.760995  2.900314            0           0           0
      6.400480  4.217586  9.380651            0           0           0
      7.681351  4.990728  4.814740            0           0           0
     10.348358  6.501475  9.330435            0           0           0
     14.264242  7.225928  4.862987            0           0           0
     11.678873  5.688221  7.019655            0           0           0
      6.416461  5.770292  7.005614            0           0           0
      3.621194  2.565893  4.960228            0           0           0
     10.360912  5.024302  4.856517            0           0           0
      3.763989  5.767216  7.166316            0           0           0
     12.969068  7.879772  0.925674            0           0           0
      5.163396  7.917194  0.830298            0           0           0
      3.807011  5.745024  0.813805            0           0           0
      7.798522  2.032451  2.832513            0           0           0
      9.077547  8.733730  2.857427            0           0           0
      2.407399  3.503998  7.146460            0           0           0
      2.344093  3.490514  0.825101            0           0           0
     10.348141  1.969830  2.822490            0           0           0
     12.960353  4.985870  4.925592            0           0           0
      3.747852  1.064853  7.074501            0           0           0
      9.036467  5.761659  7.084956            0           0           0
      3.748243  1.091821  0.867003            0           0           0
      9.091210  5.718673  0.960427            0           0           0
      5.124479  3.470454  0.855627            0           0           0
     11.620923  8.687580  2.905895            0           0           0
     11.653130  7.264496  4.842290            0           0           0
     12.867560  6.452796  2.833790            0           0           0
      9.042010  4.207796  2.796278            0           0           0
      7.770222  8.006944  6.998853            0           0           0
      7.813155  7.939223  0.886525            0           0           0
     10.391439  6.535663  2.821980            0           0           0
      2.513474  0.258257  5.000827            0           0           0
      7.742638  3.484538  0.761574            0           0           0
      5.078354  1.877603  2.917008            0           0           0
      5.160365  6.447147  2.899226            0           0           0
      7.708921  0.459858  4.847993            0           0           0
      9.066496  1.187850  6.978858            0           0           0
[...]
      6.371693  2.665576  4.858272            0           0           0
     11.658911  4.174860  2.814827            0           0           0
      2.440982  1.892366  2.832794            0           0           0
     11.649530  5.686214  0.885461            0           0           0
      6.447433  5.719494  0.925972            0           0           0
      7.829267  6.506514  2.836212            0           0           0
      6.419224  4.130068  2.782896            0           0           0
     10.378841  3.463927  7.052785            0           0           0
     10.344097  3.450125  0.868038            0           0           0
     10.370626  0.484098  4.871515            0           0           0
      9.040790  7.290173  4.936995            0           0           0
      6.462653  7.295032  4.940739            0           0           0
      5.042471  0.276335  4.884059            0           0           0
      1.309269  0.815474 12.247652    -0.605869    0.363311    0.040739
      1.954784  0.428930 12.206338     0.605592   -0.362171   -0.036864

[...]

   6 f  =    1.098975 THz     6.905061 2PiTHz   36.657847 cm-1     4.544995 meV
             X         Y         Z           dx          dy          dz
     12.953625  8.037409  6.986027            0           0           0
      5.109569  8.069430  6.947923            0           0           0
      4.965239  3.478292  7.033398            0           0           0
     14.324911  8.798186  9.332696            0           0           0
      3.743674  4.225068  9.422496            0           0           0
      6.404020  8.789216  9.273470            0           0           0
     11.673643  4.206157  9.390122            0           0           0
      9.040186  8.776610  9.251224            0           0           0
     10.357703  1.931714  9.257433            0           0           0
      2.450410  1.927376  9.288219            0           0           0
     11.683441  8.784160  9.331889            0           0           0
     12.997688  6.499667  9.389350            0           0           0
      5.074437  1.911675  9.357558            0           0           0
      7.739612  6.510217  9.326659            0           0           0
      9.053223  4.216816  9.295784            0           0           0
      5.079468  6.501880  9.391035            0           0           0
      7.723979  1.925009  9.289486            0           0           0
      7.777361  3.432528  6.977826            0           0           0
      6.303928  1.136533  6.930508            0           0           0
      6.428579  1.129740  0.878720            0           0           0
      3.705484  4.208436  2.816869            0           0           0
      1.183469  1.249762  6.911469            0           0           0
      1.135691  1.190800  0.725566            0           0           0
      6.436066  8.760995  2.900314            0           0           0
      6.400480  4.217586  9.380651            0           0           0
      7.681351  4.990728  4.814740            0           0           0
     10.348358  6.501475  9.330435            0           0           0
     14.264242  7.225928  4.862987            0           0           0
     11.678873  5.688221  7.019655            0           0           0
      6.416461  5.770292  7.005614            0           0           0
      3.621194  2.565893  4.960228            0           0           0
     10.360912  5.024302  4.856517            0           0           0
      3.763989  5.767216  7.166316            0           0           0
     12.969068  7.879772  0.925674            0           0           0
      5.163396  7.917194  0.830298            0           0           0
      3.807011  5.745024  0.813805            0           0           0
      7.798522  2.032451  2.832513            0           0           0
      9.077547  8.733730  2.857427            0           0           0
      2.407399  3.503998  7.146460            0           0           0
      2.344093  3.490514  0.825101            0           0           0
     10.348141  1.969830  2.822490            0           0           0
     12.960353  4.985870  4.925592            0           0           0
      3.747852  1.064853  7.074501            0           0           0
      9.036467  5.761659  7.084956            0           0           0
      3.748243  1.091821  0.867003            0           0           0
      9.091210  5.718673  0.960427            0           0           0
      5.124479  3.470454  0.855627            0           0           0
     11.620923  8.687580  2.905895            0           0           0
     11.653130  7.264496  4.842290            0           0           0
     12.867560  6.452796  2.833790            0           0           0
      9.042010  4.207796  2.796278            0           0           0
      7.770222  8.006944  6.998853            0           0           0
      7.813155  7.939223  0.886525            0           0           0
     10.391439  6.535663  2.821980            0           0           0
      2.513474  0.258257  5.000827            0           0           0
      7.742638  3.484538  0.761574            0           0           0
      5.078354  1.877603  2.917008            0           0           0
      5.160365  6.447147  2.899226            0           0           0
      7.708921  0.459858  4.847993            0           0           0
      9.066496  1.187850  6.978858            0           0           0
[...]
      6.371693  2.665576  4.858272            0           0           0
     11.658911  4.174860  2.814827            0           0           0
      2.440982  1.892366  2.832794            0           0           0
     11.649530  5.686214  0.885461            0           0           0
      6.447433  5.719494  0.925972            0           0           0
      7.829267  6.506514  2.836212            0           0           0
      6.419224  4.130068  2.782896            0           0           0
     10.378841  3.463927  7.052785            0           0           0
     10.344097  3.450125  0.868038            0           0           0
     10.370626  0.484098  4.871515            0           0           0
      9.040790  7.290173  4.936995            0           0           0
      6.462653  7.295032  4.940739            0           0           0
      5.042471  0.276335  4.884059            0           0           0
      1.309269  0.815474 12.247652    -0.335377   -0.625783    0.065926
      1.954784  0.428930 12.206338    -0.334710   -0.614519   -0.043678

 Finite differences POTIM=  1.500000000000000E-002
  LATTYP: Found a hexagonal cell.
 ALAT       =    10.5600004196
 C/A-ratio  =     2.0833332505

  Lattice vectors:

 A1 = (   5.2800002098,  -9.1452286274,   0.0000000000)
 A2 = ( -10.5600004196,   0.0000000000,   0.0000000000)
 A3 = (   0.0000000000,   0.0000000000, -22.0000000000)

Analysis of symmetry for initial positions (statically):
 Subroutine PRICEL returns:
 Original cell was already a primitive cell.

[...]

The static configuration has the point symmetry C_1 .

Analysis of symmetry for dynamics (positions and initial velocities):
 Subroutine PRICEL returns:
 Original cell was already a primitive cell.

[...]

The dynamic configuration has the point symmetry C_1 .

Analysis of constrained symmetry for selective dynamics:
 Subroutine PRICEL returns:
 Original cell was already a primitive cell.

[...]

The constrained configuration has the point symmetry C_1 .

Analysis of structural, dynamic, and magnetic symmetry:
 Subroutine PRICEL returns:
 Original cell was already a primitive cell.

 Routine SETGRP: Setting up the symmetry group for a
 hexagonal supercell.

 Subroutine GETGRP returns: Found  1 space group operations
 (whereof  1 operations were pure point group operations)
 out of a pool of 24 trial point group operations.

The magnetic configuration has the point symmetry C_1 .

 Subroutine INISYM returns: Found  1 space group operations
 (whereof  1 operations are pure point group operations),
 and found     1 'primitive' translations

 KPOINTS: mesh auto

Automatic generation of k-mesh.
Space group operators:
 irot       det(A)        alpha          n_x          n_y          n_z        tau_x        tau_y        tau_z
    1     1.000000     0.000001     1.000000     0.000000     0.000000     0.000000     0.000000     0.000000

 Subroutine IBZKPT returns following result:

 Found      4 irreducible k-points:

 Following reciprocal coordinates:
            Coordinates               Weight
  0.000000  0.000000  0.000000      1.000000
  0.500000  0.000000  0.000000      1.000000
  0.000000  0.500000  0.000000      1.000000
  0.500000  0.500000  0.000000      1.000000

 Following cartesian coordinates:
            Coordinates               Weight
  0.000000  0.000000  0.000000      1.000000
  0.047348 -0.027337  0.000000      1.000000
  0.000000  0.054673  0.000000      1.000000
  0.047348  0.027337  0.000000      1.000000

 TETIRR: Found     12 inequivalent tetrahedra from       24
 BZINTS: Fermi energy:  2.065219;779.000000 electrons
         Band energy:-671.516263;  BLOECHL correction: -0.277432