 vasp.5.4.4.18Apr17-6-g9f103f2a35 (build Nov 30 2020 22:55:02) complex

 executed on             LinuxIFC date 2022.03.26  15:28:26

 INCAR:
 POTCAR:    PAW_PBE Pt 04Feb2005
 POTCAR:    PAW_PBE H 15Jun2001

 POTCAR:    PAW_PBE Pt 04Feb2005
   VRHFIN =Pt: s1d9

   TITEL  = PAW_PBE Pt 04Feb2005
   POMASS =  195.080; ZVAL   =   10.000    mass and valenz
   ENMAX  =  230.283; ENMIN  =  172.712 eV

 POTCAR:    PAW_PBE H 15Jun2001
   VRHFIN =H: ultrasoft test

   TITEL  = PAW_PBE H 15Jun2001
   POMASS =    1.000; ZVAL   =    1.000    mass and valenz
   ENMAX  =  250.000; ENMIN  =  200.000 eV

 Optimization of the real space projectors (new method)

 maximal supplied QI-value         = 14.36
 optimisation between [QCUT,QGAM] = [ 11.92, 23.98] = [ 39.79,161.09] Ry
 Optimized for a Real-space Cutoff    1.49 Angstroem

   l    n(q)    QCUT    max X(q) W(low)/X(q) W(high)/X(q)  e(spline)
   2     10    11.920    66.195    0.79E-04    0.18E-03    0.24E-06
   2     10    11.920    64.643    0.81E-04    0.19E-03    0.24E-06
   0     11    11.920    95.520    0.28E-04    0.54E-04    0.18E-06
   0     11    11.920    63.403    0.27E-04    0.52E-04    0.17E-06
   1     10    11.920    19.961    0.18E-04    0.11E-03    0.23E-06
   1     10    11.920    13.289    0.25E-04    0.87E-04    0.19E-06
 Optimization of the real space projectors (new method)

 maximal supplied QI-value         = 34.20
 optimisation between [QCUT,QGAM] = [ 11.97, 23.94] = [ 40.13,160.53] Ry
 Optimized for a Real-space Cutoff    1.18 Angstroem

   l    n(q)    QCUT    max X(q) W(low)/X(q) W(high)/X(q)  e(spline)
   0      8    11.971    19.460    0.15E-03    0.31E-03    0.25E-06
   0      8    11.971    12.209    0.13E-03    0.29E-03    0.25E-06
   1      8    11.971     4.655    0.22E-03    0.24E-03    0.21E-06
  PAW_PBE Pt 04Feb2005                  :
  PAW_PBE H 15Jun2001                   :

 POSCAR: Pt111
  positions in cartesian coordinates
 exchange correlation table for  LEXCH =        8
   RHO(1)=    0.500       N(1)  =     2000
   RHO(2)=  100.500       N(2)  =     4000

 ion  position               nearest neighbor table
   1  0.785  0.869  0.326-  55 2.76  20 2.76  71 2.76   3 2.80  43 2.80  73 2.80  56 2.80   2 2.81
                            72 2.81  27 2.84  34 2.84  35 2.84
   2  0.035  0.869  0.326-  65 2.76  55 2.76  68 2.76   3 2.80  57 2.80  72 2.80   1 2.81  23 2.81
                            47 2.81  27 2.83  29 2.84  39 2.85
   3  0.035  0.619  0.326-  12 2.76  55 2.76  76 2.76   1 2.80   2 2.80  57 2.80   9 2.81  56 2.81
                            15 2.81  35 2.84  28 2.84  39 2.85
   4  0.785  0.869  0.021-  78 2.79  21 2.79  19 2.80   5 2.80  58 2.80   6 2.80  75 2.80  44 2.80
                            74 2.80
   5  0.035  0.869  0.021-  78 2.79  70 2.79  49 2.79   4 2.80   6 2.80  74 2.80  59 2.81  24 2.81
                            48 2.81
   6  0.035  0.619  0.021-  70 2.79  21 2.79  46 2.79   5 2.80   4 2.80  58 2.80  59 2.81  18 2.81
                            10 2.81
   7  0.618  0.202  0.124-  79 2.73  80 2.73  71 2.74  44 2.79  74 2.79  42 2.79  19 2.80  53 2.81
                            78 2.81  61 2.81  22 2.81  11 2.81
   8  0.368  0.952  0.125-  66 2.73  26 2.74  69 2.74  16 2.78  75 2.79  24 2.79  60 2.80  53 2.80
                            25 2.80  54 2.81  19 2.81  49 2.81
   9  0.035  0.369  0.326-  62 2.76  12 2.76  77 2.76  63 2.80  15 2.80  56 2.80   3 2.81  13 2.81
                            47 2.81  33 2.83  28 2.84  30 2.84
  10  0.035  0.368  0.022-  45 2.78  46 2.79  54 2.80  16 2.80  48 2.80  18 2.80  64 2.81   6 2.81
                            58 2.81
  11  0.869  0.202  0.124-  79 2.73  65 2.74  77 2.74  48 2.79  74 2.79  64 2.79  49 2.80  54 2.80
                            78 2.81  45 2.81  22 2.81   7 2.81
  12  0.951  0.536  0.225-  46 2.74  45 2.74  21 2.74  56 2.76   3 2.76   9 2.76  20 2.80  67 2.80
                            55 2.80  77 2.80  62 2.81  76 2.81
  13  0.285  0.119  0.326-  62 2.76  69 2.76  26 2.76  23 2.80  15 2.80  47 2.80   9 2.81  73 2.81
                            43 2.81  33 2.83  36 2.84  31 2.84
  14  0.536  0.619  0.326-  67 2.75  66 2.75  51 2.76  56 2.80  37 2.80  73 2.80  38 2.81  63 2.81
                            41 2.81  57 2.82  23 2.82  52 2.85
  15  0.285  0.369  0.326-  62 2.74  76 2.76  80 2.76   9 2.80  13 2.80   3 2.81  43 2.81  57 2.81
                            41 2.82  36 2.84  28 2.84  50 2.84
  16  0.284  0.119  0.022-   8 2.78  53 2.79  54 2.79  48 2.79  10 2.80  24 2.81  18 2.81  75 2.81
                            44 2.81
  17  0.535  0.619  0.021-  22 2.79  60 2.79  25 2.79  42 2.80  59 2.80  64 2.81  24 2.81  75 2.81
                            58 2.81
  18  0.285  0.369  0.021-  61 2.79  46 2.79  53 2.79  10 2.80  16 2.81  42 2.81   6 2.81  59 2.81
                            44 2.81
  19  0.618  0.952  0.125-  71 2.73  20 2.73  69 2.74  44 2.79  75 2.79   4 2.80  78 2.80  25 2.80
                             7 2.80  21 2.80  53 2.81   8 2.81
  20  0.702  0.786  0.225-  19 2.73  21 2.73  25 2.74  73 2.76   1 2.76  56 2.76  12 2.80  66 2.80
                            55 2.80  67 2.80  69 2.80  71 2.81
  21  0.868  0.702  0.125-  55 2.73  20 2.73  12 2.74   6 2.79  58 2.79   4 2.79  78 2.80  70 2.80
                            19 2.80  25 2.81  46 2.81  45 2.81
  22  0.619  0.452  0.124-  51 2.73  79 2.74  67 2.74  42 2.79  64 2.79  17 2.79  45 2.81   7 2.81
                            11 2.81  25 2.81  61 2.81  60 2.81
  23  0.285  0.870  0.326-  26 2.74  66 2.76  68 2.76  47 2.80  13 2.80   2 2.81  73 2.81  57 2.81
                            14 2.82  37 2.84  29 2.84  31 2.84
  24  0.285  0.869  0.021-  60 2.79  49 2.79   8 2.79  59 2.80  48 2.81  16 2.81  17 2.81  75 2.81
                             5 2.81
  25  0.618  0.702  0.124-  66 2.73  67 2.73  20 2.74  75 2.78  58 2.79  17 2.79  19 2.80   8 2.80
                            21 2.81  60 2.81  22 2.81  45 2.81
  26  0.202  0.035  0.225-  54 2.73   8 2.74  23 2.74  49 2.74  47 2.76  13 2.76  68 2.80  66 2.81
                            65 2.81  69 2.81  62 2.81  77 2.81
  27  0.869  0.952  0.432-  97 1.85  87 1.85  96 1.85  29 2.81  32 2.81  35 2.81  34 2.81  39 2.82
                            40 2.82   2 2.83   1 2.84  72 2.84
  28  0.119  0.452  0.432-  90 1.85  88 1.86  89 1.86  39 2.80  36 2.80  35 2.81  33 2.81  30 2.82
                            50 2.84   3 2.84  15 2.84   9 2.84
  29  0.120  0.951  0.432-  94 1.85  97 1.85  84 1.86  39 2.80  31 2.80  27 2.81  33 2.81  32 2.82
                            37 2.83   2 2.84  23 2.84  47 2.84
  30  0.868  0.452  0.432-  93 1.84  89 1.85  83 1.85  52 2.80  32 2.80  35 2.81  33 2.81  28 2.82
                            38 2.83  56 2.84   9 2.84  63 2.85
  31  0.369  0.951  0.432-  94 1.85  95 1.86  85 1.86  29 2.80  52 2.80  34 2.81  33 2.81  36 2.82
                            37 2.83  73 2.83  13 2.84  23 2.84
  32  0.868  0.203  0.432-  97 1.86  92 1.86  93 1.86  40 2.80  30 2.80  27 2.81  33 2.81  29 2.82
                            38 2.83  47 2.84  72 2.84  63 2.84
  33  0.119  0.202  0.432-  94 1.85  90 1.85  93 1.86  32 2.81  30 2.81  36 2.81  29 2.81  28 2.81
                            31 2.81  13 2.83   9 2.83  47 2.84
  34  0.619  0.952  0.432-  96 1.85  95 1.85  86 1.85  35 2.81  31 2.81  36 2.81  27 2.81  52 2.82
                            40 2.83  73 2.84   1 2.84  43 2.84
  35  0.869  0.702  0.432-  87 1.85  89 1.85  86 1.86  28 2.81  30 2.81  34 2.81  27 2.81  52 2.82
                            39 2.82   3 2.84  56 2.84   1 2.84
  36  0.369  0.203  0.432-  90 1.85  95 1.85  91 1.86  28 2.80  40 2.80  34 2.81  33 2.81  31 2.82
                            43 2.83  50 2.84  13 2.84  15 2.84
  37  0.371  0.698  0.430-  84 1.86  85 1.86  50 2.73  38 2.74  52 2.79  39 2.79  14 2.80  57 2.80
                            31 2.83  29 2.83  23 2.84
  38  0.615  0.454  0.430-  92 1.86  83 1.86  50 2.74  37 2.74  52 2.79  40 2.79  14 2.81  41 2.81
                            30 2.83  32 2.83  63 2.84
  39  0.121  0.701  0.432-  84 1.85  88 1.85  87 1.86  37 2.79  50 2.79  29 2.80  28 2.80  27 2.82
                            35 2.82  57 2.84   3 2.85   2 2.85
  40  0.618  0.204  0.432-  92 1.85  91 1.85  96 1.86  50 2.79  38 2.79  32 2.80  36 2.80  27 2.82
                            34 2.83  41 2.84  72 2.85  43 2.85
  41  0.536  0.369  0.326-  80 2.75  79 2.75  51 2.76  72 2.80  50 2.81  43 2.81  38 2.81  14 2.81
                            57 2.81  63 2.81  15 2.82  40 2.84
  42  0.535  0.369  0.021-  22 2.79  61 2.79   7 2.79  17 2.80  64 2.81  18 2.81  44 2.81  59 2.81
                            74 2.81
  43  0.536  0.119  0.326-  71 2.76  69 2.76  80 2.76   1 2.80  72 2.80  41 2.81  73 2.81  13 2.81
                            15 2.81  36 2.83  34 2.84  40 2.85
  44  0.535  0.119  0.021-   7 2.79  19 2.79  53 2.79  74 2.80   4 2.80  75 2.80  42 2.81  18 2.81
                            16 2.81
  45  0.869  0.452  0.124-  67 2.73  12 2.74  77 2.74  10 2.78  58 2.79  64 2.79  46 2.80  54 2.80
                            22 2.81  11 2.81  21 2.81  25 2.81
  46  0.118  0.452  0.125-  76 2.73  62 2.74  12 2.74  10 2.79  18 2.79   6 2.79  45 2.80  61 2.80
                            70 2.80  54 2.81  53 2.81  21 2.81
  47  0.035  0.119  0.326-  26 2.76  77 2.76  65 2.76  23 2.80  63 2.80  13 2.80  72 2.81   2 2.81
                             9 2.81  33 2.84  32 2.84  29 2.84
  48  0.035  0.119  0.021-  11 2.79  49 2.79  16 2.79  10 2.80  54 2.80  24 2.81  64 2.81  74 2.81
                             5 2.81
  49  0.118  0.952  0.124-  68 2.73  65 2.74  26 2.74  48 2.79  24 2.79   5 2.79  60 2.80  11 2.80
                            54 2.81   8 2.81  70 2.81  78 2.81
  50  0.371  0.454  0.430-  88 1.85  91 1.85  37 2.73  38 2.74  40 2.79  39 2.79  41 2.81  57 2.81
                            28 2.84  36 2.84  15 2.84
  51  0.452  0.536  0.224-  61 2.73  22 2.73  60 2.73  57 2.76  41 2.76  14 2.76  66 2.80  80 2.80
                            67 2.80  79 2.80  68 2.81  76 2.81
  52  0.618  0.701  0.433-  85 1.84  83 1.84  86 1.85  38 2.79  37 2.79  30 2.80  31 2.80  34 2.82
                            35 2.82  14 2.85  56 2.85  73 2.85
  53  0.368  0.202  0.125-  80 2.74  69 2.74  62 2.74  16 2.79  18 2.79  44 2.79  61 2.80   8 2.80
                             7 2.81  54 2.81  19 2.81  46 2.81
  54  0.118  0.202  0.125-  26 2.73  62 2.73  77 2.73  16 2.79  10 2.80  48 2.80  45 2.80  11 2.80
                            46 2.81   8 2.81  53 2.81  49 2.81
  55  0.952  0.786  0.225-  21 2.73  78 2.74  70 2.74   1 2.76   3 2.76   2 2.76  20 2.80  71 2.80
                            12 2.80  76 2.80  68 2.81  65 2.81
  56  0.785  0.619  0.326-  12 2.76  20 2.76  67 2.77  14 2.80  73 2.80  63 2.80   9 2.80   1 2.80
                             3 2.81  35 2.84  30 2.84  52 2.85
  57  0.285  0.619  0.325-  76 2.75  68 2.75  51 2.76   2 2.80  37 2.80   3 2.80  50 2.81  15 2.81
                            41 2.81  23 2.81  14 2.82  39 2.84
  58  0.785  0.619  0.021-  25 2.79  21 2.79  45 2.79  75 2.80   4 2.80   6 2.80  17 2.81  64 2.81
                            10 2.81
[...]
     10.86821      6.81274      9.52009        -0.012634      0.006346     -0.015828
      5.26945      1.96592      2.74073        -0.000376     -0.004104      0.016286
      2.46414      1.96618      2.75628        -0.004061     -0.000448     -0.009174
     15.08799      7.63555      4.94249         0.014715      0.005981      0.000909
     12.28437      6.01630      7.18013         0.008457      0.002654     -0.005712
      6.67144      6.01640      7.15979         0.000699      0.000968      0.003844
     12.28366      6.01756      0.46817         0.001178      0.002333      0.003709
      6.67158      6.01671      0.46577         0.002964     -0.002862      0.003970
      8.07475      6.82942      2.73479         0.009257     -0.013186     -0.006338
[...]
     10.86127      5.19325     10.40104        -0.008401     -0.004009     -0.006735
      6.70382      7.61339     10.39240         0.002433      0.000089     -0.003920
      9.46382      7.61245     10.39541        -0.014195      0.006531     -0.011730
     12.27554      7.62901     10.40336         0.016273      0.006273     -0.008048
     15.10089      7.63381     10.39525        -0.005197     -0.004608      0.001697
      5.31085      5.18800     10.39199        -0.003354      0.003594      0.005074
     13.68658      5.20120     10.40716         0.011292      0.012337     -0.010609
      3.87366      2.77604     10.39749        -0.000148     -0.000863      0.015435
      6.67901      2.80920     10.38740         0.002430      0.002052      0.010730
      9.47972      2.80487     10.39488        -0.000371      0.002580     -0.009296
     12.28768      2.78502     10.40628        -0.006936     -0.018259     -0.004002
      2.46792      0.34260     10.39902        -0.000156     -0.001641      0.012297
      5.27467      0.34651     10.39650         0.000787     -0.003464      0.006578
      8.07745      0.35091     10.38985         0.004056     -0.001721      0.017890
     10.88455      0.34040     10.39713        -0.002164      0.005698      0.007290
    total drift:                               -0.009602     -0.008588      0.099595

  FREE ENERGIE OF THE ION-ELECTRON SYSTEM (eV)
  free  energy   TOTEN  =      -578.41721712 eV

  energy  without entropy=     -578.48773400  energy(sigma->0) =     -578.44072274

 d Force =-0.6013223E-03[-0.364E-02, 0.244E-02]  d Energy =-0.6807338E-03 0.794E-04
 d Force =-0.6218211E+01[-0.624E+01,-0.620E+01]  d Ewald  =-0.6218485E+01 0.274E-03

 Finite differences progress:
  Degree of freedom:   6/  6
  Displacement:        2/  2
  Total:              12/ 12

 SECOND DERIVATIVES (NOT SYMMETRIZED)
              81X         81Y         81Z         82X         82Y         82Z
 81X   -20.813879  -10.666514  -11.667211   20.649554   10.581199   11.643582
 81Y   -10.716001   -5.576874   -6.015637   10.573724    5.490905    5.969029
 81Z   -11.712420   -6.019599   -6.615458   11.601018    5.967224    6.489501
 82X    20.642152   10.578381   11.586712  -20.874510  -10.697427  -11.745373
 82Y    10.584139    5.490029    5.948495  -10.738657   -5.585455   -6.057142
 82Z    11.644178    5.986975    6.480177  -11.786227   -6.058187   -6.756841

 Eigenvectors and eigenvalues of the dynamical matrix

   1 f  =  126.609401 THz   795.510326 2PiTHz 4223.234888 cm-1   523.614580 meV
             X         Y         Z           dx          dy          dz
     13.688024  8.444491  7.177163            0           0           0
      5.270465  8.444569  7.175627            0           0           0
      3.866926  6.018462  7.178103            0           0           0
     13.686399  8.444422  0.461792            0           0           0
      5.265869  8.444663  0.466032            0           0           0
      3.865108  6.016787  0.467419            0           0           0
      8.074608  1.965511  2.738824            0           0           0
      9.478537  9.256224  2.739649            0           0           0
      2.465560  3.588442  7.181857            0           0           0
      2.463499  3.581463  0.474802            0           0           0
     10.882756  1.964059  2.737524            0           0           0
     13.684761  5.207589  4.946412            0           0           0
      3.867669  1.155337  7.179816            0           0           0
      9.486456  6.015745  7.162009            0           0           0
      5.263920  3.582933  7.168010            0           0           0
      3.859675  1.159365  0.476231            0           0           0
      9.476477  6.014979  0.464610            0           0           0
      5.268177  3.586182  0.470105            0           0           0
     12.284174  9.255699  2.740727            0           0           0
     12.284528  7.635454  4.942970            0           0           0
     13.687481  6.827030  2.739031            0           0           0
      9.479560  4.395322  2.734107            0           0           0
      8.075893  8.452681  7.164987            0           0           0
      8.074514  8.445330  0.464196            0           0           0
     10.881432  6.827601  2.736640            0           0           0
      2.464678  0.341986  4.948137            0           0           0
     15.095810  9.253401  9.503418            0           0           0
      3.879017  4.397314  9.508297            0           0           0
      6.679527  9.245062  9.506347            0           0           0
     12.280659  4.396642  9.513234            0           0           0
      9.479255  9.245360  9.503452            0           0           0
     10.880636  1.969335  9.503915            0           0           0
      2.466520  1.965344  9.504913            0           0           0
     12.287007  9.252857  9.509550            0           0           0
     13.690938  6.822761  9.509875            0           0           0
      5.278068  1.969990  9.501910            0           0           0
      8.080626  6.783478  9.459956            0           0           0
      9.449417  4.414136  9.469082            0           0           0
      5.292771  6.813913  9.511326            0           0           0
      8.080923  1.985359  9.509548            0           0           0
      8.079328  3.582931  7.161071            0           0           0
      8.074568  3.586076  0.468263            0           0           0
      6.676852  1.153350  7.177445            0           0           0
      6.673434  1.154402  0.470723            0           0           0
     12.285500  4.394941  2.738335            0           0           0
      3.866303  4.395657  2.741765            0           0           0
      1.062887  1.155024  7.178570            0           0           0
      1.064823  1.158216  0.471159            0           0           0
      6.672587  9.255450  2.736844            0           0           0
      6.714032  4.414643  9.465925            0           0           0
      8.076885  5.205904  4.932429            0           0           0
     10.868212  6.812742  9.520090            0           0           0
      5.269453  1.965919  2.740733            0           0           0
      2.464140  1.966182  2.756277            0           0           0
     15.087988  7.635553  4.942485            0           0           0
     12.284370  6.016296  7.180133            0           0           0
      6.671444  6.016402  7.159792            0           0           0
     12.283658  6.017560  0.468172            0           0           0
      6.671581  6.016714  0.465769            0           0           0
      8.074750  6.829420  2.734790            0           0           0
[...]
     10.861266  5.193253 10.401039            0           0           0
      6.703817  7.613387 10.392396            0           0           0
      9.463825  7.612446 10.395406            0           0           0
     12.275542  7.629007 10.403361            0           0           0
     15.100893  7.633808 10.395253            0           0           0
      5.310854  5.188000 10.391992            0           0           0
     13.686576  5.201205 10.407158            0           0           0
      3.873656  2.776037 10.397490            0           0           0
      6.679012  2.809196 10.387396            0           0           0
      9.479716  2.804867 10.394883            0           0           0
     12.287684  2.785016 10.406278            0           0           0
      2.467920  0.342596 10.399021            0           0           0
      5.274674  0.346513 10.396502            0           0           0
      8.077448  0.350914 10.389850            0           0           0
     10.884552  0.340397 10.397128            0           0           0

[...]

   6 f  =    1.307596 THz     8.215867 2PiTHz   43.616702 cm-1     5.407784 meV
             X         Y         Z           dx          dy          dz
     13.688024  8.444491  7.177163            0           0           0
      5.270465  8.444569  7.175627            0           0           0
      3.866926  6.018462  7.178103            0           0           0
     13.686399  8.444422  0.461792            0           0           0
      5.265869  8.444663  0.466032            0           0           0
      3.865108  6.016787  0.467419            0           0           0
      8.074608  1.965511  2.738824            0           0           0
      9.478537  9.256224  2.739649            0           0           0
      2.465560  3.588442  7.181857            0           0           0
      2.463499  3.581463  0.474802            0           0           0
     10.882756  1.964059  2.737524            0           0           0
     13.684761  5.207589  4.946412            0           0           0
      3.867669  1.155337  7.179816            0           0           0
      9.486456  6.015745  7.162009            0           0           0
      5.263920  3.582933  7.168010            0           0           0
      3.859675  1.159365  0.476231            0           0           0
      9.476477  6.014979  0.464610            0           0           0
      5.268177  3.586182  0.470105            0           0           0
     12.284174  9.255699  2.740727            0           0           0
     12.284528  7.635454  4.942970            0           0           0
     13.687481  6.827030  2.739031            0           0           0
      9.479560  4.395322  2.734107            0           0           0
      8.075893  8.452681  7.164987            0           0           0
      8.074514  8.445330  0.464196            0           0           0
     10.881432  6.827601  2.736640            0           0           0
      2.464678  0.341986  4.948137            0           0           0
     15.095810  9.253401  9.503418            0           0           0
      3.879017  4.397314  9.508297            0           0           0
      6.679527  9.245062  9.506347            0           0           0
     12.280659  4.396642  9.513234            0           0           0
      9.479255  9.245360  9.503452            0           0           0
     10.880636  1.969335  9.503915            0           0           0
      2.466520  1.965344  9.504913            0           0           0
     12.287007  9.252857  9.509550            0           0           0
     13.690938  6.822761  9.509875            0           0           0
      5.278068  1.969990  9.501910            0           0           0
      8.080626  6.783478  9.459956            0           0           0
      9.449417  4.414136  9.469082            0           0           0
      5.292771  6.813913  9.511326            0           0           0
      8.080923  1.985359  9.509548            0           0           0
      8.079328  3.582931  7.161071            0           0           0
      8.074568  3.586076  0.468263            0           0           0
      6.676852  1.153350  7.177445            0           0           0
      6.673434  1.154402  0.470723            0           0           0
     12.285500  4.394941  2.738335            0           0           0
      3.866303  4.395657  2.741765            0           0           0
      1.062887  1.155024  7.178570            0           0           0
      1.064823  1.158216  0.471159            0           0           0
      6.672587  9.255450  2.736844            0           0           0
      6.714032  4.414643  9.465925            0           0           0
      8.076885  5.205904  4.932429            0           0           0
     10.868212  6.812742  9.520090            0           0           0
      5.269453  1.965919  2.740733            0           0           0
      2.464140  1.966182  2.756277            0           0           0
     15.087988  7.635553  4.942485            0           0           0
     12.284370  6.016296  7.180133            0           0           0
      6.671444  6.016402  7.159792            0           0           0
     12.283658  6.017560  0.468172            0           0           0
      6.671581  6.016714  0.465769            0           0           0
      8.074750  6.829420  2.734790            0           0           0
[...]
     10.861266  5.193253 10.401039            0           0           0
      6.703817  7.613387 10.392396            0           0           0
      9.463825  7.612446 10.395406            0           0           0
     12.275542  7.629007 10.403361            0           0           0
     15.100893  7.633808 10.395253            0           0           0
      5.310854  5.188000 10.391992            0           0           0
     13.686576  5.201205 10.407158            0           0           0
      3.873656  2.776037 10.397490            0           0           0
      6.679012  2.809196 10.387396            0           0           0
      9.479716  2.804867 10.394883            0           0           0
     12.287684  2.785016 10.406278            0           0           0
      2.467920  0.342596 10.399021            0           0           0
      5.274674  0.346513 10.396502            0           0           0
      8.077448  0.350914 10.389850            0           0           0
     10.884552  0.340397 10.397128            0           0           0

 Finite differences POTIM=  1.500000000000000E-002
  LATTYP: Found a hexagonal cell.
 ALAT       =    11.2227001190
 C/A-ratio  =     1.9603125600

  Lattice vectors:

 A1 = (   5.6113500595,  -9.7191434021,   0.0000000000)
 A2 = ( -11.2227001190,   0.0000000000,   0.0000000000)
 A3 = (   0.0000000000,   0.0000000000, -22.0000000000)

Analysis of symmetry for initial positions (statically):
 Subroutine PRICEL returns:
 Original cell was already a primitive cell.

[...]

The static configuration has the point symmetry C_1 .

Analysis of symmetry for dynamics (positions and initial velocities):
 Subroutine PRICEL returns:
 Original cell was already a primitive cell.

[...]

The dynamic configuration has the point symmetry C_1 .

Analysis of constrained symmetry for selective dynamics:
 Subroutine PRICEL returns:
 Original cell was already a primitive cell.

[...]

The constrained configuration has the point symmetry C_1 .

Analysis of structural, dynamic, and magnetic symmetry:
 Subroutine PRICEL returns:
 Original cell was already a primitive cell.

 Routine SETGRP: Setting up the symmetry group for a
 hexagonal supercell.

 Subroutine GETGRP returns: Found  1 space group operations
 (whereof  1 operations were pure point group operations)
 out of a pool of 24 trial point group operations.

The magnetic configuration has the point symmetry C_1 .

 Subroutine INISYM returns: Found  1 space group operations
 (whereof  1 operations are pure point group operations),
 and found     1 'primitive' translations

 KPOINTS: mesh auto

Automatic generation of k-mesh.
Space group operators:
 irot       det(A)        alpha          n_x          n_y          n_z        tau_x        tau_y        tau_z
    1     1.000000     0.000000     1.000000     0.000000     0.000000     0.000000     0.000000     0.000000

 Subroutine IBZKPT returns following result:

 Found      4 irreducible k-points:

 Following reciprocal coordinates:
            Coordinates               Weight
  0.000000  0.000000  0.000000      1.000000
  0.500000  0.000000  0.000000      1.000000
  0.000000  0.500000  0.000000      1.000000
  0.500000  0.500000  0.000000      1.000000

 Following cartesian coordinates:
            Coordinates               Weight
  0.000000  0.000000  0.000000      1.000000
  0.044553 -0.025722  0.000000      1.000000
  0.000000  0.051445  0.000000      1.000000
  0.044553  0.025722  0.000000      1.000000