 vasp.5.4.4.18Apr17-6-g9f103f2a35 (build Oct 25 2019 11:13:22) complex

 executed on             LinuxIFC date 2022.02.12  05:21:46

 INCAR:
 POTCAR:    PAW_PBE Pt 04Feb2005
 POTCAR:    PAW_PBE Co 02Aug2007
 POTCAR:    PAW_PBE Ni 02Aug2007
 POTCAR:    PAW_PBE H 15Jun2001
 POTCAR:    PAW_PBE Pt 04Feb2005
   VRHFIN =Pt: s1d9

   TITEL  = PAW_PBE Pt 04Feb2005
   POMASS =  195.080; ZVAL   =   10.000    mass and valenz
   ENMAX  =  230.283; ENMIN  =  172.712 eV

 POTCAR:    PAW_PBE Co 02Aug2007
   VRHFIN =Co: d8 s1

   TITEL  = PAW_PBE Co 02Aug2007
   POMASS =   58.933; ZVAL   =    9.000    mass and valenz
   ENMAX  =  267.968; ENMIN  =  200.976 eV

 POTCAR:    PAW_PBE Ni 02Aug2007
   VRHFIN =Ni:

   TITEL  = PAW_PBE Ni 02Aug2007
   POMASS =   58.690; ZVAL   =   10.000    mass and valenz
   ENMAX  =  269.532; ENMIN  =  202.149 eV

 POTCAR:    PAW_PBE H 15Jun2001
   VRHFIN =H: ultrasoft test

   TITEL  = PAW_PBE H 15Jun2001
   POMASS =    1.000; ZVAL   =    1.000    mass and valenz
   ENMAX  =  250.000; ENMIN  =  200.000 eV

 Optimization of the real space projectors (new method)

 maximal supplied QI-value         = 14.36
 optimisation between [QCUT,QGAM] = [ 11.92, 23.98] = [ 39.79,161.09] Ry
 Optimized for a Real-space Cutoff    1.49 Angstroem

   l    n(q)    QCUT    max X(q) W(low)/X(q) W(high)/X(q)  e(spline)
   2     10    11.920    66.195    0.79E-04    0.18E-03    0.24E-06
   2     10    11.920    64.643    0.81E-04    0.19E-03    0.24E-06
   0     11    11.920    95.520    0.28E-04    0.54E-04    0.18E-06
   0     11    11.920    63.403    0.27E-04    0.52E-04    0.17E-06
   1     10    11.920    19.961    0.18E-04    0.11E-03    0.23E-06
   1     10    11.920    13.289    0.25E-04    0.87E-04    0.19E-06
 Optimization of the real space projectors (new method)

[...]

   l    n(q)    QCUT    max X(q) W(low)/X(q) W(high)/X(q)  e(spline)
   2      9    11.864    60.317    0.21E-03    0.51E-03    0.25E-06
   2      9    11.864    55.921    0.21E-03    0.51E-03    0.26E-06
   0      9    11.864    51.690    0.22E-03    0.30E-04    0.17E-06
   0      9    11.864    30.015    0.20E-03    0.28E-04    0.15E-06
   1      9    11.864    18.849    0.76E-04    0.33E-03    0.17E-06
   1      9    11.864    14.624    0.60E-04    0.28E-03    0.15E-06
 Optimization of the real space projectors (new method)

 maximal supplied QI-value         = 34.20
 optimisation between [QCUT,QGAM] = [ 11.97, 23.94] = [ 40.13,160.53] Ry
 Optimized for a Real-space Cutoff    1.18 Angstroem

   l    n(q)    QCUT    max X(q) W(low)/X(q) W(high)/X(q)  e(spline)
   0      8    11.971    19.460    0.15E-03    0.31E-03    0.25E-06
   0      8    11.971    12.209    0.13E-03    0.29E-03    0.25E-06
   1      8    11.971     4.655    0.22E-03    0.24E-03    0.21E-06
  PAW_PBE Pt 04Feb2005                  :
  PAW_PBE Co 02Aug2007                  :
  PAW_PBE Ni 02Aug2007                  :
  PAW_PBE H 15Jun2001                   :

 POSCAR: 11.26
  positions in direct lattice
  velocities in cartesian coordinates
 exchange correlation table for  LEXCH =        8
   RHO(1)=    0.500       N(1)  =     2000
   RHO(2)=  100.500       N(2)  =     4000

 ion  position               nearest neighbor table
   1  0.789  0.879  0.301-  49 2.47  59 2.56  60 2.64  28 2.69   4 2.73   2 2.74  29 2.75  19 2.80
                            11 2.85  12 2.85  61 2.89  33 2.94
   2  0.033  0.879  0.293-  79 2.49  77 2.57  60 2.72   1 2.74  28 2.76   4 2.81   6 2.89  30 2.90
                            16 2.94  33 2.99  22 3.17  52 3.23
   3  0.276  0.362  0.311-  64 2.54  68 2.62  31 2.63  39 2.67  33 2.70   5 2.71  30 2.76  13 2.76
                            25 2.78  19 2.81  43 2.82  18 2.87
   4  0.875  0.964  0.400-  60 2.71   9 2.72  17 2.72   1 2.73   6 2.79  16 2.79  12 2.81   2 2.81
                            11 2.83
   5  0.113  0.467  0.410-  39 2.60  33 2.70   3 2.71  12 2.72  16 2.73  10 2.76   7 2.77  25 2.85
                            13 2.98
   6  0.125  0.959  0.400-  52 2.62  22 2.70   4 2.79   8 2.83  16 2.86   9 2.88   2 2.89  10 2.90
                            14 2.91
   7  0.873  0.455  0.412-  75 2.54  39 2.58   5 2.77  10 2.79  27 2.80   9 2.80  29 2.82  15 2.84
                            12 2.93
   8  0.377  0.956  0.415-  81 1.62  43 2.53  52 2.56  61 2.68  13 2.75  27 2.80  11 2.81   6 2.83
                            10 2.84  14 2.90
   9  0.864  0.211  0.396-  75 2.60  22 2.67   4 2.72  17 2.73  15 2.74  60 2.77   7 2.80   6 2.88
                            10 3.01
  10  0.129  0.214  0.413-  22 2.64  43 2.69  13 2.72   5 2.76  39 2.77   7 2.79   8 2.84   6 2.90
                             9 3.01
  11  0.629  0.952  0.410-  81 1.79  61 2.65  12 2.71  19 2.73  27 2.76  17 2.79  13 2.81   8 2.81
                             4 2.83   1 2.85
  12  0.875  0.714  0.408-  29 2.66  16 2.68  11 2.71   5 2.72   4 2.81  33 2.81  27 2.83   1 2.85
                             7 2.93
  13  0.378  0.200  0.413-  43 2.70  10 2.72  19 2.73   8 2.75   3 2.76  25 2.78  17 2.80  11 2.81
                             5 2.98
  14  0.381  0.696  0.403-  52 2.55  44 2.56  15 2.69  25 2.81  27 2.84  30 2.88  16 2.90   8 2.90
                             6 2.91
  15  0.620  0.456  0.399-  75 2.53  44 2.61  14 2.69   9 2.74  25 2.79  17 2.83   7 2.84  18 2.85
                            27 2.87
  16  0.116  0.709  0.404-  12 2.68  30 2.69   5 2.73  33 2.76   4 2.79   6 2.86  14 2.90  25 2.92
                             2 2.94
  17  0.627  0.201  0.404-  18 2.69   4 2.72   9 2.73  19 2.79  11 2.79  25 2.79  13 2.80  60 2.82
                            15 2.83
  18  0.538  0.348  0.301-  67 2.46  26 2.59  68 2.67  17 2.69  60 2.69  19 2.70  25 2.82  15 2.85
                             3 2.87  30 2.95  75 3.20
  19  0.527  0.113  0.308-  59 2.47  80 2.51  68 2.57  43 2.61  61 2.63  18 2.70  13 2.73  11 2.73
                            17 2.79   1 2.80   3 2.81  60 2.92
  20  0.546  0.126  0.067-  48 2.50  57 2.52  47 2.52  62 2.53  37 2.60  56 2.66  34 2.70  63 2.89

  21  0.118  0.408  0.119-  47 2.44  40 2.48  36 2.49  69 2.60  57 2.64  42 2.67  64 2.70  70 2.72
                            31 2.74  50 3.30
  22  0.055  0.148  0.310-  77 2.43  65 2.51  55 2.51  43 2.57  39 2.62  10 2.64   9 2.67   6 2.70
                            75 2.90  31 3.04  52 3.05   2 3.17  60 3.23
  23  0.009  0.102  0.049-  40 2.49  62 2.55  70 2.57  41 2.59  45 2.66  76 2.69  24 2.70  35 2.74
                            53 3.07
  24  0.138  0.927  0.142-  79 2.46  35 2.50  77 2.54  58 2.54  53 2.56  55 2.59  38 2.59  73 2.64
                            70 2.65  23 2.70  66 2.83
  25  0.376  0.448  0.407-  30 2.76  13 2.78   3 2.78  15 2.79  17 2.79  14 2.81  18 2.82   5 2.85
                            16 2.92
  26  0.480  0.554  0.230-  74 2.50  73 2.52  44 2.52  51 2.59  18 2.59  79 2.60  78 2.62  30 2.63
                            32 2.66  67 2.70
  27  0.627  0.707  0.413-  81 1.72  44 2.49  61 2.70  11 2.76   7 2.80   8 2.80  29 2.80  12 2.83
                            14 2.84  15 2.87
  28  0.953  0.759  0.204-  58 2.53  50 2.61  66 2.61  42 2.62  36 2.63  33 2.66   1 2.69   2 2.76
                            64 2.80  49 2.88  34 3.22  59 3.23  35 3.30
  29  0.797  0.631  0.311-  39 2.59  32 2.61  49 2.62  75 2.62  42 2.63  33 2.64  44 2.65  12 2.66
                             1 2.75  27 2.80   7 2.82  61 2.84
  30  0.274  0.608  0.304-  79 2.43  33 2.60  26 2.63  64 2.65  16 2.69  25 2.76   3 2.76  14 2.88
                             2 2.90  18 2.95  52 3.26
  31  0.187  0.262  0.225-  70 2.52  57 2.57  65 2.58  55 2.59  39 2.62   3 2.63  43 2.63  42 2.72
                            80 2.73  21 2.74  68 2.76  64 2.79  22 3.04
  32  0.711  0.561  0.214-  69 2.53  51 2.56  54 2.61  29 2.61  49 2.62  26 2.66  65 2.66  50 2.66
                            42 2.68  75 2.69  78 2.71  67 2.73  44 2.73
  33  0.042  0.609  0.305-  42 2.47  64 2.50  39 2.51  30 2.60  29 2.64  28 2.66   5 2.70   3 2.70
                            16 2.76  12 2.81   1 2.94   2 2.99
  34  0.782  0.884  0.080-  48 2.38  35 2.38  50 2.53  66 2.54  36 2.55  62 2.67  20 2.70  28 3.22

  35  0.002  0.866  0.072-  36 2.37  34 2.38  66 2.43  24 2.50  58 2.60  23 2.74  62 2.75  28 3.30

  36  0.006  0.657  0.094-  50 2.33  35 2.37  58 2.38  21 2.49  34 2.55  28 2.63
  37  0.628  0.234  0.150-  41 2.41  56 2.42  59 2.43  67 2.44  62 2.45  68 2.50  51 2.50  74 2.51
                            20 2.60  66 2.60
  38  0.361  0.942  0.135-  53 2.40  45 2.41  63 2.42  57 2.43  48 2.45  55 2.45  54 2.46  78 2.48
                            80 2.54  73 2.59  24 2.59  70 2.83
  39  0.024  0.396  0.316-  42 2.46  33 2.51   7 2.58  75 2.58  65 2.58  29 2.59   5 2.60  31 2.62
                            22 2.62   3 2.67  10 2.77
  40  0.013  0.321  0.044-  69 2.32  76 2.45  21 2.48  23 2.49  70 2.51  45 2.63  71 2.93
  41  0.844  0.228  0.139-  67 2.35  76 2.37  77 2.38  37 2.41  62 2.44  51 2.48  69 2.48  66 2.49
                            65 2.58  23 2.59  70 2.61
  42  0.967  0.520  0.219-  39 2.46  33 2.47  50 2.48  64 2.48  65 2.50  28 2.62  29 2.63  69 2.65
                            21 2.67  32 2.68  31 2.72
  43  0.303  0.099  0.319-  52 2.45  80 2.46  55 2.51   8 2.53  61 2.56  22 2.57  19 2.61  31 2.63
                            10 2.69  13 2.70   3 2.82
  44  0.553  0.648  0.317-  61 2.45  78 2.47  27 2.49  26 2.52  14 2.56  52 2.57  15 2.61  29 2.65
                            75 2.73  32 2.73
  45  0.251  0.091  0.049-  38 2.41  57 2.45  53 2.48  70 2.50  63 2.54  40 2.63  23 2.66
  46  0.529  0.612  0.047-  54 2.37  73 2.44  51 2.45  71 2.47  72 2.53  53 2.63  56 2.72  76 2.87
                            63 3.07
  47  0.334  0.361  0.072-  74 2.29  56 2.44  21 2.44  57 2.50  72 2.50  20 2.52
  48  0.581  0.937  0.137-  49 2.29  63 2.35  34 2.38  54 2.38  80 2.38  38 2.45  59 2.46  20 2.50
                            57 2.63  50 2.74
  49  0.677  0.809  0.223-  48 2.29  50 2.34  61 2.46  78 2.47   1 2.47  59 2.54  80 2.57  29 2.62
                            32 2.62  54 2.79  28 2.88
  50  0.810  0.679  0.140-  36 2.33  49 2.34  54 2.38  71 2.39  42 2.48  69 2.52  34 2.53  28 2.61
                            32 2.66  48 2.74  21 3.30
  51  0.629  0.454  0.133-  56 2.40  76 2.44  46 2.45  41 2.48  37 2.50  67 2.53  32 2.56  26 2.59
                            74 2.59  69 2.66  73 2.78  54 2.83
  52  0.320  0.872  0.317-  55 2.38  79 2.41  61 2.43  43 2.45  78 2.46  14 2.55   8 2.56  44 2.57
                             6 2.62  22 3.05   2 3.23  30 3.26
  53  0.299  0.850  0.050-  73 2.39  38 2.40  45 2.48  24 2.56  63 2.58  46 2.63  72 2.82  23 3.07

  54  0.581  0.726  0.124-  46 2.37  50 2.38  48 2.38  73 2.40  71 2.42  63 2.42  38 2.46  78 2.50
                            32 2.61  49 2.79  51 2.83
  55  0.229  0.013  0.230-  52 2.38  80 2.44  79 2.44  38 2.45  43 2.51  22 2.51  78 2.56  24 2.59
                            31 2.59  77 2.61  70 2.62
  56  0.549  0.361  0.055-  51 2.40  37 2.42  47 2.44  74 2.52  76 2.56  62 2.60  72 2.61  20 2.66
                            46 2.72
  57  0.344  0.167  0.132-  38 2.43  45 2.45  80 2.47  47 2.50  20 2.52  68 2.55  31 2.57  48 2.63
[...]
   -.621E+02 -.448E+02 -.146E+04   0.610E+02 0.452E+02 0.146E+04   0.112E+01 -.325E+00 0.189E+01   0.129E-01 -.322E-01 -.621E-02
   -.476E+02 0.168E+02 -.271E+04   0.479E+02 -.161E+02 0.271E+04   -.240E+00 -.742E+00 0.159E+01   -.375E-01 0.175E-01 0.291E-01
   -.688E+02 -.325E+02 -.283E+04   0.679E+02 0.332E+02 0.283E+04   0.819E+00 -.659E+00 0.241E+01   0.504E-01 -.193E-01 0.211E-01
   0.103E+03 0.714E+01 -.269E+04   -.102E+03 -.808E+01 0.269E+04   -.507E+00 0.975E+00 0.201E+01   0.221E-01 0.203E-01 0.291E-01
   0.123E+02 0.967E+01 -.291E+04   -.122E+02 -.106E+02 0.291E+04   -.135E+00 0.899E+00 0.276E+01   0.726E-02 -.591E-02 0.146E-01
   0.565E+02 0.617E+01 -.296E+04   -.577E+02 -.526E+01 0.295E+04   0.120E+01 -.957E+00 0.306E+01   0.855E-02 0.456E-01 0.121E-01
   0.216E+02 0.724E+02 -.273E+04   -.224E+02 -.719E+02 0.272E+04   0.702E+00 -.475E+00 0.205E+01   0.939E-02 -.867E-02 0.733E-02
   0.613E+02 0.114E+02 -.288E+04   -.603E+02 -.110E+02 0.288E+04   -.988E+00 -.472E+00 0.262E+01   0.443E-01 0.606E-03 -.116E-01
   -.100E+03 -.249E+02 -.282E+04   0.100E+03 0.245E+02 0.282E+04   -.180E+00 0.295E+00 0.102E+01   -.951E-02 0.103E-01 -.193E-01
   -.574E+02 -.391E+02 -.278E+04   0.579E+02 0.388E+02 0.278E+04   -.527E+00 0.228E+00 0.198E+01   0.664E-02 0.705E-02 -.290E-02
   -.501E+02 -.584E+02 -.286E+04   0.500E+02 0.583E+02 0.286E+04   0.186E+00 0.967E-01 0.226E+01   -.155E-01 0.205E-01 -.333E-01
   0.106E+03 0.524E+02 -.275E+04   -.106E+03 -.525E+02 0.274E+04   -.470E+00 0.431E-01 0.252E+01   0.140E-01 -.287E-01 0.393E-01
   0.858E+02 0.475E+02 -.273E+04   -.852E+02 -.466E+02 0.273E+04   -.517E+00 -.986E+00 0.200E+01   -.279E-01 0.272E-01 0.114E-02
   -.296E+02 -.316E+02 -.270E+04   0.291E+02 0.313E+02 0.269E+04   0.480E+00 0.348E+00 0.169E+01   0.693E-02 -.599E-01 0.275E-01
   -.360E+02 -.224E+02 -.277E+04   0.360E+02 0.222E+02 0.277E+04   0.518E-01 0.198E+00 0.185E+01   -.365E-01 0.552E-02 -.897E-02
   0.447E+02 -.603E+02 -.133E+04   -.436E+02 0.593E+02 0.132E+04   -.110E+01 0.980E+00 0.200E+01   -.272E-01 -.110E-01 -.141E-01
   -.107E+03 -.769E+02 -.148E+04   0.106E+03 0.763E+02 0.148E+04   0.127E+01 0.631E+00 0.222E+01   -.406E-01 0.105E-01 -.305E-01
   0.597E+02 0.543E+02 0.278E+04   -.590E+02 -.540E+02 -.278E+04   -.657E+00 -.432E+00 -.194E+01   -.876E-02 0.693E-02 0.469E-02
   -.118E+03 -.144E+03 0.197E+04   0.118E+03 0.144E+03 -.197E+04   -.156E+00 -.381E+00 0.137E+01   0.770E-01 0.453E-02 0.740E-02
   0.730E+02 0.693E+02 -.154E+04   -.723E+02 -.688E+02 0.154E+04   -.763E+00 -.440E+00 0.176E+01   0.136E-01 -.146E-01 0.406E-01
   0.773E+01 0.189E+03 0.297E+04   -.739E+01 -.187E+03 -.296E+04   -.210E+00 -.164E+01 -.199E+01   -.279E-01 -.814E-01 0.427E-03
   0.158E+03 0.251E+02 0.147E+04   -.157E+03 -.260E+02 -.147E+04   -.765E+00 0.953E+00 -.385E+00   -.263E-01 -.171E-01 -.632E-01
   -.189E+02 -.389E+02 -.276E+04   0.190E+02 0.383E+02 0.276E+04   -.178E+00 0.586E+00 0.179E+01   -.163E-01 -.846E-02 0.152E-01
   0.107E+03 0.896E+02 -.231E+03   -.107E+03 -.893E+02 0.231E+03   0.730E-01 -.319E+00 0.159E+00   -.138E-02 -.206E-01 -.191E-01
   -.565E+01 0.435E+02 -.291E+04   0.550E+01 -.440E+02 0.291E+04   0.155E+00 0.614E+00 0.217E+01   -.859E-02 -.113E-01 -.485E-02
   -.438E+02 -.458E+02 0.335E+03   0.436E+02 0.445E+02 -.335E+03   0.154E+00 0.122E+01 -.152E+00   0.102E-01 0.191E-01 -.344E-01
   -.829E+02 -.528E+02 -.145E+04   0.832E+02 0.523E+02 0.145E+04   -.288E+00 0.520E+00 0.190E+01   -.194E-01 0.246E-01 -.762E-02
   0.114E+02 0.665E+01 -.133E+04   -.121E+02 -.604E+01 0.133E+04   0.707E+00 -.523E+00 0.192E+01   0.286E-02 -.370E-01 -.139E-01
   -.650E+02 -.987E+02 -.256E+02   0.646E+02 0.982E+02 0.253E+02   0.354E+00 0.520E+00 0.274E+00   0.646E-01 -.165E-01 -.634E-02
   -.221E+02 -.298E+02 0.124E+03   0.227E+02 0.298E+02 -.125E+03   -.518E+00 -.698E-01 0.850E+00   -.338E-01 0.196E-01 -.151E-01
   -.663E+02 -.121E+03 -.120E+04   0.663E+02 0.121E+03 0.120E+04   0.666E-01 0.781E+00 0.695E+00   0.206E-01 -.913E-02 -.997E-02
   -.185E+01 0.110E+03 0.236E+04   0.310E+01 -.110E+03 -.236E+04   -.112E+01 -.356E+00 -.153E+01   0.236E-01 0.153E-01 -.123E-01
   0.776E+01 0.137E+03 0.248E+04   -.889E+01 -.137E+03 -.248E+04   0.106E+01 -.757E+00 -.244E+01   0.113E-03 -.606E-02 -.138E-01
   -.715E+01 0.874E+02 0.223E+04   0.700E+01 -.858E+02 -.223E+04   0.673E-01 -.139E+01 -.215E+01   0.402E-01 0.401E-01 -.212E-01
   0.126E+03 0.698E+02 0.108E+04   -.126E+03 -.698E+02 -.108E+04   -.284E+00 0.143E-01 0.171E-01   -.174E-01 -.170E-02 -.142E-01
   0.489E+02 -.602E+02 0.142E+04   -.484E+02 0.602E+02 -.142E+04   -.528E+00 0.201E-01 -.342E+00   0.210E-01 0.584E-02 -.413E-01
   -.695E+02 0.112E+02 -.140E+04   0.693E+02 -.110E+02 0.140E+04   0.199E+00 -.304E+00 0.297E+00   0.389E-01 -.636E-02 0.161E-01
   -.256E+03 -.128E+03 0.278E+04   0.255E+03 0.126E+03 -.277E+04   0.150E+01 0.153E+01 -.399E+01   0.141E-01 -.169E-01 0.251E-02
   -.168E+02 0.989E+02 0.132E+04   0.164E+02 -.987E+02 -.132E+04   0.431E+00 -.256E+00 -.684E+00   -.383E-01 -.202E-01 -.516E-02
   -.953E+02 -.867E+02 0.136E+03   0.952E+02 0.869E+02 -.136E+03   0.185E-01 -.160E+00 -.294E+00   0.251E-01 0.156E-01 -.112E-01
   0.128E+02 -.125E+03 -.147E+04   -.130E+02 0.124E+03 0.147E+04   0.138E+00 0.571E+00 0.321E+00   0.499E-01 0.268E-01 0.879E-02
   0.788E+02 0.129E+03 -.142E+04   -.788E+02 -.129E+03 0.142E+04   -.694E-01 -.691E+00 -.625E+00   0.719E-02 -.730E-02 -.160E-01
   -.798E+02 -.138E+03 0.273E+04   0.780E+02 0.137E+03 -.272E+04   0.156E+01 0.162E+01 -.329E+01   0.360E-01 -.509E-01 0.103E-03
   0.166E+02 -.255E+02 0.276E+04   -.171E+02 0.255E+02 -.276E+04   0.406E+00 -.126E+00 -.331E+01   -.348E-01 0.123E-01 -.749E-02
   0.228E+03 -.395E+02 0.247E+04   -.226E+03 0.393E+02 -.247E+04   -.131E+01 0.251E+00 -.198E+01   0.299E-01 0.708E-02 0.258E-02
   -.185E+03 -.295E+02 0.146E+04   0.185E+03 0.296E+02 -.146E+04   0.255E+00 -.214E-01 0.203E+00   -.398E-03 0.251E-01 -.158E-01
   -.188E+03 0.584E+02 0.447E+01   0.188E+03 -.581E+02 -.404E+01   0.318E+00 -.384E+00 -.467E+00   -.111E-01 0.341E-01 -.813E-02
   -.187E+03 -.406E+02 0.139E+04   0.187E+03 0.411E+02 -.139E+04   -.876E-01 -.438E+00 0.482E+00   0.147E-02 0.323E-01 -.224E-01
   0.262E+02 -.685E+02 0.135E+04   -.261E+02 0.682E+02 -.135E+04   -.540E-01 0.511E+00 -.359E-01   -.336E-01 0.701E-03 -.152E-01
   0.187E+03 0.405E+02 -.147E+04   -.187E+03 -.406E+02 0.147E+04   -.747E+00 0.118E+00 0.192E-01   0.423E-01 0.747E-02 -.520E-02
   0.180E+03 0.553E+01 0.274E+04   -.178E+03 -.563E+01 -.273E+04   -.188E+01 0.101E+00 -.327E+01   -.499E-02 -.941E-02 -.156E-01
   -.975E+02 0.350E+02 0.159E+04   0.977E+02 -.347E+02 -.159E+04   -.184E+00 -.426E+00 0.294E+00   -.152E-01 0.166E-01 -.252E-01
   0.111E+03 -.572E+02 -.103E+03   -.111E+03 0.572E+02 0.103E+03   -.406E+00 0.901E-01 -.131E+00   0.341E-01 0.153E-01 -.344E-01
   0.134E+03 0.310E+02 0.297E+04   -.134E+03 -.306E+02 -.297E+04   -.142E+00 -.308E+00 -.150E+01   -.380E-01 0.178E-01 0.541E-02
   -.527E+02 -.162E+03 0.172E+04   0.526E+02 0.161E+03 -.172E+04   -.699E-01 0.341E+00 0.143E+00   0.325E-01 -.856E-02 -.153E-01
   0.192E+03 -.101E+02 0.134E+04   -.192E+03 0.102E+02 -.134E+04   0.401E+00 -.489E-01 0.489E+00   -.229E-02 -.773E-02 -.605E-01
   -.123E+03 0.280E+02 0.200E+03   0.122E+03 -.279E+02 -.200E+03   0.412E+00 -.755E-01 -.355E+00   -.171E-01 0.107E-01 -.211E-01
   0.381E+01 0.566E+02 -.127E+04   -.366E+01 -.568E+02 0.127E+04   -.123E+00 0.146E+00 0.538E+00   -.316E-01 0.689E-02 -.357E-01
[...]
   -.119E+02 -.928E+02 0.171E+03   0.123E+02 0.928E+02 -.171E+03   -.461E+00 -.716E-02 -.305E+00   -.264E-02 -.142E-01 -.172E-01
   -.170E+03 -.110E+03 0.165E+04   0.170E+03 0.110E+03 -.165E+04   0.262E-01 -.178E+00 -.336E+00   -.350E-01 0.254E-01 0.179E-01
   -.704E+02 0.708E+01 0.148E+04   0.707E+02 -.697E+01 -.148E+04   -.232E+00 -.122E+00 -.692E+00   0.215E-01 -.447E-01 -.594E-02
   -.272E+03 -.157E+03 0.302E+04   0.269E+03 0.155E+03 -.302E+04   0.225E+01 0.136E+01 -.367E+01   -.317E-01 0.469E-01 -.366E-02
   0.296E+03 -.679E+02 0.296E+04   -.293E+03 0.672E+02 -.296E+04   -.220E+01 0.771E+00 -.282E+01   -.338E-02 -.487E-02 -.106E-01
   0.867E+02 0.274E+02 0.151E+04   -.867E+02 -.277E+02 -.151E+04   0.113E+00 0.182E+00 0.102E-01   -.976E-02 -.145E-01 -.596E-01
   0.140E+03 0.122E+02 0.120E+04   -.140E+03 -.122E+02 -.120E+04   0.932E-01 -.165E-01 -.323E+00   -.109E-01 -.738E-02 -.450E-01
   0.892E+02 0.205E+02 -.156E+04   -.891E+02 -.206E+02 0.156E+04   -.180E+00 -.247E-01 -.283E+00   -.259E-01 0.208E-01 -.234E-02
   -.783E+00 -.101E+02 0.308E+04   0.850E+00 0.105E+02 -.308E+04   -.760E-01 -.417E+00 -.174E+01   -.750E-01 0.339E-02 0.726E-02
   0.626E+02 0.177E+03 -.522E+02   -.630E+02 -.177E+03 0.530E+02   0.450E+00 0.236E+00 -.832E+00   -.375E-01 -.151E-01 -.418E-01
   0.352E+01 0.939E+02 -.312E+02   -.376E+01 -.933E+02 0.313E+02   0.277E+00 -.658E+00 -.123E+00   0.390E-01 -.438E-02 -.245E-01
   0.227E+03 0.500E+02 -.244E+03   -.227E+03 -.497E+02 0.245E+03   0.346E+00 -.334E+00 -.542E+00   -.164E-01 -.282E-01 -.475E-01
   -.610E+02 -.113E+03 -.120E+02   0.611E+02 0.113E+03 0.118E+02   -.146E+00 0.258E+00 0.176E+00   0.320E-01 0.202E-01 -.855E-02
   -.722E+00 -.533E+00 -.331E+03   0.595E+00 0.594E+00 0.332E+03   0.143E+00 -.670E-01 -.129E+01   0.526E-03 0.120E-02 0.437E-03
   -.296E+01 -.108E+01 -.644E+01   0.304E-12 -.416E-12 -.263E-10   0.302E+01 0.114E+01 0.730E+01   -.660E-01 -.142E-01 -.902E+00

 POSITION                                       TOTAL-FORCE (eV/Angst)
     13.77893      8.54367      6.63131         0.004315     -0.006372      0.000536
      5.28175      8.55252      6.41450         0.029043     -0.007177      0.005175
      5.13282      3.50943      6.83321        -0.003087      0.009576      0.008574
     15.24396      9.36682      8.78576         0.010883      0.006479      0.016930
      3.92156      4.52981      9.02201        -0.023015      0.012877      0.003531
      6.76754      9.24363      8.73024         0.019251      0.023359      0.002457
     12.36874      4.41890      9.07169        -0.019145     -0.007383      0.011352
      9.48339      9.30288      9.17380         0.003600      0.010345     -0.014075
     10.88918      2.06352      8.73173        -0.002315     -0.010172     -0.007851
      2.63549      2.08308      9.09141        -0.002093     -0.027674     -0.008920
     12.43178      9.26192      9.04306        -0.010906      0.001606      0.011445
     13.86441      6.91940      8.97433        -0.009782     -0.007306      0.019063
      5.35533      1.97753      9.09471        -0.007829     -0.012712      0.005176
      8.09752      6.79829      8.79457        -0.020916     -0.023846      0.010412
      9.51662      4.46098      8.78111         0.003824     -0.012559     -0.000391
      5.31604      6.91563      8.80570        -0.012485      0.011938      0.016947
      8.16831      1.95219      8.89432         0.015018      0.003320      0.004574
      7.99673      3.36682      6.61520        -0.004899     -0.001563      0.001221
      6.54937      1.09652      6.79256         0.010575      0.020486     -0.005232
      6.83385      1.22925      1.47033        -0.002632      0.036722      0.000805
      3.61235      3.96468      2.61995        -0.012029      0.004729      0.003930
      1.43329      1.44083      6.82933         0.018888      0.007137      0.027037
      0.67127      0.98910      1.08188        -0.018583     -0.015145     -0.000541
      6.74807      9.00879      3.12342        -0.003786      0.012875     -0.018210
      6.75692      4.36552      8.92766        -0.006932      0.003964      0.001998
      8.49330      5.38439      5.05378         0.006616     -0.000077      0.004560
     10.98505      6.80546      9.13845         0.012222      0.019667      0.008352
     14.94884      7.37673      4.49249         0.015863     -0.031703     -0.062453
     12.46721      6.14421      6.84320         0.003278     -0.006171     -0.016942
      6.47421      5.89254      6.64526         0.008993      0.001946     -0.002109
      3.57422      2.54624      4.95878        -0.029386     -0.022153     -0.024369
     11.12614      5.45251      4.71025         0.022758      0.002118      0.016843
      3.87386      5.91400      6.70564         0.013241     -0.007485      0.004345
     13.73438      8.58852      1.76277        -0.004274     -0.022298     -0.037719
      4.87663      8.41395      1.57788         0.006390      0.009722      0.020760
      3.75877      6.38414      2.06092         0.026778     -0.006214      0.018004
      8.35850      2.27224      3.29405        -0.003367      0.001901      0.005638
      9.33367      9.15886      2.96349         0.002983      0.002388      0.020849
      2.48115      3.85300      6.95486        -0.009748     -0.007558     -0.014551
      1.94892      3.12368      0.97734        -0.003810      0.005053      0.002919
     10.75187      2.21221      3.05623         0.003916      0.008281      0.000671
     13.77799      5.05868      4.81470        -0.036265      0.024412     -0.003230
      3.95847      0.97005      7.02846        -0.003080     -0.025948     -0.002572
      9.81910      6.30632      6.97605         0.003449     -0.015744     -0.017366
      3.32747      0.88717      1.07332        -0.003515     -0.002355     -0.007270
      9.37038      5.94444      1.03355         0.021440      0.001871     -0.035398
      5.77436      3.51120      1.58883         0.007728      0.002063      0.000808
     11.78080      9.10211      3.01275        -0.023734     -0.010246      0.025748
     12.14221      7.86485      4.90717        -0.036182     -0.017685      0.014919
     12.89855      6.59993      3.08536        -0.009569      0.007033      0.024826
      9.60902      4.40928      2.93166        -0.010298     -0.013034      0.000311
      8.51004      8.48213      6.96182         0.010672      0.004158     -0.030570
      8.12654      8.25967      1.10014        -0.017242      0.011243     -0.003094
     10.59532      7.05732      2.72628        -0.000866     -0.004481      0.009357
      2.64345      0.12582      5.05287         0.010946     -0.008182      0.001860
      8.18206      3.50560      1.21995        -0.007558     -0.033254      0.008842
      4.79851      1.62222      2.89617        -0.006751     -0.001939      0.018852
      5.80940      6.64990      3.24762        -0.008936      0.015338     -0.018511
      7.65468      0.41297      4.68699        -0.031124      0.006278      0.010661
      9.46156      1.13403      6.53062        -0.002706     -0.002946     -0.009029
[...]
      9.85949      3.06130      5.05334         0.037907      0.012814     -0.016164
      6.31739      2.58312      4.70295        -0.006949     -0.002671     -0.050146
     12.25313      4.17493      2.83324        -0.003908     -0.002392     -0.003183
      2.09525      1.75623      3.07324         0.006496      0.006469      0.020149
     11.83128      5.72145      1.13423         0.032358      0.005068      0.000164
      6.85743      5.74904      1.30355        -0.004018     -0.003456      0.009122
      8.21979      6.81570      3.00225         0.000206     -0.001682     -0.010455
      7.04013      4.41026      3.27464         0.000297      0.009076      0.014718
     11.12667      3.89853      6.90612         0.000141     -0.002185     -0.010952
     10.73608      3.41609      1.01158         0.004476     -0.014750      0.002157
     11.35396      0.81935      4.88330        -0.003374      0.009905     -0.018700
      9.67608      7.72321      4.95729         0.041242      0.026800      0.046966
      7.20385      7.63915      5.11888        -0.006608      0.026764      0.008478
      5.07803      0.26935      4.93904        -0.006190     -0.027214      0.018177
     11.03075      8.48880      9.89677         0.016047     -0.004580      0.022355
    total drift:                               -0.014257      0.045717     -0.038049

  FREE ENERGIE OF THE ION-ELECTRON SYSTEM (eV)
  free  energy   TOTEN  =      -503.49690070 eV

  energy  without entropy=     -503.52279259  energy(sigma->0) =     -503.50553133

 d Force = 0.2468167E-02[ 0.207E-03, 0.473E-02]  d Energy = 0.2248212E-02 0.220E-03
 d Force =-0.1110262E+01[-0.115E+01,-0.107E+01]  d Ewald  =-0.1110223E+01-0.386E-04

 Conjugate gradient step on ions:
 trial-energy change:   -0.002248  1 .order   -0.002468   -0.004730   -0.000207
  (g-gl).g = 0.202E-02      g.g   = 0.249E-02  gl.gl    = 0.605E-02
 g(Force)  = 0.249E-02   g(Stress)= 0.000E+00 ortho     = 0.753E-04
 gamma     =   0.33304
 trial     =   1.87953
 opt step  =   2.00411  (harmonic =   1.96535) maximal distance =0.01559910
 next E    =  -503.496907   (d E  =  -0.00225)

 reached required accuracy - stopping structural energy minimisation