 vasp.5.4.4.18Apr17-6-g9f103f2a35 (build Nov 30 2020 22:55:02) complex

 executed on             LinuxIFC date 2021.10.28  13:10:04

 INCAR:
 POTCAR:    PAW_PBE Pt 04Feb2005
 POTCAR:    PAW_PBE Fe 06Sep2000
 POTCAR:    PAW_PBE Co 02Aug2007
 POTCAR:    PAW_PBE Cu 22Jun2005
 POTCAR:    PAW_PBE Ni 02Aug2007
 POTCAR:    PAW_PBE Pt 04Feb2005
   VRHFIN =Pt: s1d9

   TITEL  = PAW_PBE Pt 04Feb2005
   POMASS =  195.080; ZVAL   =   10.000    mass and valenz
   ENMAX  =  230.283; ENMIN  =  172.712 eV

 POTCAR:    PAW_PBE Fe 06Sep2000
   VRHFIN =Fe:  d7 s1

   TITEL  = PAW_PBE Fe 06Sep2000
   POMASS =   55.847; ZVAL   =    8.000    mass and valenz
   ENMAX  =  267.882; ENMIN  =  200.911 eV

 POTCAR:    PAW_PBE Co 02Aug2007
   VRHFIN =Co: d8 s1

   TITEL  = PAW_PBE Co 02Aug2007
   POMASS =   58.933; ZVAL   =    9.000    mass and valenz
   ENMAX  =  267.968; ENMIN  =  200.976 eV

 POTCAR:    PAW_PBE Cu 22Jun2005
   VRHFIN =Cu: d10 p1

   TITEL  = PAW_PBE Cu 22Jun2005
   POMASS =   63.546; ZVAL   =   11.000    mass and valenz
   ENMAX  =  295.446; ENMIN  =  221.585 eV

 POTCAR:    PAW_PBE Ni 02Aug2007
   VRHFIN =Ni:

   TITEL  = PAW_PBE Ni 02Aug2007
   POMASS =   58.690; ZVAL   =   10.000    mass and valenz
   ENMAX  =  269.532; ENMIN  =  202.149 eV

 Optimization of the real space projectors (new method)

 maximal supplied QI-value         = 14.36
 optimisation between [QCUT,QGAM] = [ 11.92, 23.98] = [ 39.79,161.09] Ry
 Optimized for a Real-space Cutoff    1.49 Angstroem

   l    n(q)    QCUT    max X(q) W(low)/X(q) W(high)/X(q)  e(spline)
   2     10    11.920    66.195    0.79E-04    0.18E-03    0.24E-06
   2     10    11.920    64.643    0.81E-04    0.19E-03    0.24E-06
   0     11    11.920    95.520    0.28E-04    0.54E-04    0.18E-06
   0     11    11.920    63.403    0.27E-04    0.52E-04    0.17E-06
   1     10    11.920    19.961    0.18E-04    0.11E-03    0.23E-06
   1     10    11.920    13.289    0.25E-04    0.87E-04    0.19E-06
 Optimization of the real space projectors (new method)

[...]

   l    n(q)    QCUT    max X(q) W(low)/X(q) W(high)/X(q)  e(spline)
   2     10    11.864     4.610    0.10E-03    0.20E-03    0.29E-06
   2     10    11.864     8.522    0.17E-03    0.33E-03    0.50E-06
   0     11    11.864    51.609    0.52E-04    0.55E-04    0.33E-06
   0     11    11.864    27.747    0.46E-04    0.52E-04    0.31E-06
   1     10    11.864    20.408    0.54E-04    0.25E-04    0.21E-06
   1     10    11.864    13.425    0.48E-04    0.22E-04    0.18E-06
 Optimization of the real space projectors (new method)

 maximal supplied QI-value         = 16.25
 optimisation between [QCUT,QGAM] = [ 11.86, 23.89] = [ 39.41,159.82] Ry
 Optimized for a Real-space Cutoff    1.33 Angstroem

   l    n(q)    QCUT    max X(q) W(low)/X(q) W(high)/X(q)  e(spline)
   2      9    11.864    60.317    0.21E-03    0.51E-03    0.25E-06
   2      9    11.864    55.921    0.21E-03    0.51E-03    0.26E-06
   0      9    11.864    51.690    0.22E-03    0.30E-04    0.17E-06
   0      9    11.864    30.015    0.20E-03    0.28E-04    0.15E-06
   1      9    11.864    18.849    0.76E-04    0.33E-03    0.17E-06
   1      9    11.864    14.624    0.60E-04    0.28E-03    0.15E-06
  PAW_PBE Pt 04Feb2005                  :
  PAW_PBE Fe 06Sep2000                  :
  PAW_PBE Co 02Aug2007                  :
  PAW_PBE Cu 22Jun2005                  :
  PAW_PBE Ni 02Aug2007                  :

 POSCAR: 11.26-high
  positions in direct lattice
  velocities in cartesian coordinates
 exchange correlation table for  LEXCH =        8
   RHO(1)=    0.500       N(1)  =     2000
   RHO(2)=  100.500       N(2)  =     4000

 ion  position               nearest neighbor table
   1  0.776  0.870  0.315-  56 2.60  32 2.67  15 2.73  33 2.76  65 2.77  23 2.78  40 2.79   8 2.81
                            16 2.82  41 2.87   3 2.89   2 2.91
   2  0.036  0.870  0.315-  38 2.64  79 2.64  32 2.73  26 2.76   8 2.76  10 2.77  20 2.80  34 2.82
                            41 2.83  58 2.83   3 2.84   1 2.91
   3  0.036  0.616  0.313-  50 2.58  68 2.63  32 2.69   4 2.80   6 2.80   9 2.81  20 2.83   2 2.84
                            33 2.84  16 2.87  34 2.87   1 2.89
   4  0.028  0.371  0.319-  50 2.61  36 2.68  42 2.70  11 2.73  77 2.77   9 2.78  14 2.78   3 2.80
                            33 2.81  26 2.83   6 2.89   5 2.96
   5  0.290  0.106  0.318-  61 2.55  36 2.68  39 2.69  58 2.69  12 2.70  65 2.77  26 2.77  14 2.79
                            17 2.79  23 2.80   6 2.92   4 2.96
   6  0.287  0.367  0.317-  68 2.60  71 2.63  36 2.71  23 2.75  29 2.76  17 2.80   9 2.80   3 2.80
                            34 2.86   4 2.89  22 2.90   5 2.92
   7  0.861  0.689  0.125-  74 2.52  43 2.54  45 2.59  55 2.63  60 2.65  50 2.65  56 2.66  32 2.71
                            72 2.71  25 2.83  64 3.07
   8  0.868  0.952  0.417-   2 2.76  16 2.79  20 2.81  41 2.81   1 2.81  21 2.82  13 2.82  15 2.83
                            10 2.85
   9  0.114  0.456  0.420-  20 2.76   4 2.78  16 2.78  11 2.79   6 2.80  29 2.81   3 2.81  14 2.84
                            17 2.90
  10  0.124  0.948  0.417-  58 2.67  26 2.75   2 2.77  12 2.77  18 2.77  20 2.81  14 2.81   8 2.85
                            13 2.88
  11  0.869  0.449  0.421-  77 2.72   4 2.73  19 2.74  13 2.77  14 2.79   9 2.79  33 2.82  31 2.83
                            16 2.85
  12  0.372  0.946  0.419-  58 2.69   5 2.70  65 2.71  18 2.71  31 2.75  10 2.77  15 2.77  17 2.81
                            14 2.85
  13  0.867  0.204  0.416-  77 2.71  26 2.77  11 2.77  41 2.77  21 2.78  19 2.79  14 2.82   8 2.82
                            10 2.88
  14  0.119  0.201  0.420-   4 2.78   5 2.79  11 2.79  17 2.81  26 2.81  10 2.81  13 2.82   9 2.84
                            12 2.85
  15  0.619  0.947  0.418-   1 2.73  65 2.75  16 2.76  31 2.76  12 2.77  17 2.79  23 2.80   8 2.83
                            21 2.90
  16  0.867  0.704  0.420-  15 2.76  33 2.77   9 2.78  20 2.79   8 2.79   1 2.82  31 2.82  11 2.85
                             3 2.87
  17  0.372  0.196  0.420-  23 2.75  15 2.79   5 2.79   6 2.80  12 2.81  14 2.81  21 2.82  29 2.85
                             9 2.90
  18  0.373  0.703  0.418-  51 2.62  58 2.68  12 2.71  31 2.73  34 2.74  10 2.77  19 2.78  29 2.85
                            20 2.89
  19  0.622  0.457  0.420-  51 2.65  77 2.66  31 2.72  22 2.73  11 2.74  18 2.78  13 2.79  21 2.84
                            29 2.88
  20  0.117  0.701  0.419-   9 2.76  34 2.78  16 2.79  29 2.79   2 2.80   8 2.81  10 2.81   3 2.83
                            18 2.89
  21  0.619  0.205  0.417-  22 2.75  23 2.77  13 2.78  41 2.79  29 2.81   8 2.82  17 2.82  19 2.84
                            15 2.90
  22  0.541  0.376  0.318-  70 2.60  71 2.65  30 2.65  77 2.67  51 2.71  19 2.73  21 2.75  34 2.79
                            41 2.80  29 2.81   6 2.90  23 2.91
  23  0.532  0.121  0.316-  71 2.65  40 2.70  39 2.75   6 2.75  17 2.75  21 2.77   1 2.78   5 2.80
                            15 2.80  41 2.83  22 2.91  65 2.94
  24  0.544  0.120  0.050-  46 2.53  63 2.54  55 2.60  43 2.70  66 2.74  54 2.84  62 2.84  52 2.86
                            67 2.92
  25  0.114  0.439  0.123-  54 2.49  48 2.53  45 2.58  36 2.69  73 2.70  63 2.74  50 2.75  68 2.78
                             7 2.83  72 2.85  64 2.94  76 3.12
  26  0.039  0.114  0.316-  79 2.55  61 2.63  42 2.66  10 2.75   2 2.76  13 2.77   5 2.77  58 2.79
                            14 2.81  41 2.82   4 2.83  77 2.96
  27  0.025  0.132  0.037-  48 2.54  49 2.60  73 2.61  28 2.65  78 2.71  59 2.73  66 2.74  52 2.92
                            44 3.11
  28  0.115  0.959  0.130-  59 2.54  79 2.58  44 2.59  38 2.63  27 2.65  61 2.66  69 2.68  73 2.69
                            47 2.80  49 2.84  35 2.88  64 2.93
  29  0.367  0.453  0.420-   6 2.76  34 2.77  20 2.79  21 2.81  22 2.81   9 2.81  18 2.85  17 2.85
                            19 2.88
  30  0.456  0.540  0.221-  76 2.51  57 2.56  22 2.65  34 2.67  37 2.72  51 2.73  35 2.73  80 2.74
                            71 2.76  38 2.79  70 2.79  68 2.85
  31  0.618  0.701  0.421-  51 2.67  65 2.71  19 2.72  18 2.73  33 2.75  12 2.75  15 2.76  16 2.82
                            11 2.83
  32  0.941  0.791  0.218-  64 2.57  69 2.60   1 2.67   3 2.69   7 2.71   2 2.73  56 2.78  40 2.87
                            50 2.87  79 2.91  68 3.02  38 3.04
  33  0.780  0.623  0.318-  56 2.60  37 2.62  50 2.63  65 2.69  77 2.74  31 2.75  51 2.75   1 2.76
                            16 2.77   4 2.81  11 2.82   3 2.84
  34  0.289  0.621  0.318-  38 2.66  30 2.67  68 2.73  18 2.74  58 2.76  51 2.77  29 2.77  20 2.78
                            22 2.79   2 2.82   6 2.86   3 2.87
  35  0.377  0.709  0.122-  53 2.48  75 2.55  59 2.60  47 2.62  60 2.68  30 2.73  80 2.74  38 2.75
                            57 2.85  76 2.87  28 2.88  64 2.88
  36  0.198  0.277  0.223-  73 2.54  63 2.54   4 2.68   5 2.68  25 2.69   6 2.71  61 2.76  42 2.81
                            68 2.83  50 2.84  39 2.91  71 2.97
  37  0.694  0.549  0.222-  72 2.55  60 2.56  57 2.60  33 2.62  56 2.63  80 2.66  51 2.70  77 2.71
                            30 2.72  50 2.75  70 2.83  42 2.88
  38  0.211  0.792  0.224-  58 2.58  64 2.59  61 2.62  28 2.63   2 2.64  34 2.66  80 2.70  35 2.75
                            30 2.79  79 2.85  68 3.02  32 3.04
  39  0.456  0.017  0.221-  47 2.49  55 2.60  80 2.62  63 2.65  65 2.65  61 2.65   5 2.69  56 2.69
                            23 2.75  40 2.78  36 2.91  71 3.11
  40  0.686  0.047  0.215-  46 2.52  69 2.55  55 2.59  23 2.70  71 2.71  41 2.74  39 2.78   1 2.79
                            70 2.86  32 2.87  56 2.93  79 2.98
  41  0.784  0.121  0.313-  70 2.56  79 2.59  40 2.74  13 2.77  21 2.79  22 2.80   8 2.81  26 2.82
                             2 2.83  23 2.83   1 2.87  77 2.87
  42  0.944  0.286  0.222-  49 2.50  72 2.55  70 2.65  26 2.66  79 2.67  73 2.68   4 2.70  77 2.70
                            50 2.78  36 2.81  37 2.88  61 3.01
  43  0.787  0.882  0.049-  55 2.41  69 2.50   7 2.54  44 2.64  24 2.70  66 2.73  45 2.88  67 2.95

  44  0.036  0.851  0.047-  45 2.41  69 2.53  64 2.55  28 2.59  43 2.64  75 2.67  59 3.07  27 3.11

  45  0.048  0.630  0.044-  44 2.41  75 2.46  64 2.49  25 2.58   7 2.59  54 2.82  43 2.88
  46  0.621  0.226  0.132-  70 2.50  62 2.51  57 2.51  40 2.52  24 2.53  66 2.58  76 2.58  71 2.59
                            49 2.65  69 2.81  63 2.91
  47  0.371  0.944  0.131-  59 2.38  52 2.40  39 2.49  67 2.53  61 2.56  35 2.62  80 2.63  60 2.68
                            73 2.75  55 2.77  28 2.80
  48  0.994  0.372  0.045-  72 2.33  78 2.48  74 2.51  25 2.53  27 2.54  73 2.62
  49  0.863  0.212  0.131-  78 2.43  42 2.50  66 2.56  70 2.57  27 2.60  79 2.61  72 2.63  69 2.64
                            46 2.65  57 2.68  28 2.84  73 2.86
  50  0.946  0.532  0.224-   3 2.58   4 2.61  33 2.63  72 2.64   7 2.65  37 2.75  25 2.75  56 2.78
                            42 2.78  36 2.84  32 2.87  68 2.92
  51  0.536  0.619  0.323-  18 2.62  80 2.65  19 2.65  31 2.67  65 2.67  77 2.70  37 2.70  22 2.71
                            30 2.73  33 2.75  34 2.77  58 2.77
[...]
   0.108E+02 -.246E+02 -.129E+04   -.110E+02 0.239E+02 0.129E+04   0.184E+00 0.675E+00 0.225E+01   0.389E-01 0.655E-02 -.137E-01
   -.429E+02 0.153E+01 -.136E+04   0.422E+02 -.843E+00 0.136E+04   0.659E+00 -.636E+00 0.162E+01   0.566E-01 -.649E-01 -.140E-01
   0.111E+00 -.819E+02 -.138E+04   -.661E+00 0.808E+02 0.138E+04   0.593E+00 0.118E+01 0.175E+01   -.486E-01 -.829E-01 -.225E-01
   0.515E+02 0.341E+01 -.141E+04   -.512E+02 -.344E+01 0.141E+04   -.304E+00 0.908E-01 0.162E+01   0.677E-02 -.402E-01 -.860E-02
   -.122E+03 -.405E+01 0.153E+04   0.121E+03 0.479E+01 -.153E+04   0.987E+00 -.726E+00 0.686E+00   0.276E-01 -.408E-01 -.454E-01
   -.654E+01 -.776E+00 -.265E+04   0.670E+01 0.569E+00 0.265E+04   -.153E+00 0.192E+00 0.170E+01   -.155E-02 0.271E-01 0.529E-02
   -.130E+02 0.946E+01 -.267E+04   0.127E+02 -.881E+01 0.266E+04   0.298E+00 -.625E+00 0.155E+01   0.217E-01 -.267E-01 0.181E-01
   0.439E+02 -.119E+02 -.268E+04   -.435E+02 0.115E+02 0.268E+04   -.511E+00 0.405E+00 0.233E+01   0.575E-01 -.941E-02 -.531E-01
   -.383E+02 0.116E+01 -.271E+04   0.382E+02 -.176E+01 0.271E+04   0.828E-01 0.598E+00 0.188E+01   0.114E-01 -.410E-02 0.660E-01
   0.137E+02 -.459E+02 -.272E+04   -.139E+02 0.457E+02 0.272E+04   0.226E+00 0.248E+00 0.215E+01   -.270E-01 -.492E-02 -.569E-01
   -.348E+01 0.452E+02 -.267E+04   0.316E+01 -.448E+02 0.267E+04   0.322E+00 -.321E+00 0.170E+01   -.543E-02 -.557E-01 0.376E-01
   -.632E+01 -.542E+01 -.269E+04   0.629E+01 0.557E+01 0.269E+04   0.225E-01 -.873E-01 0.168E+01   0.233E-01 -.632E-01 -.496E-02
   -.470E+02 -.369E+02 -.269E+04   0.469E+02 0.361E+02 0.269E+04   0.106E+00 0.781E+00 0.160E+01   -.266E-01 0.303E-01 0.121E-01
   -.361E+02 0.105E+01 -.267E+04   0.358E+02 -.836E+00 0.267E+04   0.320E+00 -.271E+00 0.143E+01   -.871E-02 0.346E-01 0.282E-01
   0.138E+01 -.309E+02 -.269E+04   -.109E+01 0.303E+02 0.269E+04   -.301E+00 0.664E+00 0.185E+01   0.677E-02 -.400E-01 -.461E-02
   0.578E+02 0.173E+02 -.269E+04   -.569E+02 -.171E+02 0.269E+04   -.988E+00 -.385E+00 0.210E+01   0.115E-01 0.661E-01 -.468E-01
   0.362E+02 0.253E+02 -.272E+04   -.353E+02 -.246E+02 0.272E+04   -.850E+00 -.724E+00 0.217E+01   -.415E-01 0.116E-01 0.546E-01
   0.821E+01 -.964E+01 -.266E+04   -.842E+01 0.939E+01 0.266E+04   0.178E+00 0.219E+00 0.146E+01   0.332E-01 0.280E-01 0.483E-02
   0.924E+01 0.224E+02 -.268E+04   -.905E+01 -.219E+02 0.268E+04   -.195E+00 -.488E+00 0.197E+01   -.239E-01 -.239E-01 0.144E-01
   0.491E+02 0.258E+01 -.143E+04   -.476E+02 -.182E+01 0.143E+04   -.138E+01 -.784E+00 0.137E+01   -.577E-01 -.106E-01 0.722E-02
   -.491E+01 0.123E+02 -.136E+04   0.468E+01 -.121E+02 0.136E+04   0.231E+00 -.214E+00 0.110E+01   -.289E-01 0.340E-02 0.336E-01
   0.820E+02 0.605E+02 0.270E+04   -.817E+02 -.606E+02 -.270E+04   -.306E+00 0.826E-01 -.263E+01   -.187E-01 0.301E-01 -.372E-01
   0.521E+02 -.335E+02 0.159E+04   -.528E+02 0.334E+02 -.159E+04   0.649E+00 0.151E+00 0.143E+01   0.259E-01 -.470E-01 -.121E-01
   -.142E+02 -.152E+02 -.136E+04   0.141E+02 0.150E+02 0.136E+04   -.343E-01 0.371E+00 0.185E+01   0.808E-01 -.121E+00 -.365E-01
   -.788E+02 0.858E+02 0.283E+04   0.795E+02 -.844E+02 -.283E+04   -.632E+00 -.135E+01 -.297E+01   0.127E-01 -.259E-01 0.273E-01
   -.148E+02 0.276E+02 0.149E+04   0.144E+02 -.276E+02 -.149E+04   0.318E+00 -.881E-01 -.328E+00   0.410E-01 0.214E-01 0.238E-01
   0.148E+02 0.767E+01 -.269E+04   -.152E+02 -.754E+01 0.269E+04   0.442E+00 -.127E+00 0.193E+01   0.136E-01 -.193E-01 0.101E-01
   0.113E+02 -.777E+02 0.188E+01   -.110E+02 0.769E+02 -.246E+01   -.402E+00 0.668E+00 0.597E+00   -.269E-01 0.395E-01 -.124E-01
   -.309E+02 0.120E+02 -.273E+04   0.304E+02 -.122E+02 0.273E+04   0.622E+00 0.175E+00 0.194E+01   -.356E-01 0.545E-01 0.198E-01
   0.224E+02 0.308E+02 0.933E+02   -.231E+02 -.315E+02 -.934E+02   0.756E+00 0.733E+00 0.178E+00   0.791E-01 0.219E-01 -.189E-01
   -.816E+02 0.249E+02 -.136E+04   0.807E+02 -.247E+02 0.136E+04   0.896E+00 -.278E+00 0.231E+01   -.397E-02 0.331E-01 0.387E-01
   0.476E+02 -.137E+02 -.138E+04   -.466E+02 0.142E+02 0.138E+04   -.111E+01 -.613E+00 0.133E+01   0.445E-01 0.702E-01 -.698E-02
   0.414E+02 -.782E+02 0.159E+04   -.399E+02 0.781E+02 -.159E+04   -.140E+01 -.189E-01 0.134E+01   -.554E-01 0.707E-01 0.372E-01
   0.398E+02 -.303E+02 -.273E+01   -.401E+02 0.303E+02 0.217E+01   0.411E+00 0.210E-01 0.641E+00   -.169E-01 -.758E-01 -.267E-01
   -.498E+02 -.457E+01 0.104E+01   0.502E+02 0.580E+01 -.169E+01   -.401E+00 -.129E+01 0.715E+00   -.399E-01 -.892E-02 -.637E-01
   0.523E+02 -.282E+01 0.223E+02   -.515E+02 0.390E+01 -.221E+02   -.928E+00 -.116E+01 -.208E+00   0.637E-01 0.901E-01 0.350E-01
   -.309E+02 -.608E+02 0.837E+02   0.301E+02 0.591E+02 -.853E+02   0.104E+01 0.167E+01 0.155E+01   -.129E+00 0.495E-01 0.310E-01
   0.152E+02 0.767E+02 0.134E+03   -.155E+02 -.758E+02 -.136E+03   0.376E+00 -.856E+00 0.165E+01   0.342E-01 0.512E-01 0.232E-01
   0.195E+02 0.722E+02 -.135E+04   -.191E+02 -.718E+02 0.135E+04   -.296E+00 -.364E+00 0.146E+01   0.142E-02 -.452E-01 0.157E-02
   -.107E+03 0.152E+01 0.227E+02   0.106E+03 -.157E+01 -.239E+02   0.919E+00 0.803E-01 0.130E+01   0.460E-01 -.925E-01 -.758E-01
   -.839E+00 0.745E+02 0.220E+04   0.196E+01 -.740E+02 -.220E+04   -.121E+01 -.478E+00 -.365E+01   0.436E-01 0.371E-02 -.355E-01
   -.189E+02 -.162E+02 0.222E+04   0.172E+02 0.144E+02 -.222E+04   0.176E+01 0.197E+01 -.303E+01   0.248E-01 0.301E-01 -.389E-02
   0.122E+03 0.273E+02 0.224E+04   -.120E+03 -.261E+02 -.224E+04   -.202E+01 -.135E+01 -.397E+01   0.287E-01 0.151E-01 0.133E-02
   0.423E+02 0.106E+03 0.112E+04   -.418E+02 -.106E+03 -.112E+04   -.594E+00 -.246E+00 -.643E+00   0.909E-02 0.113E-01 -.155E-01
   0.937E+01 -.402E+02 0.114E+04   -.913E+01 0.400E+02 -.114E+04   -.213E+00 0.158E+00 -.541E+00   -.743E-01 0.405E-01 0.208E-01
   -.212E+03 0.624E+01 0.225E+04   0.209E+03 -.643E+01 -.224E+04   0.268E+01 0.180E+00 -.347E+01   0.978E-02 -.339E-01 0.647E-02
   -.617E+02 0.687E+02 0.112E+04   0.614E+02 -.677E+02 -.112E+04   0.344E+00 -.106E+01 -.682E+00   0.284E-01 -.230E-01 -.960E-02
   -.548E+02 -.989E+01 0.310E+02   0.541E+02 0.990E+01 -.304E+02   0.576E+00 -.110E-02 -.678E+00   0.305E-01 -.442E-01 -.322E-01
   0.237E+02 0.956E+01 -.114E+04   -.236E+02 -.982E+01 0.114E+04   -.190E-01 0.947E-01 -.217E+00   -.640E-01 0.922E-01 0.683E-02
   -.289E+02 -.104E+03 0.220E+04   0.282E+02 0.102E+03 -.220E+04   0.702E+00 0.259E+01 -.314E+01   -.187E-01 0.476E-02 0.184E-01
   0.105E+03 -.140E+03 0.252E+04   -.104E+03 0.139E+03 -.252E+04   -.126E+01 0.104E+01 -.310E+01   -.129E-01 -.354E-02 0.110E-01
   0.201E+03 0.809E+02 0.252E+04   -.200E+03 -.796E+02 -.252E+04   -.115E+01 -.137E+01 -.300E+01   -.149E-01 -.430E-01 -.567E-02
   -.504E+02 -.586E+02 0.131E+04   0.502E+02 0.580E+02 -.131E+04   0.214E+00 0.645E+00 -.554E+00   -.285E-01 0.334E-01 -.608E-01
   -.100E+03 -.173E+01 0.365E+02   0.100E+03 0.151E+01 -.367E+02   0.261E+00 0.242E+00 0.143E+00   -.331E-01 0.394E-02 0.193E-01
   -.170E+01 -.461E+02 0.122E+04   0.191E+01 0.455E+02 -.122E+04   -.231E+00 0.768E+00 -.436E+00   -.625E-02 -.427E-01 0.122E-01
   0.540E+02 0.177E+01 -.126E+04   -.538E+02 -.188E+01 0.126E+04   -.301E+00 0.935E-01 0.351E+00   0.228E-02 0.508E-01 -.247E-01
   0.710E+02 0.478E+02 0.255E+04   -.703E+02 -.459E+02 -.254E+04   -.707E+00 -.188E+01 -.408E+01   -.130E-01 0.493E-01 0.235E-01
   -.587E+01 -.354E+02 0.127E+04   0.611E+01 0.357E+02 -.127E+04   -.222E+00 -.371E+00 -.415E+00   -.593E-01 -.471E-03 -.243E-02
[...]
   -.383E+02 -.591E+02 0.312E+04   0.374E+02 0.595E+02 -.312E+04   0.984E+00 -.474E+00 -.478E+01   -.360E-01 0.589E-01 -.327E-01
   0.122E+03 -.508E+02 0.230E+02   -.122E+03 0.500E+02 -.224E+02   -.470E-01 0.785E+00 -.656E+00   0.282E-01 -.457E-02 -.264E-01
   0.394E+02 0.113E+03 0.157E+04   -.393E+02 -.113E+03 -.156E+04   -.286E+00 -.697E+00 -.129E+01   0.835E-01 0.962E-02 -.329E-01
   -.135E+02 0.410E+02 -.255E+02   0.142E+02 -.413E+02 0.255E+02   -.633E+00 0.418E+00 0.151E-01   -.102E-01 -.399E-01 -.683E-01
   0.504E+02 0.739E+02 -.396E+02   -.499E+02 -.734E+02 0.397E+02   -.494E+00 -.652E+00 -.479E-01   -.153E-01 0.144E-02 0.116E-02
   -.149E+03 -.637E+01 0.134E+04   0.148E+03 0.634E+01 -.134E+04   0.755E+00 0.127E+00 -.929E+00   0.154E-01 -.600E-01 -.143E-01
   -.219E+02 -.114E+02 0.146E+04   0.222E+02 0.113E+02 -.146E+04   -.480E+00 0.254E+00 -.764E+00   0.688E-03 -.492E-01 0.227E-01
   -.204E+03 -.115E+03 0.285E+04   0.204E+03 0.114E+03 -.285E+04   0.537E+00 0.134E+01 -.258E+01   0.431E-01 -.110E-01 -.514E-02
   -.194E+02 -.126E+03 0.282E+04   0.175E+02 0.126E+03 -.282E+04   0.198E+01 0.260E+00 -.165E+01   -.325E-01 -.268E-01 -.183E-02
   0.626E+02 -.392E+02 0.139E+04   -.617E+02 0.389E+02 -.139E+04   -.831E+00 0.307E+00 -.587E+00   -.427E-01 -.160E-01 -.191E-01
   -.533E+02 0.159E+02 -.141E+04   0.530E+02 -.156E+02 0.141E+04   0.401E+00 -.328E+00 -.154E-01   -.113E-01 -.245E-01 -.509E-02
   -.597E+02 0.503E+02 0.281E+04   0.600E+02 -.496E+02 -.281E+04   -.314E+00 -.608E+00 -.131E+01   0.276E-01 -.759E-01 0.655E-02
   -.112E+02 0.598E+02 0.141E+02   0.114E+02 -.595E+02 -.138E+02   -.374E+00 -.410E+00 -.294E+00   0.877E-01 -.186E-01 -.114E-01
   0.400E+02 0.659E+01 0.476E+01   -.396E+02 -.646E+01 -.467E+01   -.323E+00 -.306E+00 -.290E+00   -.126E+00 0.937E-01 0.433E-01
   -.592E+00 0.600E+00 0.946E+00   -.313E-12 0.764E-13 -.131E-10   0.634E+00 -.521E+00 -.768E+00   -.589E-01 -.533E-01 -.159E+00

 POSITION                                       TOTAL-FORCE (eV/Angst)
     13.58684      8.45851      6.92775        -0.005558     -0.000362     -0.006068
      5.27828      8.45164      6.93472         0.007238     -0.006916     -0.011906
      3.86169      5.98660      6.88065         0.003797      0.005019     -0.008267
      2.39495      3.60700      7.01137        -0.000085     -0.001223     -0.003053
      3.84755      1.03186      7.00781         0.002636      0.005205      0.002060
      5.28132      3.56910      6.98281        -0.002378      0.004322     -0.002447
     13.51950      6.69208      2.75694        -0.021106     -0.016054      0.008946
     15.08499      9.25423      9.16509        -0.002227      0.001591     -0.003803
      3.84545      4.43327      9.22917         0.008103      0.003412     -0.005923
      6.71545      9.21323      9.17332         0.000512     -0.006472      0.004911
     12.27433      4.36490      9.25926         0.001735     -0.000334      0.003414
      9.48265      9.19269      9.20741         0.001953      0.000063      0.003561
     10.87072      1.98380      9.14537        -0.003995      0.006143     -0.003852
      2.46359      1.95594      9.24355         0.006190      0.000496      0.004037
     12.25495      9.20353      9.19458         0.001589     -0.003263     -0.000832
     13.68478      6.84255      9.23228         0.003020      0.000428     -0.009782
      5.27549      1.90897      9.23582         0.003882      0.004152      0.005565
      8.13649      6.83704      9.19654        -0.000249     -0.001188     -0.004138
      9.53815      4.43700      9.22878        -0.000501     -0.003523     -0.002399
      5.24747      6.81341      9.20870        -0.001342      0.001586     -0.001422
      8.09373      1.99206      9.17529         0.001509      0.000243     -0.001108
      8.18161      3.65394      6.99055         0.006861      0.002315     -0.008036
      6.64520      1.17917      6.96384         0.004735     -0.000011     -0.008924
      6.78185      1.16816      1.10976        -0.016577      0.003956      0.000103
      3.74327      4.26289      2.71491         0.015774      0.003622      0.005679
      1.07848      1.10800      6.94857         0.005833      0.005640      0.002274
      1.01575      1.28649      0.81183         0.010102     -0.009255      0.011686
      6.67142      9.31568      2.85544         0.004657      0.012448     -0.019489
      6.65711      4.40508      9.23088         0.000285     -0.004652      0.000364
      8.14285      5.24496      4.86976        -0.001973      0.005566      0.001931
     10.86473      6.81369      9.25357         0.003001      0.000104     -0.001970
     14.99686      7.68362      4.79411        -0.004205      0.005867     -0.004458
     12.24299      6.05223      6.99963        -0.005865      0.001527     -0.000872
      6.72855      6.03109      6.99274        -0.000862      0.008662     -0.008286
      8.20780      6.89173      2.69128        -0.013579     -0.003349     -0.018200
      3.77766      2.69345      4.90572        -0.005240     -0.004029      0.001241
     10.86552      5.33036      4.88657        -0.003504     -0.002033     -0.002921
      6.80891      7.69639      4.91949        -0.003016     -0.003732      0.044922
      5.20720      0.16029      4.85410         0.004476      0.000607      0.005619
      7.96508      0.45571      4.72390        -0.002485      0.002645      0.002217
      9.47993      1.17947      6.89122         0.002620      0.003074     -0.010827
     12.19222      2.77766      4.87496         0.002980     -0.004364      0.014116
     13.78001      8.57392      1.07376        -0.002936     -0.017773     -0.009415
      5.17612      8.26819      1.02395         0.019341      0.011413     -0.003479
      4.07688      6.12594      0.96722         0.014460      0.004399      0.015951
      8.23477      2.19285      2.91186         0.004204     -0.000846      0.000563
      9.46232      9.17873      2.88867        -0.005105      0.005890     -0.011440
     13.23829      3.61532      0.98546         0.008071     -0.007591      0.007665
     10.87798      2.06279      2.87872        -0.005945     -0.002708     -0.000565
     13.60649      5.17210      4.92826         0.002008     -0.001563      0.002065
      9.49296      6.02050      7.10674         0.001919     -0.001777     -0.005562
      3.91652      1.06390      1.10530         0.010101      0.001348      0.039088
      9.69052      5.79723      1.02825        -0.016236     -0.005060      0.005267
      5.55996      3.72993      1.09992        -0.010088     -0.040199     -0.006209
     12.22782      8.97667      2.86865        -0.012790      0.000009      0.007049
     12.22062      7.58099      4.89646        -0.007854      0.000399      0.002244
      9.50033      4.35926      2.89266        -0.004149      0.001290     -0.010118
      8.10545      8.42161      7.03495        -0.005435      0.003521     -0.002922
      8.20297      8.78072      0.90411         0.011418      0.012925      0.003568
     10.87946      6.90186      2.86164        -0.025048     -0.001344     -0.004221
[...]
      9.50522      1.22179      0.88788         0.006573      0.003382     -0.004476
     10.84088      8.41789      0.89812        -0.016419      0.012249     -0.001034
      5.29878      5.08233      4.87221         0.007783      0.002814     -0.000884
     15.21969      9.46320      2.91158         0.012837      0.003416      0.010196
      9.54798      2.83243      4.93973         0.001534      0.002519     -0.001656
      6.74099      2.86414      4.91726         0.013326      0.001363      0.008999
     12.12718      4.37157      2.88927         0.007387     -0.006626     -0.003994
      2.50652      1.86558      2.87455        -0.004359      0.012368     -0.009657
     12.02738      5.81407      0.92547        -0.019088     -0.001747      0.007437
      6.52756      5.95530      1.01982        -0.004681     -0.038180     -0.000522
      6.84854      4.37406      2.90086        -0.017305     -0.014401      0.002918
     10.85337      3.69325      7.03853         0.004944      0.007576     -0.007946
     10.75754      3.55271      0.95995        -0.003711      0.001849     -0.000386
     10.94499      0.41654      4.90182         0.013477      0.001687      0.001743
      9.50574      7.61774      4.99769        -0.005101      0.002459      0.000120
    total drift:                               -0.016469      0.025968      0.019137

  FREE ENERGIE OF THE ION-ELECTRON SYSTEM (eV)
  free  energy   TOTEN  =      -503.97883479 eV

  energy  without entropy=     -503.98375422  energy(sigma->0) =     -503.98047460

 d Force = 0.9889738E-03[ 0.531E-03, 0.145E-02]  d Energy = 0.9762530E-03 0.127E-04
 d Force =-0.1266448E+02[-0.127E+02,-0.127E+02]  d Ewald  =-0.1266447E+02-0.880E-05

 Conjugate gradient step on ions:
 trial-energy change:   -0.000976  1 .order   -0.000989   -0.001447   -0.000531
  (g-gl).g = 0.158E-02      g.g   = 0.160E-02  gl.gl    = 0.253E-02
 g(Force)  = 0.160E-02   g(Stress)= 0.000E+00 ortho     = 0.147E-04
 gamma     =   0.62591
 trial     =   0.90201
 opt step  =   1.42431  (harmonic =   1.42431) maximal distance =0.00270800
 next E    =  -503.979001   (d E  =  -0.00114)

 reached required accuracy - stopping structural energy minimisation