 vasp.5.4.4.18Apr17-6-g9f103f2a35 (build Nov 06 2019 15:09:28) complex

 executed on             LinuxIFC date 2021.11.22  18:01:20

 INCAR:
 POTCAR:    PAW_PBE Pt 04Feb2005
 POTCAR:    PAW_PBE Fe 06Sep2000
 POTCAR:    PAW_PBE Co 02Aug2007
 POTCAR:    PAW_PBE Cu 22Jun2005
 POTCAR:    PAW_PBE Ni 02Aug2007
 POTCAR:    PAW_PBE H 15Jun2001
 POTCAR:    PAW_PBE Pt 04Feb2005
   VRHFIN =Pt: s1d9

   TITEL  = PAW_PBE Pt 04Feb2005
   POMASS =  195.080; ZVAL   =   10.000    mass and valenz
   ENMAX  =  230.283; ENMIN  =  172.712 eV

 POTCAR:    PAW_PBE Fe 06Sep2000
   VRHFIN =Fe:  d7 s1

   TITEL  = PAW_PBE Fe 06Sep2000
   POMASS =   55.847; ZVAL   =    8.000    mass and valenz
   ENMAX  =  267.882; ENMIN  =  200.911 eV

 POTCAR:    PAW_PBE Co 02Aug2007
   VRHFIN =Co: d8 s1

   TITEL  = PAW_PBE Co 02Aug2007
   POMASS =   58.933; ZVAL   =    9.000    mass and valenz
   ENMAX  =  267.968; ENMIN  =  200.976 eV

 POTCAR:    PAW_PBE Cu 22Jun2005
   VRHFIN =Cu: d10 p1

   TITEL  = PAW_PBE Cu 22Jun2005
   POMASS =   63.546; ZVAL   =   11.000    mass and valenz
   ENMAX  =  295.446; ENMIN  =  221.585 eV

 POTCAR:    PAW_PBE Ni 02Aug2007
   VRHFIN =Ni:

   TITEL  = PAW_PBE Ni 02Aug2007
   POMASS =   58.690; ZVAL   =   10.000    mass and valenz
   ENMAX  =  269.532; ENMIN  =  202.149 eV

 POTCAR:    PAW_PBE H 15Jun2001
   VRHFIN =H: ultrasoft test

   TITEL  = PAW_PBE H 15Jun2001
   POMASS =    1.000; ZVAL   =    1.000    mass and valenz
   ENMAX  =  250.000; ENMIN  =  200.000 eV

 Optimization of the real space projectors (new method)

 maximal supplied QI-value         = 14.36
 optimisation between [QCUT,QGAM] = [ 11.92, 23.98] = [ 39.79,161.09] Ry
 Optimized for a Real-space Cutoff    1.49 Angstroem

   l    n(q)    QCUT    max X(q) W(low)/X(q) W(high)/X(q)  e(spline)
   2     10    11.920    66.195    0.79E-04    0.18E-03    0.24E-06
   2     10    11.920    64.643    0.81E-04    0.19E-03    0.24E-06
   0     11    11.920    95.520    0.28E-04    0.54E-04    0.18E-06
   0     11    11.920    63.403    0.27E-04    0.52E-04    0.17E-06
   1     10    11.920    19.961    0.18E-04    0.11E-03    0.23E-06
   1     10    11.920    13.289    0.25E-04    0.87E-04    0.19E-06
 Optimization of the real space projectors (new method)

[...]

   l    n(q)    QCUT    max X(q) W(low)/X(q) W(high)/X(q)  e(spline)
   2      9    11.864    60.317    0.21E-03    0.51E-03    0.25E-06
   2      9    11.864    55.921    0.21E-03    0.51E-03    0.26E-06
   0      9    11.864    51.690    0.22E-03    0.30E-04    0.17E-06
   0      9    11.864    30.015    0.20E-03    0.28E-04    0.15E-06
   1      9    11.864    18.849    0.76E-04    0.33E-03    0.17E-06
   1      9    11.864    14.624    0.60E-04    0.28E-03    0.15E-06
 Optimization of the real space projectors (new method)

 maximal supplied QI-value         = 34.20
 optimisation between [QCUT,QGAM] = [ 11.97, 23.94] = [ 40.13,160.53] Ry
 Optimized for a Real-space Cutoff    1.18 Angstroem

   l    n(q)    QCUT    max X(q) W(low)/X(q) W(high)/X(q)  e(spline)
   0      8    11.971    19.460    0.15E-03    0.31E-03    0.25E-06
   0      8    11.971    12.209    0.13E-03    0.29E-03    0.25E-06
   1      8    11.971     4.655    0.22E-03    0.24E-03    0.21E-06
  PAW_PBE Pt 04Feb2005                  :
  PAW_PBE Fe 06Sep2000                  :
  PAW_PBE Co 02Aug2007                  :
  PAW_PBE Cu 22Jun2005                  :
  PAW_PBE Ni 02Aug2007                  :
  PAW_PBE H 15Jun2001                   :

 POSCAR: Pt   Fe   Co   Cu   Ni   H
  positions in direct lattice
 exchange correlation table for  LEXCH =        8
   RHO(1)=    0.500       N(1)  =     2000
   RHO(2)=  100.500       N(2)  =     4000

 VTST: version 3.2, (02/03/18)

 CHAIN: initializing optimizer

 OPT: Using VASP QUASI-newton optimizer
 CHAIN: Read ICHAIN            0
 CHAIN: Running the NEB
 NEB:          SPRING     -5.000000
 NEB:          LCLIMB      T
 NEB:     LTANGENTOLD      F
 NEB:           LDNEB      F
 NEB:        LDNEBORG      F
 NEB:        LNEBCELL      F
 NEB:          EFIRST      0.000000
 NEB:           ELAST      0.000000

 POSCAR: Pt   Fe   Co   Cu   Ni   H
  positions in direct lattice

 POSCAR: Pt   Fe   Co   Cu   Ni   H
  positions in direct lattice

 ion  position               nearest neighbor table
   1  0.786  0.879  0.317-  49 2.62  28 2.63  19 2.64  59 2.64  61 2.65  33 2.66  29 2.67  60 2.68
                             2 2.72  11 2.77   4 2.81  12 2.86
   2  0.042  0.883  0.316-  79 2.54  77 2.59  60 2.62  28 2.65  30 2.65  52 2.66  33 2.69  22 2.69
                             1 2.72   6 2.75   4 2.83  16 2.89
   3  0.278  0.381  0.320-  39 2.55  33 2.58  64 2.59  31 2.64  19 2.70  43 2.71  30 2.71  68 2.74
                            18 2.82   5 2.83  13 2.85  25 2.87
   4  0.874  0.962  0.424-  17 2.62   9 2.63  11 2.64   6 2.64  16 2.64  12 2.65  60 2.81   1 2.81
                             2 2.83
   5  0.119  0.465  0.431-  81 1.81  12 2.60  16 2.63   7 2.63  10 2.68  25 2.69  13 2.72  33 2.77
                            39 2.77   3 2.83
   6  0.124  0.961  0.421-  10 2.63  14 2.64   8 2.64  16 2.64   4 2.64   9 2.65   2 2.75  52 2.78
                            22 2.86
   7  0.873  0.461  0.426-  15 2.61   5 2.63   9 2.63  27 2.64  10 2.65  12 2.65  39 2.68  75 2.76
                            29 2.79
   8  0.375  0.958  0.420-  43 2.60  14 2.60  27 2.61   6 2.64  13 2.65  11 2.65  10 2.66  52 2.68
                            61 2.71
   9  0.874  0.211  0.421-  17 2.62   7 2.63  10 2.63   4 2.63  15 2.63   6 2.65  75 2.69  60 2.72
                            22 2.81
  10  0.123  0.210  0.424-   6 2.63   9 2.63   7 2.65   8 2.66  13 2.67   5 2.68  39 2.69  43 2.75
                            22 2.79
  11  0.625  0.960  0.424-  13 2.62  12 2.63  27 2.64   4 2.64   8 2.65  17 2.65   1 2.77  19 2.82
                            61 2.85
  12  0.873  0.711  0.427-   5 2.60  11 2.63  16 2.64  27 2.65   7 2.65   4 2.65  33 2.70  29 2.83
                             1 2.86
  13  0.377  0.207  0.428-  81 1.61  11 2.62  17 2.64   8 2.65  10 2.67  25 2.69   5 2.72  43 2.83
                            19 2.85   3 2.85
  14  0.375  0.712  0.424-   8 2.60  27 2.61   6 2.64  25 2.64  15 2.65  16 2.66  44 2.71  30 2.77
                            52 2.78
  15  0.625  0.462  0.423-   7 2.61  27 2.63   9 2.63  25 2.63  14 2.65  17 2.65  44 2.70  75 2.72
                            18 2.77
  16  0.124  0.712  0.426-   5 2.63   6 2.64   4 2.64  25 2.64  12 2.64  14 2.66  33 2.68  30 2.82
                             2 2.89
  17  0.626  0.210  0.422-   4 2.62   9 2.62  13 2.64  11 2.65  15 2.65  25 2.66  18 2.76  60 2.77
                            19 2.85
  18  0.547  0.376  0.317-  67 2.56  60 2.59  75 2.61  68 2.65  44 2.65  26 2.66  30 2.70  19 2.72
                            17 2.76  15 2.77   3 2.82  25 2.89
  19  0.533  0.125  0.316-  43 2.55  80 2.56  68 2.58  59 2.63  61 2.64   1 2.64   3 2.70  18 2.72
                            60 2.77  11 2.82  17 2.85  13 2.85
  20  0.547  0.124  0.040-  37 2.55  57 2.56  48 2.58  62 2.64  63 2.68  47 2.68  45 2.68  56 2.70
                            34 2.71
  21  0.121  0.460  0.128-  40 2.52  36 2.53  47 2.53  42 2.60  69 2.61  64 2.62  70 2.64  50 2.64
                            58 2.67  31 2.70  57 2.71  74 2.72
  22  0.043  0.138  0.314-  65 2.51  55 2.54  43 2.57  39 2.58  77 2.58  75 2.60  60 2.68   2 2.69
                            52 2.73  10 2.79   9 2.81   6 2.86  31 3.39
  23  0.042  0.130  0.033-  70 2.58  40 2.60  41 2.61  45 2.62  62 2.64  76 2.64  24 2.69  35 2.73
                            53 2.78
  24  0.130  0.958  0.132-  79 2.51  77 2.54  35 2.57  53 2.57  55 2.58  70 2.62  38 2.64  58 2.64
                            73 2.65  23 2.69  66 2.70  41 2.72
  25  0.375  0.463  0.427-  15 2.63  14 2.64  16 2.64  17 2.66  13 2.69   5 2.69  30 2.85   3 2.87
                            18 2.89
  26  0.455  0.546  0.219-  73 2.50  74 2.54  51 2.56  79 2.61  64 2.63  30 2.65  18 2.66  68 2.67
                            78 2.67  32 2.68  67 2.72  44 2.75
  27  0.623  0.711  0.424-  14 2.61   8 2.61  15 2.63  11 2.64   7 2.64  12 2.65  44 2.70  61 2.78
                            29 2.79
  28  0.956  0.790  0.221-  58 2.57  66 2.57  50 2.58  42 2.59  49 2.61   1 2.63  64 2.63   2 2.65
                            59 2.70  33 2.72  79 2.76  77 2.77
  29  0.794  0.622  0.319-  39 2.54  42 2.55  75 2.58  32 2.61  33 2.64  44 2.65   1 2.67  61 2.68
                            49 2.68   7 2.79  27 2.79  12 2.83
  30  0.291  0.631  0.318-  79 2.57  64 2.60  52 2.62  44 2.62   2 2.65  26 2.65  33 2.66  18 2.70
                             3 2.71  14 2.77  16 2.82  25 2.85
  31  0.203  0.281  0.225-  70 2.52  55 2.56  65 2.57  43 2.60  57 2.60   3 2.64  39 2.68  80 2.70
                            21 2.70  42 2.71  68 2.75  64 2.79  22 3.39
  32  0.706  0.549  0.221-  54 2.53  69 2.56  51 2.58  49 2.59  42 2.60  29 2.61  78 2.62  65 2.63
                            26 2.68  75 2.69  44 2.70  67 2.70
  33  0.040  0.631  0.325-   3 2.58  39 2.63  29 2.64   1 2.66  30 2.66  16 2.68   2 2.69  12 2.70
                            64 2.70  28 2.72  42 2.73   5 2.77
  34  0.797  0.862  0.042-  50 2.38  66 2.51  48 2.53  36 2.55  71 2.56  63 2.61  20 2.71  35 2.76
                            62 2.76
  35  0.056  0.866  0.038-  58 2.54  72 2.55  36 2.56  24 2.57  66 2.62  53 2.65  23 2.73  62 2.73
                            34 2.76
  36  0.046  0.628  0.037-  21 2.53  34 2.55  35 2.56  58 2.58  50 2.61  47 2.63  72 2.64  40 2.69
                            71 2.72
  37  0.627  0.222  0.129-  51 2.51  74 2.51  67 2.52  56 2.53  41 2.55  20 2.55  68 2.56  59 2.56
                            62 2.59  66 2.66  57 2.73  48 2.89
  38  0.382  0.955  0.130-  53 2.47  80 2.48  45 2.49  78 2.53  48 2.54  73 2.55  63 2.55  54 2.56
                            55 2.59  57 2.62  24 2.64  70 2.67
  39  0.036  0.384  0.325-  29 2.54   3 2.55  22 2.58  75 2.60  33 2.63  42 2.67   7 2.68  31 2.68
                            10 2.69   5 2.77  65 2.77  43 2.79
  40  0.031  0.382  0.038-  69 2.44  21 2.52  71 2.53  76 2.56  70 2.57  23 2.60  36 2.69  45 2.78
                            47 2.78
  41  0.872  0.215  0.128-  76 2.45  65 2.52  77 2.53  67 2.54  37 2.55  69 2.57  62 2.57  51 2.59
                            23 2.61  70 2.65  66 2.66  24 2.72
  42  0.955  0.545  0.224-  29 2.55  50 2.56  28 2.59  21 2.60  32 2.60  69 2.61  49 2.63  65 2.64
                            64 2.65  39 2.67  31 2.71  33 2.73
  43  0.296  0.116  0.321-  52 2.53  55 2.54  19 2.55  61 2.57  22 2.57  31 2.60   8 2.60  80 2.67
                             3 2.71  10 2.75  39 2.79  13 2.83
  44  0.540  0.630  0.322-  61 2.56  52 2.58  30 2.62  78 2.64  29 2.65  18 2.65  75 2.65  27 2.70
                            32 2.70  15 2.70  14 2.71  26 2.75
  45  0.295  0.119  0.039-  70 2.49  38 2.49  57 2.57  53 2.60  23 2.62  63 2.64  20 2.68  47 2.75
                            40 2.78
  46  0.548  0.625  0.044-  51 2.38  73 2.39  54 2.41  71 2.56  53 2.56  63 2.58  76 2.59  56 2.62
                            72 2.64
[...]
   0.163E+02 -.652E+02 -.816E+02   -.172E+02 0.647E+02 0.819E+02   0.101E+01 0.521E+00 -.235E+00   -.304E-01 0.292E-01 0.519E-01
   -.230E+02 -.222E+02 0.591E+01   0.239E+02 0.229E+02 -.666E+01   -.839E+00 -.728E+00 0.677E+00   -.217E-01 -.626E-01 0.478E-01
   0.173E+02 0.208E+02 -.125E+04   -.174E+02 -.212E+02 0.125E+04   0.148E+00 0.476E+00 0.607E+00   0.679E-02 -.418E-02 0.336E-01
   -.598E+02 -.274E+01 0.244E+04   0.601E+02 0.147E+01 -.244E+04   -.379E+00 0.131E+01 -.270E+01   0.157E-01 -.120E-01 -.337E-01
   0.306E+02 -.140E+02 0.247E+04   -.305E+02 0.126E+02 -.247E+04   -.629E-01 0.150E+01 -.227E+01   0.103E-01 0.676E-03 0.675E-03
   0.228E+02 -.384E+01 0.247E+04   -.230E+02 0.446E+01 -.247E+04   0.157E+00 -.638E+00 -.286E+01   0.596E-02 -.170E-01 -.447E-02
   0.780E+01 0.519E+02 0.129E+04   -.697E+01 -.513E+02 -.129E+04   -.925E+00 -.704E+00 -.127E+00   0.413E-01 0.500E-01 0.171E-01
   0.333E+02 -.548E+02 0.128E+04   -.331E+02 0.546E+02 -.128E+04   -.120E+00 0.241E+00 -.433E+00   -.573E-01 -.170E-01 0.641E-02
   -.620E+02 -.260E+02 -.125E+04   0.623E+02 0.262E+02 0.125E+04   -.257E+00 -.213E+00 0.784E+00   -.344E-01 -.768E-02 0.287E-01
   -.935E+02 0.206E+02 0.248E+04   0.932E+02 -.203E+02 -.248E+04   0.262E+00 -.256E+00 -.266E+01   -.342E-02 0.364E-02 -.507E-02
   -.335E+02 0.461E+02 0.130E+04   0.327E+02 -.457E+02 -.130E+04   0.820E+00 -.539E+00 -.422E+00   -.432E-02 0.154E-01 0.379E-01
   -.450E+02 0.377E+01 -.453E+02   0.448E+02 -.334E+01 0.453E+02   0.193E+00 -.444E+00 -.112E+00   -.286E-02 -.279E-01 0.370E-01
   0.847E+01 -.878E+02 -.125E+04   -.852E+01 0.877E+02 0.125E+04   0.927E-01 0.151E+00 0.119E+01   -.292E-01 -.216E-02 0.502E-01
   0.133E+02 0.298E+02 -.124E+04   -.134E+02 -.298E+02 0.124E+04   0.102E+00 -.450E-01 0.440E+00   -.770E-02 -.197E-01 0.315E-01
   0.145E+02 -.466E+02 0.245E+04   -.151E+02 0.459E+02 -.245E+04   0.669E+00 0.689E+00 -.276E+01   -.873E-02 0.815E-02 -.169E-01
   0.444E+01 -.196E+02 0.276E+04   -.452E+01 0.198E+02 -.275E+04   0.105E+00 -.230E+00 -.235E+01   -.144E-01 -.289E-01 0.215E-02
   0.119E+03 0.292E+02 0.279E+04   -.120E+03 -.285E+02 -.279E+04   0.429E+00 -.683E+00 -.234E+01   0.925E-02 0.122E-01 -.121E-01
   -.363E+02 -.285E+02 0.142E+04   0.358E+02 0.274E+02 -.142E+04   0.450E+00 0.109E+01 -.480E+00   0.115E-01 0.116E-02 -.741E-02
   -.603E+02 0.663E+02 0.236E+02   0.603E+02 -.660E+02 -.246E+02   -.559E-01 -.298E+00 0.801E+00   0.115E-01 -.570E-01 0.765E-01
   -.888E+02 0.191E+02 0.141E+04   0.883E+02 -.186E+02 -.141E+04   0.518E+00 -.488E+00 -.112E+00   0.323E-01 -.519E-01 0.152E-01
   -.204E+02 0.963E+01 0.139E+04   0.206E+02 -.987E+01 -.139E+04   -.157E+00 0.283E+00 -.990E-01   0.183E-02 0.127E-01 0.406E-02
   0.467E+02 0.663E+01 -.140E+04   -.465E+02 -.684E+01 0.140E+04   -.279E+00 0.266E+00 0.151E+01   -.259E-01 0.280E-04 0.385E-01
   0.528E+02 -.807E+02 0.277E+04   -.526E+02 0.805E+02 -.276E+04   -.362E+00 0.209E+00 -.242E+01   0.850E-02 -.352E-01 -.480E-02
   -.138E+02 0.178E+01 0.138E+04   0.140E+02 -.147E+01 -.138E+04   -.109E+00 -.241E+00 -.427E+00   -.615E-01 -.806E-01 -.150E-01
   0.165E+02 -.685E+02 -.157E+02   -.156E+02 0.680E+02 0.159E+02   -.795E+00 0.592E+00 -.345E+00   -.554E-01 -.107E-01 0.623E-01
   0.310E+02 0.340E+02 0.344E+04   -.311E+02 -.333E+02 -.344E+04   0.152E+00 -.852E+00 -.360E+01   0.288E-01 0.458E-01 0.327E-02
   0.627E+02 0.805E+01 0.174E+04   -.628E+02 -.880E+01 -.174E+04   0.119E+00 0.706E+00 -.202E+00   -.206E-01 0.703E-01 0.783E-02
   0.102E+03 -.308E+02 0.172E+04   -.102E+03 0.308E+02 -.172E+04   -.210E+00 0.119E-01 0.513E-01   0.195E-01 -.435E-02 0.453E-01
   0.204E+02 0.670E+02 0.803E+02   -.210E+02 -.670E+02 -.813E+02   0.494E+00 -.856E-01 0.879E+00   0.887E-01 0.444E-01 0.949E-01
   0.162E+02 0.545E+02 -.171E+04   -.158E+02 -.541E+02 0.170E+04   -.451E+00 -.461E+00 0.153E+01   0.475E-01 0.319E-01 0.399E-01
[...]
   0.606E+02 -.350E+02 -.398E+01   -.600E+02 0.344E+02 0.356E+01   -.726E+00 0.478E+00 0.511E+00   0.262E-01 0.469E-01 0.652E-01
   -.740E+02 0.122E+01 0.155E+04   0.736E+02 -.108E+01 -.155E+04   0.409E+00 -.629E-01 -.131E+00   -.326E-01 -.160E-01 0.354E-01
   -.134E+02 0.191E+02 0.162E+04   0.138E+02 -.194E+02 -.162E+04   -.353E+00 0.223E+00 -.430E+00   -.302E-01 0.103E-01 0.353E-01
   -.101E+03 -.430E+01 0.308E+04   0.101E+03 0.437E+01 -.308E+04   -.577E+00 -.187E-01 -.133E+01   -.375E-01 -.238E-01 -.169E-01
   0.702E+02 -.523E+02 0.309E+04   -.706E+02 0.529E+02 -.308E+04   0.389E+00 -.571E+00 -.828E+00   0.412E-01 -.201E-01 0.107E-02
   0.150E+02 -.402E+02 0.155E+04   -.146E+02 0.400E+02 -.155E+04   -.407E+00 0.225E+00 -.693E-02   0.967E-02 -.378E-01 0.633E-02
   0.518E+02 0.282E+01 0.159E+04   -.514E+02 -.282E+01 -.159E+04   -.475E+00 0.355E-01 -.147E+00   0.278E-01 0.197E-01 0.111E-01
   -.394E+02 -.722E+02 -.155E+04   0.393E+02 0.723E+02 0.155E+04   0.140E+00 -.805E-01 0.816E+00   -.151E-02 -.216E-01 0.344E-01
   -.539E+02 0.295E+02 0.307E+04   0.544E+02 -.290E+02 -.307E+04   -.422E+00 -.583E+00 -.188E+01   -.358E-01 0.278E-01 0.169E-01
   -.457E+02 0.736E+02 0.766E+02   0.461E+02 -.734E+02 -.768E+02   -.392E+00 -.345E+00 0.419E-01   0.157E-01 0.150E-01 0.603E-01
   -.895E-01 0.614E+02 -.581E+00   0.114E+00 -.606E+02 0.416E+00   0.801E-01 -.865E+00 -.279E-01   -.666E-01 -.341E-01 0.602E-01
   0.469E+02 0.604E+01 -.314E+02   -.466E+02 -.546E+01 0.312E+02   -.372E+00 -.605E+00 0.252E-01   0.226E-02 0.138E-01 0.591E-01
   0.211E+02 -.538E+02 0.314E+02   -.214E+02 0.534E+02 -.317E+02   0.333E+00 0.468E+00 0.186E+00   -.434E-01 0.265E-01 0.842E-01
   0.483E+01 0.105E+01 -.348E+03   -.533E+01 -.863E+00 0.350E+03   0.514E+00 -.181E+00 -.193E+01   -.359E-03 -.303E-03 -.262E-02
   -.371E+01 -.108E+00 -.611E+01   -.473E-12 -.519E-12 0.119E-11   0.364E+01 0.124E+00 0.415E+01   0.630E-01 -.263E-01 0.192E+01

 POSITION                                       TOTAL-FORCE (eV/Angst)
     12.94448      8.04990      6.97925         0.001029     -0.001006      0.001004
      5.10569      8.07663      6.94829         0.000840     -0.000950      0.000748
      4.93559      3.48789      7.05791         0.001632      0.000120     -0.000101
     14.31622      8.79498      9.32493         0.001417     -0.002021      0.000998
      3.73014      4.24197      9.56533         0.002831     -0.001494      0.004322
      6.39605      8.78788      9.28607         0.002356     -0.000415      0.000738
     11.65910      4.21166      9.37255         0.002980      0.000009      0.004173
      9.03047      8.76557      9.23740         0.003340      0.001633      0.000341
     10.35309      1.93075      9.25945         0.001710     -0.001696     -0.000316
      2.42472      1.91801      9.27480         0.000881     -0.002711     -0.002932
     11.67647      8.78086      9.32080         0.000822      0.002226     -0.002216
     12.99417      6.49017      9.37188         0.002104     -0.003157     -0.000646
      5.09039      1.90338      9.45559         0.001613      0.000268      0.001175
      7.72748      6.51426      9.32939         0.002054     -0.003081      0.000615
      9.04925      4.21784      9.30975         0.001925     -0.000884     -0.001034
      5.07312      6.50602      9.37962         0.003249     -0.002624      0.002286
      7.73398      1.92466      9.28418         0.001130      0.000402     -0.000041
      7.76711      3.43176      6.97285        -0.000411     -0.000856      0.001382
      6.27763      1.14977      6.96242         0.000449     -0.000133      0.002394
      6.42858      1.12974      0.87872        -0.015927     -0.015919     -0.008150
      3.70548      4.20844      2.81687         0.014085      0.005515     -0.032040
      1.17548      1.25465      6.90823         0.001213      0.000190     -0.000389
      1.13569      1.19080      0.72557        -0.016545      0.007709      0.000214
      6.43607      8.76100      2.90031        -0.008539      0.016068      0.005000
      6.41807      4.23148      9.35288         0.002229      0.000589     -0.002397
      7.68135      4.99073      4.81474         0.007957     -0.004395     -0.019901
     10.33877      6.50464      9.32334         0.003254     -0.001503     -0.000255
     14.26424      7.22593      4.86299         0.036338     -0.027299     -0.023908
     11.67298      5.69455      7.01471         0.000250     -0.001257      0.001538
      6.40880      5.77218      7.00077         0.000309      0.000094      0.001735
      3.62119      2.56589      4.96023         0.053866      0.023820      0.083179
     10.36091      5.02430      4.85652         0.002216     -0.015072     -0.035748
      3.75324      5.76980      7.16080         0.000443      0.000648     -0.000539
     12.96907      7.87977      0.92567        -0.005715     -0.000427      0.011127
      5.16340      7.91719      0.83030         0.016983      0.016170      0.013952
      3.80701      5.74502      0.81381         0.013818     -0.006688     -0.022617
      7.79852      2.03245      2.83251        -0.026882     -0.015694      0.016998
      9.07755      8.73373      2.85743         0.004364      0.000589     -0.003855
      2.40200      3.51315      7.14631         0.000635     -0.000932      0.000404
      2.34409      3.49051      0.82510         0.006658      0.011532     -0.014585
     10.34814      1.96983      2.82249        -0.021752      0.009372     -0.000964
     12.96035      4.98587      4.92559         0.015077     -0.017826     -0.013781
      3.73404      1.05669      7.06477         0.000968     -0.000826     -0.000880
      9.03177      5.75701      7.08464         0.001124      0.000007      0.000054
      3.74824      1.09182      0.86700        -0.004565      0.000686     -0.005823
      9.09121      5.71867      0.96043        -0.007454      0.022819     -0.020178
      5.12448      3.47045      0.85563        -0.000043      0.029924      0.007446
     11.62092      8.68758      2.90590        -0.000514     -0.002174      0.025985
     11.65313      7.26450      4.84229        -0.023258     -0.005946     -0.034558
     12.86756      6.45280      2.83379         0.027107      0.004657      0.004938
      9.04201      4.20780      2.79628         0.003998      0.013354     -0.013505
      7.76714      8.00380      6.99111         0.000357     -0.000031     -0.000511
      7.81315      7.93922      0.88653        -0.014314      0.006155      0.009021
     10.39144      6.53566      2.82198         0.011081     -0.003289      0.007969
      2.51347      0.25826      5.00083         0.012517      0.013170      0.007799
      7.74264      3.48454      0.76157        -0.005886     -0.007500      0.007400
      5.07835      1.87760      2.91701        -0.005218     -0.005217     -0.004085
      5.16037      6.44715      2.89923        -0.011179     -0.002612     -0.010447
      7.70892      0.45986      4.84799        -0.031983      0.043238      0.026983
      9.05485      1.19072      6.97237         0.000583     -0.000531      0.000370
[...]
      9.07350      2.65252      4.91360         0.006591     -0.027833     -0.026062
      6.37169      2.66558      4.85827        -0.048808     -0.043233      0.095385
     11.65891      4.17486      2.81483        -0.021835      0.002845     -0.030940
      2.44098      1.89237      2.83279        -0.007173      0.010295      0.004076
     11.64953      5.68621      0.88546         0.003930      0.026229     -0.006357
      6.44743      5.71949      0.92597        -0.006069      0.007994     -0.004296
      7.82927      6.50651      2.83621        -0.017107     -0.003997     -0.007702
      6.41922      4.13007      2.78290        -0.008381      0.005335     -0.024541
     10.37141      3.46898      7.04637         0.000543     -0.001106     -0.000229
     10.34410      3.45013      0.86804         0.007961     -0.015749     -0.006571
     10.37063      0.48410      4.87151        -0.014578     -0.008310     -0.012546
      9.04079      7.29017      4.93700         0.015289     -0.031154     -0.013882
      6.46265      7.29503      4.94074         0.015841      0.010855     -0.015463
      5.04247      0.27633      4.88406         0.031787      0.043526      0.059371
      4.25828      2.82438     10.61184         0.008557     -0.002941      0.009491
    total drift:                               -0.016075     -0.010286     -0.048364

  FREE ENERGIE OF THE ION-ELECTRON SYSTEM (eV)
  free  energy   TOTEN  =      -511.06398149 eV

  energy  without entropy=     -511.08800248  energy(sigma->0) =     -511.07198849

 d Force = 0.4760948E-04[ 0.491E-04, 0.461E-04]  d Energy = 0.4351405E-04 0.410E-05
 d Force = 0.6923201E+01[ 0.692E+01, 0.692E+01]  d Ewald  = 0.6923201E+01 0.553E-09

 NEB: the previous image is higher in energy: T
 NEB: the next image is higher in energy    : F
 NEB: only prev energy greater

 NEB: Tangent
      0.00030      0.00387     -0.00091
      0.00146      0.00220     -0.00079
     -0.00029      0.00493     -0.00835
     -0.00236     -0.00132     -0.00473
      0.01195     -0.00241      0.00668
     -0.00728     -0.00636      0.00028
     -0.00847      0.00740     -0.00652
     -0.00227     -0.01579     -0.00589
     -0.00226     -0.00291     -0.00208
     -0.01240     -0.00673      0.00627
     -0.00082     -0.00340     -0.00620
      0.00145     -0.00436      0.00538
     -0.00025      0.00462     -0.00662
     -0.00430     -0.00200      0.00571
     -0.00227     -0.00177      0.00977
     -0.00029     -0.01451      0.01042
     -0.00667      0.00646      0.01391
      0.00774     -0.00013     -0.00268
      0.00480      0.00598      0.01091
      0.00000      0.00000      0.00000
      0.00000      0.00000      0.00000
      0.00554      0.00314      0.00321
      0.00000      0.00000      0.00000
      0.00000      0.00000      0.00000
     -0.00540     -0.00515     -0.04781
      0.00000      0.00000      0.00000
     -0.00041     -0.00092      0.00541
      0.00000      0.00000      0.00000
      0.00379      0.00344     -0.00154
      0.00144      0.00438     -0.00588
      0.00000      0.00000      0.00000
      0.00000      0.00000      0.00000
      0.00124      0.00790      0.00001
      0.00000      0.00000      0.00000
      0.00000      0.00000      0.00000
      0.00000      0.00000      0.00000
      0.00000      0.00000      0.00000
      0.00000      0.00000      0.00000
      0.00567      0.00540      0.00697
      0.00000      0.00000      0.00000
      0.00000      0.00000      0.00000
      0.00000      0.00000      0.00000
      0.00514      0.00258      0.00224
      0.00189      0.00049      0.00355
      0.00000      0.00000      0.00000
      0.00000      0.00000      0.00000
      0.00000      0.00000      0.00000
      0.00000      0.00000      0.00000
      0.00000      0.00000      0.00000
      0.00000      0.00000      0.00000
      0.00000      0.00000      0.00000
      0.00244      0.00134      0.00122
      0.00000      0.00000      0.00000
      0.00000      0.00000      0.00000
      0.00000      0.00000      0.00000
      0.00000      0.00000      0.00000
      0.00000      0.00000      0.00000
      0.00000      0.00000      0.00000
      0.00000      0.00000      0.00000
      0.00338      0.00171      0.00107
[...]
      0.00000      0.00000      0.00000
      0.00000      0.00000      0.00000
      0.00000      0.00000      0.00000
      0.00000      0.00000      0.00000
      0.00000      0.00000      0.00000
      0.00000      0.00000      0.00000
      0.00000      0.00000      0.00000
      0.00000      0.00000      0.00000
      0.00529      0.00255     -0.00035
      0.00000      0.00000      0.00000
      0.00000      0.00000      0.00000
      0.00000      0.00000      0.00000
      0.00000      0.00000      0.00000
      0.00000      0.00000      0.00000
     -0.83703     -0.54021      0.04920

 NEB: forces: par spring, perp REAL, dneb     0.022758    0.019644    0.000000
 NEB: distance to prev, next image, angle between     0.622085    0.617534  155.688454
 NEB: projections on to tangent (spring, REAL)    -0.022758   -0.004982

 stress matrix after NEB project (eV)
    -31.36998      0.31082      0.66152
      0.31082    -33.08673     -0.47540
      0.66152     -0.47540     -0.63318
  FORCES: max atom, RMS     0.025843    0.003340
  FORCE total and by dimension    0.030063    0.023436
  Stress total and by dimension   45.615005   33.086733
 Quasi-Newton relaxation of ions (Broydens 2nd method)
  g(Force)  = 0.178E-03   g(Stress)= 0.000E+00

 retain information from N=  5 steps
 eigenvalues of (default step * inverse Hessian matrix)
  average eigenvalue of G=   4.6639
 eigenvalue spectrum of G is  7.8018  7.8018  3.3706  3.3706  0.9746

 reached required accuracy - stopping structural energy minimisation