 vasp.5.4.4.18Apr17-6-g9f103f2a35 (build Nov 30 2020 22:55:02) complex

 executed on             LinuxIFC date 2023.08.09  15:35:23

 INCAR:
 POTCAR:    PAW_PBE Pt 04Feb2005
 POTCAR:    PAW_PBE Fe 06Sep2000
 POTCAR:    PAW_PBE Co 02Aug2007
 POTCAR:    PAW_PBE Cu 22Jun2005
 POTCAR:    PAW_PBE Ni 02Aug2007
 POTCAR:    PAW_PBE H 15Jun2001

 POTCAR:    PAW_PBE Pt 04Feb2005
   VRHFIN =Pt: s1d9

   TITEL  = PAW_PBE Pt 04Feb2005
   POMASS =  195.080; ZVAL   =   10.000    mass and valenz
   ENMAX  =  230.283; ENMIN  =  172.712 eV

 POTCAR:    PAW_PBE Fe 06Sep2000
   VRHFIN =Fe:  d7 s1

   TITEL  = PAW_PBE Fe 06Sep2000
   POMASS =   55.847; ZVAL   =    8.000    mass and valenz
   ENMAX  =  267.882; ENMIN  =  200.911 eV

 POTCAR:    PAW_PBE Co 02Aug2007
   VRHFIN =Co: d8 s1

   TITEL  = PAW_PBE Co 02Aug2007
   POMASS =   58.933; ZVAL   =    9.000    mass and valenz
   ENMAX  =  267.968; ENMIN  =  200.976 eV

 POTCAR:    PAW_PBE Cu 22Jun2005
   VRHFIN =Cu: d10 p1

   TITEL  = PAW_PBE Cu 22Jun2005
   POMASS =   63.546; ZVAL   =   11.000    mass and valenz
   ENMAX  =  295.446; ENMIN  =  221.585 eV

 POTCAR:    PAW_PBE Ni 02Aug2007
   VRHFIN =Ni:

   TITEL  = PAW_PBE Ni 02Aug2007
   POMASS =   58.690; ZVAL   =   10.000    mass and valenz
   ENMAX  =  269.532; ENMIN  =  202.149 eV

 POTCAR:    PAW_PBE H 15Jun2001
   VRHFIN =H: ultrasoft test

   TITEL  = PAW_PBE H 15Jun2001
   POMASS =    1.000; ZVAL   =    1.000    mass and valenz
   ENMAX  =  250.000; ENMIN  =  200.000 eV

 Optimization of the real space projectors (new method)

 maximal supplied QI-value         = 14.36
 optimisation between [QCUT,QGAM] = [ 11.92, 23.98] = [ 39.79,161.09] Ry
 Optimized for a Real-space Cutoff    1.49 Angstroem

   l    n(q)    QCUT    max X(q) W(low)/X(q) W(high)/X(q)  e(spline)
   2     10    11.920    66.195    0.79E-04    0.18E-03    0.24E-06
   2     10    11.920    64.643    0.81E-04    0.19E-03    0.24E-06
   0     11    11.920    95.520    0.28E-04    0.54E-04    0.18E-06
   0     11    11.920    63.403    0.27E-04    0.52E-04    0.17E-06
   1     10    11.920    19.961    0.18E-04    0.11E-03    0.23E-06
   1     10    11.920    13.289    0.25E-04    0.87E-04    0.19E-06
 Optimization of the real space projectors (new method)

[...]

   l    n(q)    QCUT    max X(q) W(low)/X(q) W(high)/X(q)  e(spline)
   2      9    11.864    60.317    0.21E-03    0.51E-03    0.25E-06
   2      9    11.864    55.921    0.21E-03    0.51E-03    0.26E-06
   0      9    11.864    51.690    0.22E-03    0.30E-04    0.17E-06
   0      9    11.864    30.015    0.20E-03    0.28E-04    0.15E-06
   1      9    11.864    18.849    0.76E-04    0.33E-03    0.17E-06
   1      9    11.864    14.624    0.60E-04    0.28E-03    0.15E-06
 Optimization of the real space projectors (new method)

 maximal supplied QI-value         = 34.20
 optimisation between [QCUT,QGAM] = [ 11.97, 23.94] = [ 40.13,160.53] Ry
 Optimized for a Real-space Cutoff    1.18 Angstroem

   l    n(q)    QCUT    max X(q) W(low)/X(q) W(high)/X(q)  e(spline)
   0      8    11.971    19.460    0.15E-03    0.31E-03    0.25E-06
   0      8    11.971    12.209    0.13E-03    0.29E-03    0.25E-06
   1      8    11.971     4.655    0.22E-03    0.24E-03    0.21E-06
  PAW_PBE Pt 04Feb2005                  :
  PAW_PBE Fe 06Sep2000                  :
  PAW_PBE Co 02Aug2007                  :
  PAW_PBE Cu 22Jun2005                  :
  PAW_PBE Ni 02Aug2007                  :
  PAW_PBE H 15Jun2001                   :

 POSCAR: Pt   Fe   Co   Cu   Ni   H
  positions in cartesian coordinates
 exchange correlation table for  LEXCH =        8
   RHO(1)=    0.500       N(1)  =     2000
   RHO(2)=  100.500       N(2)  =     4000

 ion  position               nearest neighbor table
   1  0.782  0.871  0.305-  49 2.52  59 2.61  28 2.68  61 2.75  33 2.79  19 2.79   4 2.79  11 2.81
                             2 2.81  29 2.83  12 2.85  60 2.87
   2  0.032  0.871  0.300-  79 2.51  77 2.55  28 2.77  33 2.77  30 2.78   1 2.81   4 2.81  60 2.83
                             6 2.84  16 2.91  22 2.97  52 3.10
   3  0.277  0.363  0.314-  64 2.54  31 2.66  68 2.67  39 2.71   5 2.73  43 2.74  13 2.76  25 2.77
                            19 2.81  30 2.82  33 2.86  18 2.96
   4  0.870  0.957  0.406-  60 2.65   9 2.76   6 2.77  17 2.78   1 2.79  16 2.80  11 2.80   2 2.81
                            12 2.81
   5  0.108  0.464  0.413-  39 2.62  33 2.69  12 2.72   3 2.73  16 2.75   7 2.75  10 2.79  25 2.84
                            13 3.01
   6  0.122  0.948  0.406-  52 2.61  22 2.71  14 2.75  16 2.76   4 2.77   2 2.84   8 2.84   9 2.85
                            10 2.93
   7  0.872  0.447  0.416-  39 2.62  75 2.63  29 2.74   5 2.75   9 2.75  10 2.78  15 2.78  27 2.86
                            12 2.91
   8  0.372  0.952  0.414-  52 2.54  43 2.58  61 2.71  13 2.76  27 2.78  14 2.79  10 2.81  11 2.83
                             6 2.84
   9  0.870  0.204  0.407-  75 2.62  60 2.65   7 2.75  22 2.76   4 2.76  17 2.77  15 2.80   6 2.85
                            10 2.90
  10  0.126  0.207  0.413-  39 2.63  43 2.65  22 2.72  13 2.75   7 2.78   5 2.79   8 2.81   9 2.90
                             6 2.93
  11  0.625  0.950  0.412-  61 2.66  12 2.72  19 2.74  13 2.78   4 2.80   1 2.81  27 2.82   8 2.83
                            17 2.84
  12  0.868  0.708  0.412-  29 2.68  33 2.69   5 2.72  11 2.72  16 2.76   4 2.81  27 2.85   1 2.85
                             7 2.91
  13  0.376  0.196  0.415-  43 2.64  19 2.74  10 2.75   3 2.76   8 2.76  11 2.78  17 2.81  25 2.84
                             5 3.01
  14  0.369  0.705  0.407-  44 2.56  52 2.62   6 2.75  27 2.77   8 2.79  15 2.83  30 2.83  25 2.84
                            16 2.84
  15  0.621  0.454  0.412-  44 2.59  75 2.60  18 2.76  27 2.77   7 2.78  17 2.80   9 2.80  14 2.83
                            25 2.86
  16  0.116  0.705  0.410-  33 2.64  30 2.69   5 2.75  12 2.76   6 2.76   4 2.80  25 2.82  14 2.84
                             2 2.91
  17  0.622  0.204  0.410-  60 2.69  18 2.74  19 2.77   9 2.77   4 2.78  15 2.80  13 2.81  25 2.84
                            11 2.84
  18  0.536  0.373  0.310-  67 2.53  68 2.63  26 2.68  17 2.74  15 2.76  44 2.77  60 2.78  25 2.78
                            75 2.84  30 2.87  19 2.89   3 2.96
  19  0.531  0.117  0.311-  80 2.52  68 2.54  59 2.57  43 2.67  13 2.74  11 2.74  61 2.75  17 2.77
                             1 2.79   3 2.81  60 2.89  18 2.89
  20  0.557  0.109  0.059-  37 2.52  48 2.53  57 2.55  62 2.63  34 2.71  63 2.75  56 2.89  45 3.25

  21  0.093  0.426  0.123-  47 2.48  40 2.50  36 2.53  70 2.60  42 2.61  69 2.66  31 2.74  57 2.74
                            64 2.76  50 2.79
  22  0.051  0.125  0.310-  77 2.51  65 2.53  55 2.56  43 2.69  39 2.71   6 2.71  10 2.72   9 2.76
                            52 2.78  75 2.95   2 2.97  60 2.99  31 3.30
  23  0.024  0.112  0.042-  40 2.53  41 2.56  70 2.59  62 2.65  24 2.72  45 2.74  35 2.80  76 2.81
                            53 2.86
  24  0.129  0.948  0.141-  79 2.49  35 2.53  77 2.57  55 2.58  70 2.60  53 2.61  58 2.68  73 2.68
                            23 2.72  66 2.78  38 2.80  41 2.95
  25  0.366  0.454  0.412-   3 2.77  30 2.78  18 2.78  16 2.82  17 2.84  14 2.84  13 2.84   5 2.84
                            15 2.86
  26  0.446  0.559  0.220-  73 2.48  74 2.49  51 2.53  79 2.55  30 2.61  44 2.62  18 2.68  32 2.72
                            78 2.74  67 2.97  58 3.06  68 3.13  64 3.14
  27  0.617  0.702  0.413-  44 2.61  61 2.67  29 2.75  15 2.77  14 2.77   8 2.78  11 2.82  12 2.85
                             7 2.86
  28  0.950  0.757  0.209-  58 2.57  50 2.57  66 2.61  42 2.62  33 2.64   1 2.68  49 2.69   2 2.77
                            64 2.78
  29  0.794  0.614  0.316-  42 2.55  49 2.61  32 2.64  39 2.65  75 2.67  12 2.68  33 2.73   7 2.74
                            27 2.75   1 2.83  61 2.85  44 2.85
  30  0.271  0.617  0.309-  79 2.52  26 2.61  33 2.64  64 2.69  16 2.69   2 2.78  25 2.78   3 2.82
                            14 2.83  18 2.87  44 3.02  52 3.15
  31  0.189  0.266  0.225-  70 2.50  55 2.57  57 2.59  43 2.61  39 2.62  65 2.65   3 2.66  21 2.74
                            64 2.76  42 2.84  80 2.85  68 3.01  22 3.30
  32  0.693  0.549  0.221-  69 2.52  54 2.57  49 2.58  51 2.59  44 2.62  29 2.64  78 2.67  75 2.67
                            42 2.71  26 2.72  67 2.75  65 2.79  50 3.30
  33  0.032  0.626  0.314-  28 2.64  30 2.64  16 2.64  64 2.68  12 2.69   5 2.69  42 2.72  29 2.73
                             2 2.77   1 2.79  39 2.82   3 2.86
  34  0.791  0.861  0.064-  48 2.37  50 2.40  66 2.51  36 2.70  20 2.71  62 2.82  63 2.83  35 2.86

  35  0.050  0.852  0.056-  36 2.39  24 2.53  66 2.57  58 2.66  72 2.69  23 2.80  34 2.86  53 2.90
                            62 2.93
  36  0.048  0.640  0.066-  35 2.39  47 2.52  21 2.53  58 2.57  50 2.59  34 2.70  72 2.75
  37  0.628  0.231  0.134-  67 2.48  51 2.49  74 2.50  56 2.50  20 2.52  41 2.53  59 2.53  62 2.56
                            68 2.61  66 2.82
  38  0.378  0.948  0.136-  45 2.38  80 2.45  55 2.46  53 2.47  73 2.51  63 2.51  78 2.52  54 2.58
                            48 2.62  57 2.79  24 2.80  70 2.85
  39  0.029  0.376  0.319-  42 2.61   7 2.62   5 2.62  31 2.62  10 2.63  65 2.64  29 2.65  22 2.71
                             3 2.71  75 2.72  33 2.82  43 3.01
  40  0.980  0.356  0.044-  69 2.33  76 2.41  21 2.50  23 2.53  71 2.54  70 2.64  45 3.11
  41  0.864  0.208  0.134-  77 2.39  76 2.41  69 2.49  67 2.50  37 2.53  23 2.56  65 2.57  62 2.59
                            66 2.61  70 2.67  51 2.84  24 2.95
  42  0.945  0.527  0.221-  50 2.47  29 2.55  65 2.61  21 2.61  39 2.61  28 2.62  69 2.65  32 2.71
                            64 2.71  33 2.72  49 2.75  31 2.84
  43  0.298  0.109  0.320-  55 2.52  52 2.54   8 2.58  31 2.61  80 2.61  13 2.64  10 2.65  19 2.67
                            22 2.69  61 2.71   3 2.74  39 3.01
  44  0.539  0.617  0.319-  14 2.56  15 2.59  27 2.61  32 2.62  26 2.62  78 2.64  75 2.69  18 2.77
                            61 2.82  52 2.83  29 2.85  30 3.02
  45  0.273  0.099  0.052-  38 2.38  53 2.39  70 2.41  57 2.59  63 2.73  23 2.74  40 3.11  20 3.25

  46  0.533  0.620  0.050-  51 2.36  73 2.40  54 2.41  71 2.45  72 2.60  56 2.76  53 2.78  76 2.82
                            63 2.89
  47  0.277  0.422  0.059-  74 2.25  72 2.41  21 2.48  36 2.52  56 2.59  57 2.67
  48  0.621  0.927  0.141-  49 2.29  34 2.37  80 2.44  54 2.48  63 2.51  20 2.53  38 2.62  59 2.63
                            50 2.71
  49  0.703  0.775  0.220-  48 2.29  50 2.43  54 2.51   1 2.52  32 2.58  78 2.59  29 2.61  61 2.63
                            28 2.69  42 2.75  80 2.80
  50  0.841  0.670  0.130-  71 2.37  34 2.40  49 2.43  54 2.44  42 2.47  28 2.57  69 2.58  36 2.59
                            48 2.71  21 2.79  32 3.30
  51  0.611  0.461  0.131-  46 2.36  76 2.42  37 2.49  26 2.53  56 2.54  74 2.57  69 2.58  32 2.59
                            67 2.64  73 2.79  54 2.82  41 2.84
  52  0.301  0.881  0.318-  79 2.38  55 2.38  78 2.53   8 2.54  43 2.54   6 2.61  61 2.62  14 2.62
                            22 2.78  44 2.83   2 3.10  30 3.15
[...]
     13.705920  8.365654  1.415812            0           0           0
      5.336769  8.276025  1.238917            0           0           0
      4.135541  6.224697  1.462456            0           0           0
      8.342678  2.247154  2.954262            0           0           0
      9.566421  9.217632  2.985507            0           0           0
      2.435097  3.658169  7.028603            0           0           0
     12.999641  3.457592  0.960354            0           0           0
     10.861906  2.018596  2.948772            0           0           0
     13.562259  5.118621  4.864532            0           0           0
      3.952969  1.055428  7.038105            0           0           0
      9.511959  5.996978  7.009590            0           0           0
      3.618050  0.957810  1.137373            0           0           0
      9.467772  6.029359  1.097646            0           0           0
      5.475081  4.096778  1.292149            0           0           0
     12.171883  9.010064  3.097482            0           0           0
     12.232007  7.529814  4.849671            0           0           0
     13.201906  6.516389  2.860049            0           0           0
      9.439361  4.481434  2.881981            0           0           0
      8.316935  8.562573  6.989843            0           0           0
      8.215871  8.514745  1.046134            0           0           0
     10.797304  6.956992  2.877208            0           0           0
      2.747277  0.169566  5.016340            0           0           0
      8.012111  3.686386  0.936353            0           0           0
      5.151173  2.018111  2.939760            0           0           0
      5.820638  6.716796  3.333529            0           0           0
      8.089607  0.552716  4.820863            0           0           0
      9.503411  1.221720  6.831699            0           0           0
[...]
      6.618604  2.700720  4.854143            0           0           0
     12.004382  4.229734  2.914633            0           0           0
      2.299472  1.817449  2.960623            0           0           0
     11.897406  5.747693  1.036536            0           0           0
      6.866926  6.065809  1.237958            0           0           0
      8.327728  7.035784  2.956202            0           0           0
      6.883022  4.269237  3.037923            0           0           0
     10.935094  3.711230  6.988717            0           0           0
     10.591534  3.442881  1.027706            0           0           0
     10.977009  0.658663  4.914776            0           0           0
      9.650178  7.718098  5.007647            0           0           0
      7.130498  7.755423  5.095638            0           0           0
      5.257279  0.254918  4.921263            0           0           0
      1.038146  0.482537 11.859502     0.498344    0.455035    0.210763
      1.618914  0.005220 11.806412    -0.377592   -0.566133   -0.192595

   5 f/i=    0.382570 THz     2.403758 2PiTHz   12.761160 cm-1     1.582183 meV
             X         Y         Z           dx          dy          dz
     13.664940  8.469753  6.702882            0           0           0
      5.245962  8.466467  6.593271            0           0           0
      5.143087  3.525776  6.914372            0           0           0
     15.137415  9.305295  8.922714            0           0           0
      3.816853  4.507427  9.085973            0           0           0
      6.685662  9.214804  8.921415            0           0           0
     12.292965  4.347762  9.149961            0           0           0
      9.516827  9.254511  9.118126            0           0           0
     10.902731  1.980042  8.948548            0           0           0
      2.571939  2.012935  9.081750            0           0           0
     12.341554  9.231112  9.056672            0           0           0
     13.716812  6.880985  9.073809            0           0           0
      5.319745  1.903724  9.136412            0           0           0
      8.095948  6.853568  8.961174            0           0           0
      9.515768  4.411745  9.054940            0           0           0
      5.255696  6.850443  9.018005            0           0           0
      8.128971  1.983298  9.015048            0           0           0
      8.104783  3.621350  6.821272            0           0           0
      6.619617  1.136715  6.850054            0           0           0
      6.859966  1.056188  1.304516            0           0           0
      3.434902  4.140216  2.704604            0           0           0
      1.271311  1.216140  6.830757            0           0           0
      0.890964  1.085470  0.914220            0           0           0
      6.768544  9.209257  3.102482            0           0           0
      6.657086  4.407773  9.063326            0           0           0
      8.146595  5.433584  4.843710            0           0           0
     10.865395  6.826448  9.083395            0           0           0
     14.903167  7.353642  4.601981            0           0           0
     12.362893  5.971382  6.945006            0           0           0
      6.500195  5.998268  6.788441            0           0           0
      3.614299  2.583061  4.950121            0           0           0
     10.863846  5.339863  4.868867            0           0           0
      3.865441  6.081718  6.906251            0           0           0
     13.705920  8.365654  1.415812            0           0           0
      5.336769  8.276025  1.238917            0           0           0
      4.135541  6.224697  1.462456            0           0           0
      8.342678  2.247154  2.954262            0           0           0
      9.566421  9.217632  2.985507            0           0           0
      2.435097  3.658169  7.028603            0           0           0
     12.999641  3.457592  0.960354            0           0           0
     10.861906  2.018596  2.948772            0           0           0
     13.562259  5.118621  4.864532            0           0           0
      3.952969  1.055428  7.038105            0           0           0
      9.511959  5.996978  7.009590            0           0           0
      3.618050  0.957810  1.137373            0           0           0
      9.467772  6.029359  1.097646            0           0           0
      5.475081  4.096778  1.292149            0           0           0
     12.171883  9.010064  3.097482            0           0           0
     12.232007  7.529814  4.849671            0           0           0
     13.201906  6.516389  2.860049            0           0           0
      9.439361  4.481434  2.881981            0           0           0
      8.316935  8.562573  6.989843            0           0           0
      8.215871  8.514745  1.046134            0           0           0
     10.797304  6.956992  2.877208            0           0           0
      2.747277  0.169566  5.016340            0           0           0
      8.012111  3.686386  0.936353            0           0           0
      5.151173  2.018111  2.939760            0           0           0
      5.820638  6.716796  3.333529            0           0           0
      8.089607  0.552716  4.820863            0           0           0
      9.503411  1.221720  6.831699            0           0           0
[...]
      6.618604  2.700720  4.854143            0           0           0
     12.004382  4.229734  2.914633            0           0           0
      2.299472  1.817449  2.960623            0           0           0
     11.897406  5.747693  1.036536            0           0           0
      6.866926  6.065809  1.237958            0           0           0
      8.327728  7.035784  2.956202            0           0           0
      6.883022  4.269237  3.037923            0           0           0
     10.935094  3.711230  6.988717            0           0           0
     10.591534  3.442881  1.027706            0           0           0
     10.977009  0.658663  4.914776            0           0           0
      9.650178  7.718098  5.007647            0           0           0
      7.130498  7.755423  5.095638            0           0           0
      5.257279  0.254918  4.921263            0           0           0
      1.038146  0.482537 11.859502     0.465894    0.528667    0.086618
      1.618914  0.005220 11.806412     0.459458    0.520129    0.119646

   6 f/i=    4.069592 THz    25.569999 2PiTHz  135.746966 cm-1    16.830485 meV
             X         Y         Z           dx          dy          dz
     13.664940  8.469753  6.702882            0           0           0
      5.245962  8.466467  6.593271            0           0           0
      5.143087  3.525776  6.914372            0           0           0
     15.137415  9.305295  8.922714            0           0           0
      3.816853  4.507427  9.085973            0           0           0
      6.685662  9.214804  8.921415            0           0           0
     12.292965  4.347762  9.149961            0           0           0
      9.516827  9.254511  9.118126            0           0           0
     10.902731  1.980042  8.948548            0           0           0
      2.571939  2.012935  9.081750            0           0           0
     12.341554  9.231112  9.056672            0           0           0
     13.716812  6.880985  9.073809            0           0           0
      5.319745  1.903724  9.136412            0           0           0
      8.095948  6.853568  8.961174            0           0           0
      9.515768  4.411745  9.054940            0           0           0
      5.255696  6.850443  9.018005            0           0           0
      8.128971  1.983298  9.015048            0           0           0
      8.104783  3.621350  6.821272            0           0           0
      6.619617  1.136715  6.850054            0           0           0
      6.859966  1.056188  1.304516            0           0           0
      3.434902  4.140216  2.704604            0           0           0
      1.271311  1.216140  6.830757            0           0           0
      0.890964  1.085470  0.914220            0           0           0
      6.768544  9.209257  3.102482            0           0           0
      6.657086  4.407773  9.063326            0           0           0
      8.146595  5.433584  4.843710            0           0           0
     10.865395  6.826448  9.083395            0           0           0
     14.903167  7.353642  4.601981            0           0           0
     12.362893  5.971382  6.945006            0           0           0
      6.500195  5.998268  6.788441            0           0           0
      3.614299  2.583061  4.950121            0           0           0
     10.863846  5.339863  4.868867            0           0           0
      3.865441  6.081718  6.906251            0           0           0
     13.705920  8.365654  1.415812            0           0           0
      5.336769  8.276025  1.238917            0           0           0
      4.135541  6.224697  1.462456            0           0           0
      8.342678  2.247154  2.954262            0           0           0
      9.566421  9.217632  2.985507            0           0           0
      2.435097  3.658169  7.028603            0           0           0
     12.999641  3.457592  0.960354            0           0           0
     10.861906  2.018596  2.948772            0           0           0
     13.562259  5.118621  4.864532            0           0           0
      3.952969  1.055428  7.038105            0           0           0
      9.511959  5.996978  7.009590            0           0           0
      3.618050  0.957810  1.137373            0           0           0
      9.467772  6.029359  1.097646            0           0           0
      5.475081  4.096778  1.292149            0           0           0
     12.171883  9.010064  3.097482            0           0           0
     12.232007  7.529814  4.849671            0           0           0
     13.201906  6.516389  2.860049            0           0           0
      9.439361  4.481434  2.881981            0           0           0
      8.316935  8.562573  6.989843            0           0           0
      8.215871  8.514745  1.046134            0           0           0
     10.797304  6.956992  2.877208            0           0           0
      2.747277  0.169566  5.016340            0           0           0
      8.012111  3.686386  0.936353            0           0           0
      5.151173  2.018111  2.939760            0           0           0
      5.820638  6.716796  3.333529            0           0           0
      8.089607  0.552716  4.820863            0           0           0
      9.503411  1.221720  6.831699            0           0           0
[...]
      6.618604  2.700720  4.854143            0           0           0
     12.004382  4.229734  2.914633            0           0           0
      2.299472  1.817449  2.960623            0           0           0
     11.897406  5.747693  1.036536            0           0           0
      6.866926  6.065809  1.237958            0           0           0
      8.327728  7.035784  2.956202            0           0           0
      6.883022  4.269237  3.037923            0           0           0
     10.935094  3.711230  6.988717            0           0           0
     10.591534  3.442881  1.027706            0           0           0
     10.977009  0.658663  4.914776            0           0           0
      9.650178  7.718098  5.007647            0           0           0
      7.130498  7.755423  5.095638            0           0           0
      5.257279  0.254918  4.921263            0           0           0
      1.038146  0.482537 11.859502    -0.011720   -0.245140    0.653714
      1.618914  0.005220 11.806412     0.186043    0.142069   -0.676484

 Finite differences POTIM=  1.500000000000000E-002
  LATTYP: Found a hexagonal cell.
 ALAT       =    11.2227001190
 C/A-ratio  =     1.9603125600

  Lattice vectors:

 A1 = (   5.6113500595,  -9.7191434021,   0.0000000000)
 A2 = ( -11.2227001190,   0.0000000000,   0.0000000000)
 A3 = (   0.0000000000,   0.0000000000, -22.0000000000)

Analysis of symmetry for initial positions (statically):
 Subroutine PRICEL returns:
 Original cell was already a primitive cell.

[...]

The static configuration has the point symmetry C_1 .

Analysis of symmetry for dynamics (positions and initial velocities):
 Subroutine PRICEL returns:
 Original cell was already a primitive cell.

[...]

The dynamic configuration has the point symmetry C_1 .

Analysis of constrained symmetry for selective dynamics:
 Subroutine PRICEL returns:
 Original cell was already a primitive cell.

[...]

The constrained configuration has the point symmetry C_1 .

Analysis of structural, dynamic, and magnetic symmetry:
 Subroutine PRICEL returns:
 Original cell was already a primitive cell.

 Routine SETGRP: Setting up the symmetry group for a
 hexagonal supercell.

 Subroutine GETGRP returns: Found  1 space group operations
 (whereof  1 operations were pure point group operations)
 out of a pool of 24 trial point group operations.

The magnetic configuration has the point symmetry C_1 .

 Subroutine INISYM returns: Found  1 space group operations
 (whereof  1 operations are pure point group operations),
 and found     1 'primitive' translations

 KPOINTS: mesh auto

Automatic generation of k-mesh.
Space group operators:
 irot       det(A)        alpha          n_x          n_y          n_z        tau_x        tau_y        tau_z
    1     1.000000     0.000000     1.000000     0.000000     0.000000     0.000000     0.000000     0.000000

 Subroutine IBZKPT returns following result:

 Found      4 irreducible k-points:

 Following reciprocal coordinates:
            Coordinates               Weight
  0.000000  0.000000  0.000000      1.000000
  0.500000  0.000000  0.000000      1.000000
  0.000000  0.500000  0.000000      1.000000
  0.500000  0.500000  0.000000      1.000000

 Following cartesian coordinates:
            Coordinates               Weight
  0.000000  0.000000  0.000000      1.000000
  0.044553 -0.025722  0.000000      1.000000
  0.000000  0.051445  0.000000      1.000000
  0.044553  0.025722  0.000000      1.000000

 TETIRR: Found     12 inequivalent tetrahedra from       24
 BZINTS: Fermi energy:  1.315092;779.000000 electrons
         Band energy:***********;  BLOECHL correction: -0.185272