 vasp.5.4.4.18Apr17-6-g9f103f2a35 (build Oct 25 2019 11:13:22) complex

 executed on             LinuxIFC date 2022.02.22  01:11:34

 INCAR:
 POTCAR:    PAW_PBE Pt 04Feb2005
 POTCAR:    PAW_PBE Fe 06Sep2000
 POTCAR:    PAW_PBE Co 02Aug2007
 POTCAR:    PAW_PBE Cu 22Jun2005
 POTCAR:    PAW_PBE Ni 02Aug2007
 POTCAR:    PAW_PBE N 08Apr2002
 POTCAR:    PAW_PBE Pt 04Feb2005
   VRHFIN =Pt: s1d9

   TITEL  = PAW_PBE Pt 04Feb2005
   POMASS =  195.080; ZVAL   =   10.000    mass and valenz
   ENMAX  =  230.283; ENMIN  =  172.712 eV

 POTCAR:    PAW_PBE Fe 06Sep2000
   VRHFIN =Fe:  d7 s1

   TITEL  = PAW_PBE Fe 06Sep2000
   POMASS =   55.847; ZVAL   =    8.000    mass and valenz
   ENMAX  =  267.882; ENMIN  =  200.911 eV

 POTCAR:    PAW_PBE Co 02Aug2007
   VRHFIN =Co: d8 s1

   TITEL  = PAW_PBE Co 02Aug2007
   POMASS =   58.933; ZVAL   =    9.000    mass and valenz
   ENMAX  =  267.968; ENMIN  =  200.976 eV

 POTCAR:    PAW_PBE Cu 22Jun2005
   VRHFIN =Cu: d10 p1

   TITEL  = PAW_PBE Cu 22Jun2005
   POMASS =   63.546; ZVAL   =   11.000    mass and valenz
   ENMAX  =  295.446; ENMIN  =  221.585 eV

 POTCAR:    PAW_PBE Ni 02Aug2007
   VRHFIN =Ni:

   TITEL  = PAW_PBE Ni 02Aug2007
   POMASS =   58.690; ZVAL   =   10.000    mass and valenz
   ENMAX  =  269.532; ENMIN  =  202.149 eV

 POTCAR:    PAW_PBE N 08Apr2002
   VRHFIN =N: s2p3

   TITEL  = PAW_PBE N 08Apr2002
   POMASS =   14.001; ZVAL   =    5.000    mass and valenz
   ENMAX  =  400.000; ENMIN  =  300.000 eV

 Optimization of the real space projectors (new method)

 maximal supplied QI-value         = 14.36
 optimisation between [QCUT,QGAM] = [ 11.92, 23.98] = [ 39.79,161.09] Ry
 Optimized for a Real-space Cutoff    1.49 Angstroem

   l    n(q)    QCUT    max X(q) W(low)/X(q) W(high)/X(q)  e(spline)
   2     10    11.920    66.195    0.79E-04    0.18E-03    0.24E-06
   2     10    11.920    64.643    0.81E-04    0.19E-03    0.24E-06
   0     11    11.920    95.520    0.28E-04    0.54E-04    0.18E-06
   0     11    11.920    63.403    0.27E-04    0.52E-04    0.17E-06
   1     10    11.920    19.961    0.18E-04    0.11E-03    0.23E-06
   1     10    11.920    13.289    0.25E-04    0.87E-04    0.19E-06
 Optimization of the real space projectors (new method)

[...]

   l    n(q)    QCUT    max X(q) W(low)/X(q) W(high)/X(q)  e(spline)
   2      9    11.864    60.317    0.21E-03    0.51E-03    0.25E-06
   2      9    11.864    55.921    0.21E-03    0.51E-03    0.26E-06
   0      9    11.864    51.690    0.22E-03    0.30E-04    0.17E-06
   0      9    11.864    30.015    0.20E-03    0.28E-04    0.15E-06
   1      9    11.864    18.849    0.76E-04    0.33E-03    0.17E-06
   1      9    11.864    14.624    0.60E-04    0.28E-03    0.15E-06
 Optimization of the real space projectors (new method)

 maximal supplied QI-value         = 25.13
 optimisation between [QCUT,QGAM] = [ 11.81, 23.88] = [ 39.08,159.64] Ry
 Optimized for a Real-space Cutoff    1.41 Angstroem

   l    n(q)    QCUT    max X(q) W(low)/X(q) W(high)/X(q)  e(spline)
   0     10    11.813    79.467    0.48E-04    0.30E-04    0.67E-06
   0     10    11.813    66.151    0.47E-04    0.30E-04    0.67E-06
   1     10    11.813    20.169    0.11E-03    0.17E-03    0.11E-05
   1     10    11.813    14.454    0.11E-03    0.17E-03    0.11E-05
  PAW_PBE Pt 04Feb2005                  :
  PAW_PBE Fe 06Sep2000                  :
  PAW_PBE Co 02Aug2007                  :
  PAW_PBE Cu 22Jun2005                  :
  PAW_PBE Ni 02Aug2007                  :
  PAW_PBE N 08Apr2002                   :

 POSCAR: 10.56
  positions in direct lattice
  velocities in cartesian coordinates
 exchange correlation table for  LEXCH =        8
   RHO(1)=    0.500       N(1)  =     2000
   RHO(2)=  100.500       N(2)  =     4000

 ion  position               nearest neighbor table
   1  0.788  0.878  0.317-  28 2.61  49 2.62  19 2.64  33 2.65  59 2.65  61 2.66  29 2.67  60 2.68
                             2 2.72   4 2.77  11 2.78  12 2.84
   2  0.044  0.881  0.317-  79 2.56  30 2.62  77 2.62  60 2.63  52 2.65  28 2.67  33 2.67  22 2.68
                             1 2.72   4 2.82   6 2.89  16 3.13
   3  0.279  0.380  0.320-  39 2.56  64 2.57  33 2.59  31 2.63  30 2.70  19 2.70  43 2.72  68 2.72
                             5 2.78  13 2.80  18 2.82  25 2.83
   4  0.868  0.965  0.422-  17 2.58  11 2.60   9 2.65  12 2.67   6 2.70  16 2.76  60 2.77   1 2.77
                             2 2.82
   5  0.122  0.463  0.428-  16 2.61  12 2.62   7 2.63  10 2.63  25 2.66  13 2.67  33 2.71  39 2.74
                             3 2.78
   6  0.122  0.967  0.429-  10 2.61   9 2.64   8 2.65   4 2.70  14 2.73  16 2.75   2 2.89  22 2.93
                            52 2.94
   7  0.875  0.460  0.427-   9 2.61  15 2.62   5 2.63  10 2.63  12 2.63  27 2.65  39 2.69  75 2.78
                            29 2.79
   8  0.376  0.960  0.419-  43 2.58  11 2.62  13 2.62  14 2.62  27 2.63   6 2.65  10 2.66  52 2.70
                            61 2.70
   9  0.871  0.214  0.420-  81 2.15  15 2.59   7 2.61  17 2.63   6 2.64   4 2.65  75 2.66  10 2.68
                            60 2.72  22 2.80
  10  0.125  0.212  0.422-   6 2.61  13 2.61   5 2.63   7 2.63   8 2.66  39 2.66   9 2.68  43 2.73
                            22 2.77
  11  0.624  0.960  0.424-   4 2.60   8 2.62  27 2.63  13 2.63  12 2.64  17 2.65   1 2.78  19 2.83
                            61 2.84
  12  0.874  0.710  0.426-   5 2.62  27 2.63   7 2.63  11 2.64  16 2.66   4 2.67  33 2.67  29 2.80
                             1 2.84
  13  0.374  0.209  0.425-  10 2.61   8 2.62  11 2.63  25 2.65  17 2.65   5 2.67  43 2.77   3 2.80
                            19 2.83
  14  0.381  0.709  0.422-  27 2.58  15 2.61   8 2.62  44 2.65  25 2.67   6 2.73  16 2.74  30 2.74
                            52 2.75
  15  0.627  0.461  0.423-  81 2.20   9 2.59  14 2.61   7 2.62  27 2.63  17 2.65  25 2.66  44 2.70
                            75 2.72  18 2.76
  16  0.126  0.706  0.439-   5 2.61  25 2.64  12 2.66  14 2.74   6 2.75   4 2.76  33 2.90  30 3.04
                             2 3.13
  17  0.624  0.211  0.423-  81 2.20   4 2.58  25 2.62   9 2.63  13 2.65  15 2.65  11 2.65  18 2.77
                            60 2.80  19 2.87
  18  0.548  0.375  0.317-  67 2.56  60 2.59  75 2.61  44 2.64  68 2.65  26 2.67  30 2.71  19 2.73
                            15 2.76  17 2.77   3 2.82  25 2.86
  19  0.535  0.124  0.315-  80 2.55  43 2.57  68 2.57  59 2.60   1 2.64  61 2.64   3 2.70  18 2.73
                            60 2.76  13 2.83  11 2.83  17 2.87
  20  0.547  0.124  0.040-  37 2.55  57 2.56  48 2.58  62 2.64  63 2.68  47 2.68  45 2.68  56 2.70
                            34 2.71
  21  0.121  0.460  0.128-  40 2.52  36 2.53  47 2.53  42 2.60  69 2.61  64 2.62  70 2.64  50 2.64
                            58 2.67  31 2.70  57 2.71  74 2.72
  22  0.045  0.134  0.315-  55 2.54  65 2.55  43 2.57  77 2.59  39 2.59  75 2.61   2 2.68  60 2.68
                            52 2.71  10 2.77   9 2.80   6 2.93  31 3.42
  23  0.042  0.130  0.033-  70 2.58  40 2.60  41 2.61  45 2.62  62 2.64  76 2.64  24 2.69  35 2.73
                            53 2.78
  24  0.130  0.958  0.132-  79 2.51  77 2.54  35 2.57  53 2.57  55 2.58  70 2.62  38 2.64  58 2.64
                            73 2.65  23 2.69  66 2.70  41 2.72
  25  0.375  0.459  0.426-  17 2.62  16 2.64  13 2.65   5 2.66  15 2.66  14 2.67  30 2.82   3 2.83
                            18 2.86
  26  0.455  0.546  0.219-  73 2.50  74 2.54  51 2.56  79 2.61  64 2.63  18 2.67  68 2.67  78 2.67
                            30 2.67  32 2.68  67 2.72  44 2.75
  27  0.624  0.711  0.424-  14 2.58   8 2.63  15 2.63  11 2.63  12 2.63   7 2.65  44 2.71  61 2.79
                            29 2.79
  28  0.956  0.790  0.221-  58 2.57  66 2.57  50 2.58  42 2.59  49 2.61   1 2.61  64 2.63   2 2.67
                            59 2.70  33 2.73  79 2.76  77 2.77
  29  0.794  0.622  0.319-  39 2.54  42 2.56  75 2.58  32 2.61  44 2.64  33 2.65   1 2.67  61 2.67
                            49 2.69   7 2.79  27 2.79  12 2.80
  30  0.290  0.631  0.319-  79 2.58  52 2.61  64 2.61   2 2.62  33 2.64  44 2.64  26 2.67   3 2.70
                            18 2.71  14 2.74  25 2.82  16 3.04
  31  0.203  0.281  0.225-  70 2.52  55 2.56  65 2.57  43 2.60  57 2.60   3 2.63  39 2.66  80 2.70
                            21 2.70  42 2.71  68 2.75  64 2.79  22 3.42
  32  0.706  0.549  0.221-  54 2.53  69 2.56  51 2.58  49 2.59  42 2.60  29 2.61  78 2.62  65 2.63
                            26 2.68  44 2.69  75 2.69  67 2.70
  33  0.040  0.630  0.326-   3 2.59  30 2.64  39 2.64   1 2.65  29 2.65  12 2.67   2 2.67  64 2.71
                             5 2.71  28 2.73  42 2.74  16 2.90
  34  0.797  0.862  0.042-  50 2.38  66 2.51  48 2.53  36 2.55  71 2.56  63 2.61  20 2.71  35 2.76
                            62 2.76
  35  0.056  0.866  0.038-  58 2.54  72 2.55  36 2.56  24 2.57  66 2.62  53 2.65  23 2.73  62 2.73
                            34 2.76
  36  0.046  0.628  0.037-  21 2.53  34 2.55  35 2.56  58 2.58  50 2.61  47 2.63  72 2.64  40 2.69
                            71 2.72
  37  0.627  0.222  0.129-  51 2.51  74 2.51  67 2.52  56 2.53  41 2.55  20 2.55  68 2.56  59 2.56
                            62 2.59  66 2.66  57 2.73  48 2.89
  38  0.382  0.955  0.130-  53 2.47  80 2.48  45 2.49  78 2.53  48 2.54  73 2.55  63 2.55  54 2.56
                            55 2.59  57 2.62  24 2.64  70 2.67
  39  0.036  0.382  0.324-  29 2.54   3 2.56  75 2.58  22 2.59  33 2.64  10 2.66  31 2.66  42 2.67
                             7 2.69   5 2.74  65 2.75  43 2.79
  40  0.031  0.382  0.038-  69 2.44  21 2.52  71 2.53  76 2.56  70 2.57  23 2.60  36 2.69  45 2.78
                            47 2.78
  41  0.872  0.215  0.128-  76 2.45  65 2.52  77 2.53  67 2.54  37 2.55  69 2.57  62 2.57  51 2.59
                            23 2.61  70 2.65  66 2.66  24 2.72
  42  0.955  0.545  0.224-  29 2.56  50 2.56  28 2.59  21 2.60  32 2.60  69 2.61  49 2.63  65 2.64
                            64 2.65  39 2.67  31 2.71  33 2.74
  43  0.297  0.115  0.321-  55 2.53  52 2.54  61 2.56  19 2.57  22 2.57   8 2.58  31 2.60  80 2.66
                             3 2.72  10 2.73  13 2.77  39 2.79
  44  0.541  0.629  0.322-  61 2.56  52 2.58  78 2.64  29 2.64  18 2.64  30 2.64  14 2.65  75 2.66
                            32 2.69  15 2.70  27 2.71  26 2.75
  45  0.295  0.119  0.039-  70 2.49  38 2.49  57 2.57  53 2.60  23 2.62  63 2.64  20 2.68  47 2.75
                            40 2.78
  46  0.548  0.625  0.044-  51 2.38  73 2.39  54 2.41  71 2.56  53 2.56  63 2.58  76 2.59  56 2.62
                            72 2.64
  47  0.296  0.379  0.039-  74 2.41  21 2.53  57 2.61  72 2.61  56 2.62  36 2.63  20 2.68  45 2.75
                            40 2.78
  48  0.625  0.950  0.132-  49 2.40  80 2.48  54 2.48  34 2.53  38 2.54  59 2.55  50 2.56  63 2.57
                            20 2.58  57 2.65  66 2.68  37 2.89
  49  0.706  0.794  0.220-  48 2.40  50 2.48  54 2.49  80 2.53  32 2.59  28 2.61  78 2.61   1 2.62
                            61 2.62  42 2.63  29 2.69  59 2.69
[...]
   0.379E+02 -.121E+02 -.151E+04   -.395E+02 0.123E+02 0.151E+04   0.164E+01 -.207E+00 0.205E+01   0.219E-01 -.226E-03 0.715E-02
   -.495E+01 0.430E+02 -.288E+04   0.508E+01 -.441E+02 0.288E+04   -.143E+00 0.114E+01 0.886E+00   -.285E-02 0.544E-02 0.150E-01
   -.813E+01 0.238E+01 -.293E+04   0.769E+01 -.215E+01 0.292E+04   0.429E+00 -.171E+00 0.134E+01   0.761E-03 0.128E-02 0.204E-01
   -.156E+02 0.175E+02 -.288E+04   0.156E+02 -.178E+02 0.288E+04   0.215E-01 0.231E+00 0.953E+00   -.201E-02 0.121E-01 -.825E-02
   -.325E+02 -.151E+02 -.289E+04   0.334E+02 0.153E+02 0.289E+04   -.984E+00 -.257E+00 0.147E+01   0.307E-03 -.127E-01 0.973E-02
   0.141E+02 -.164E+02 -.291E+04   -.144E+02 0.165E+02 0.290E+04   0.297E+00 -.105E+00 0.178E+01   -.135E-01 -.566E-02 0.233E-01
   -.114E+03 0.587E+02 -.283E+04   0.114E+03 -.591E+02 0.283E+04   -.634E+00 0.361E+00 -.541E+00   -.161E-01 -.530E-02 -.374E-02
   -.274E+02 0.459E+01 -.288E+04   0.277E+02 -.429E+01 0.288E+04   -.313E+00 -.275E+00 0.153E+01   -.141E-01 -.570E-02 0.297E-01
   0.914E+01 0.126E+02 -.292E+04   -.890E+01 -.127E+02 0.292E+04   -.295E+00 0.123E+00 0.695E+00   0.216E-01 0.296E-02 0.141E-01
   -.923E+01 0.385E+01 -.292E+04   0.948E+01 -.403E+01 0.292E+04   -.215E+00 0.160E+00 0.975E+00   0.113E-01 0.187E-01 0.154E-01
   0.239E+02 -.133E+02 -.290E+04   -.242E+02 0.130E+02 0.290E+04   0.270E+00 0.279E+00 0.802E+00   0.172E-01 0.931E-02 0.128E-01
   0.250E+02 -.140E+02 -.290E+04   -.245E+02 0.139E+02 0.290E+04   -.555E+00 0.505E-01 0.133E+01   0.652E-02 -.156E-02 0.126E-01
   0.119E+02 -.125E+03 -.287E+04   -.117E+02 0.126E+03 0.287E+04   -.136E+00 -.965E+00 -.186E+00   -.106E-01 -.113E-01 -.283E-01
   -.100E+01 -.303E-01 -.292E+04   0.741E+00 -.270E+00 0.291E+04   0.225E+00 0.289E+00 0.955E+00   0.431E-02 0.827E-03 0.523E-01
   0.119E+03 0.440E+02 -.283E+04   -.120E+03 -.445E+02 0.283E+04   0.677E+00 0.382E+00 -.685E+00   0.155E-01 0.341E-02 0.326E-02
   0.682E+02 -.704E+02 -.153E+04   -.667E+02 0.707E+02 0.153E+04   -.145E+01 -.308E+00 0.197E+01   -.193E-02 -.180E-02 0.152E-01
   0.322E+02 -.446E+02 -.150E+04   -.328E+02 0.445E+02 0.150E+04   0.527E+00 0.539E-01 0.179E+01   0.171E-01 0.148E-01 0.277E-01
   0.332E+02 0.314E+02 0.304E+04   -.334E+02 -.316E+02 -.304E+04   0.177E+00 0.186E+00 -.239E+01   0.945E-02 0.850E-02 -.116E-01
   0.350E+02 -.810E+01 0.161E+04   -.359E+02 0.881E+01 -.161E+04   0.914E+00 -.633E+00 0.921E+00   -.198E-02 0.668E-02 0.153E-01
   -.726E+02 0.985E+01 -.146E+04   0.729E+02 -.888E+01 0.146E+04   -.315E+00 -.933E+00 0.199E+01   -.413E-02 -.228E-01 -.617E-02
   -.540E+02 0.511E+02 0.309E+04   0.548E+02 -.502E+02 -.309E+04   -.749E+00 -.830E+00 -.205E+01   -.111E-01 0.923E-02 0.437E-02
   0.468E-01 -.533E+02 0.160E+04   0.192E+00 0.529E+02 -.160E+04   -.336E+00 0.420E+00 -.759E+00   0.944E-02 0.761E-02 0.307E-01
   0.243E+02 -.709E+01 -.287E+04   -.254E+02 0.766E+01 0.287E+04   0.103E+01 -.579E+00 0.668E+00   0.798E-02 -.415E-02 0.124E-02
   -.227E+02 -.307E+01 0.228E+02   0.226E+02 0.342E+01 -.242E+02   0.244E-01 -.454E+00 0.141E+01   0.321E-04 -.111E-01 -.127E-01
   -.157E+02 -.834E+01 -.290E+04   0.151E+02 0.808E+01 0.290E+04   0.567E+00 0.284E+00 0.124E+01   -.134E-01 0.166E-02 0.114E-01
   0.190E+02 0.667E+02 0.211E+02   -.199E+02 -.678E+02 -.215E+02   0.106E+01 0.104E+01 0.329E+00   0.131E-01 -.342E-02 0.423E-02
   -.667E+02 0.713E+01 -.146E+04   0.670E+02 -.836E+01 0.146E+04   -.329E+00 0.132E+01 0.277E+01   -.181E-02 -.425E-02 0.273E-03
   0.292E+02 0.266E+02 -.152E+04   -.289E+02 -.259E+02 0.152E+04   -.341E+00 -.613E+00 0.228E+01   0.159E-02 -.110E-01 0.139E-01
   0.192E+02 -.634E+02 -.596E+02   -.201E+02 0.627E+02 0.600E+02   0.100E+01 0.572E+00 -.385E+00   -.200E-01 -.280E-02 -.704E-02
   -.207E+02 -.192E+02 0.216E+02   0.215E+02 0.199E+02 -.224E+02   -.846E+00 -.814E+00 0.730E+00   -.155E-02 -.185E-01 -.139E-01
   0.178E+02 0.151E+02 -.124E+04   -.179E+02 -.154E+02 0.124E+04   0.131E+00 0.434E+00 0.547E+00   0.732E-02 0.109E-01 0.691E-02
   -.598E+02 -.279E+01 0.244E+04   0.602E+02 0.156E+01 -.244E+04   -.404E+00 0.126E+01 -.270E+01   -.133E-02 -.716E-02 -.751E-02
   0.306E+02 -.141E+02 0.247E+04   -.305E+02 0.127E+02 -.247E+04   -.693E-01 0.142E+01 -.231E+01   0.302E-02 -.432E-02 0.256E-02
   0.228E+02 -.395E+01 0.248E+04   -.230E+02 0.452E+01 -.247E+04   0.158E+00 -.592E+00 -.281E+01   0.109E-02 -.145E-02 0.266E-02
   0.691E+01 0.516E+02 0.130E+04   -.609E+01 -.510E+02 -.130E+04   -.887E+00 -.676E+00 -.135E+00   0.112E-01 0.244E-01 -.750E-03
   0.335E+02 -.547E+02 0.129E+04   -.334E+02 0.544E+02 -.129E+04   -.830E-01 0.265E+00 -.292E+00   -.257E-01 -.687E-02 0.635E-02
   -.576E+02 -.244E+02 -.121E+04   0.577E+02 0.246E+02 0.121E+04   -.630E-01 -.245E+00 0.785E+00   -.779E-02 -.485E-02 0.100E-02
   -.933E+02 0.205E+02 0.248E+04   0.931E+02 -.203E+02 -.248E+04   0.265E+00 -.209E+00 -.263E+01   -.137E-01 0.737E-02 0.370E-02
   -.330E+02 0.461E+02 0.131E+04   0.322E+02 -.456E+02 -.131E+04   0.804E+00 -.504E+00 -.408E+00   0.237E-02 0.950E-02 0.611E-02
   -.451E+02 0.281E+01 -.308E+02   0.449E+02 -.245E+01 0.308E+02   0.228E+00 -.417E+00 -.993E-01   -.125E-02 -.617E-02 -.982E-02
   0.142E+02 -.807E+02 -.122E+04   -.143E+02 0.805E+02 0.122E+04   0.188E+00 0.210E+00 0.111E+01   -.169E-01 -.322E-02 -.987E-03
   0.126E+02 0.375E+02 -.122E+04   -.127E+02 -.376E+02 0.122E+04   0.106E+00 0.886E-01 0.454E+00   -.789E-02 -.131E-01 0.141E-01
   0.145E+02 -.466E+02 0.245E+04   -.152E+02 0.459E+02 -.245E+04   0.694E+00 0.685E+00 -.277E+01   -.277E-02 -.253E-02 0.725E-03
   0.447E+01 -.194E+02 0.276E+04   -.456E+01 0.197E+02 -.276E+04   0.992E-01 -.276E+00 -.232E+01   -.569E-03 -.148E-01 0.789E-02
   0.119E+03 0.292E+02 0.279E+04   -.120E+03 -.285E+02 -.279E+04   0.434E+00 -.647E+00 -.237E+01   0.153E-01 0.140E-01 0.685E-02
   -.366E+02 -.286E+02 0.143E+04   0.362E+02 0.275E+02 -.143E+04   0.444E+00 0.108E+01 -.469E+00   0.216E-02 -.859E-02 -.178E-01
   -.601E+02 0.668E+02 0.408E+02   0.601E+02 -.666E+02 -.416E+02   -.733E-02 -.261E+00 0.791E+00   0.120E-01 -.299E-01 0.376E-02
   -.888E+02 0.191E+02 0.142E+04   0.883E+02 -.186E+02 -.142E+04   0.525E+00 -.505E+00 -.885E-01   0.604E-03 -.224E-01 -.389E-03
   -.203E+02 0.103E+02 0.140E+04   0.205E+02 -.105E+02 -.140E+04   -.133E+00 0.292E+00 -.493E-01   -.155E-02 0.111E-01 -.122E-01
   0.447E+02 0.682E+01 -.137E+04   -.445E+02 -.699E+01 0.137E+04   -.289E+00 0.212E+00 0.139E+01   -.183E-01 0.122E-01 0.439E-03
   0.529E+02 -.807E+02 0.277E+04   -.526E+02 0.805E+02 -.277E+04   -.354E+00 0.198E+00 -.245E+01   0.580E-02 -.230E-01 0.695E-02
   -.136E+02 0.217E+01 0.139E+04   0.137E+02 -.194E+01 -.139E+04   -.113E+00 -.255E+00 -.439E+00   -.177E-01 -.314E-01 -.219E-01
   0.189E+02 -.704E+02 -.177E+01   -.179E+02 0.698E+02 0.186E+01   -.888E+00 0.694E+00 -.220E+00   -.282E-01 0.777E-02 -.374E-02
   0.308E+02 0.341E+02 0.345E+04   -.309E+02 -.333E+02 -.344E+04   0.167E+00 -.858E+00 -.356E+01   0.164E-01 0.280E-01 0.113E-01
   0.622E+02 0.827E+01 0.175E+04   -.623E+02 -.898E+01 -.175E+04   0.134E+00 0.705E+00 -.147E+00   -.540E-02 0.269E-01 0.261E-02
   0.102E+03 -.311E+02 0.173E+04   -.102E+03 0.311E+02 -.173E+04   -.212E+00 0.440E-02 0.973E-01   0.137E-01 -.121E-01 0.391E-02
   0.131E+02 0.644E+02 0.991E+02   -.138E+02 -.643E+02 -.999E+02   0.690E+00 -.183E+00 0.761E+00   0.353E-01 0.165E-01 0.190E-01
   0.159E+02 0.480E+02 -.169E+04   -.155E+02 -.474E+02 0.169E+04   -.452E+00 -.659E+00 0.186E+01   0.702E-02 -.130E-02 0.222E-01
[...]
   0.505E+02 -.373E+02 0.152E+02   -.501E+02 0.367E+02 -.156E+02   -.434E+00 0.549E+00 0.542E+00   0.121E-01 0.292E-01 0.503E-02
   -.731E+02 0.166E+01 0.156E+04   0.727E+02 -.155E+01 -.156E+04   0.396E+00 -.418E-01 -.100E+00   -.144E-01 0.364E-02 0.449E-02
   -.125E+02 0.194E+02 0.163E+04   0.128E+02 -.197E+02 -.163E+04   -.356E+00 0.224E+00 -.413E+00   -.143E-01 -.587E-02 0.283E-01
   -.101E+03 -.421E+01 0.309E+04   0.101E+03 0.427E+01 -.309E+04   -.489E+00 -.248E-01 -.133E+01   -.241E-01 -.704E-02 0.408E-02
   0.702E+02 -.522E+02 0.309E+04   -.705E+02 0.528E+02 -.309E+04   0.287E+00 -.583E+00 -.790E+00   0.225E-01 -.136E-01 0.104E-01
   0.149E+02 -.398E+02 0.156E+04   -.145E+02 0.396E+02 -.156E+04   -.406E+00 0.217E+00 -.174E-01   0.470E-02 -.222E-01 -.113E-01
   0.506E+02 0.290E+01 0.160E+04   -.502E+02 -.291E+01 -.160E+04   -.478E+00 0.340E-01 -.942E-01   0.173E-01 0.156E-01 -.125E-03
   -.310E+02 -.741E+02 -.154E+04   0.309E+02 0.742E+02 0.154E+04   0.162E+00 -.165E-01 0.102E+01   -.167E-01 -.995E-02 0.996E-02
   -.538E+02 0.296E+02 0.307E+04   0.543E+02 -.291E+02 -.307E+04   -.434E+00 -.553E+00 -.187E+01   -.148E-01 0.189E-01 0.892E-02
   -.433E+02 0.692E+02 0.905E+02   0.437E+02 -.689E+02 -.906E+02   -.422E+00 -.313E+00 0.101E+00   0.234E-01 0.402E-02 0.753E-02
   0.307E+00 0.623E+02 0.165E+02   -.310E+00 -.615E+02 -.166E+02   0.773E-01 -.882E+00 0.363E-01   -.337E-01 -.105E-02 -.945E-02
   0.463E+02 0.618E+01 -.129E+02   -.459E+02 -.557E+01 0.128E+02   -.404E+00 -.637E+00 0.400E-01   0.509E-02 0.224E-01 -.195E-02
   0.213E+02 -.544E+02 0.490E+02   -.217E+02 0.539E+02 -.493E+02   0.469E+00 0.571E+00 0.385E+00   -.338E-01 0.154E-01 0.617E-02
   -.262E+01 0.102E+02 -.170E+04   0.308E+01 -.111E+02 0.173E+04   -.471E+00 0.794E+00 -.256E+02   -.403E-02 -.991E-02 -.403E-02
   -.185E+01 -.183E+01 0.208E+02   -.338E-12 -.131E-12 0.500E-11   0.186E+01 0.183E+01 -.213E+02   0.291E-02 -.220E-01 0.418E+00

 POSITION                                       TOTAL-FORCE (eV/Angst)
     12.94547      8.04128      6.97624         0.008392      0.011366     -0.011358
      5.10583      8.07664      6.93771         0.011917      0.022916      0.037211
      4.96512      3.48584      7.02899         0.010331      0.007329     -0.000058
     14.30981      8.72736      9.30142        -0.007805      0.021403     -0.022164
      3.72555      4.21255      9.45542        -0.002655      0.038143     -0.010906
      6.39853      8.77834      9.25566         0.013469     -0.016352      0.041376
     11.70122      4.23175      9.33728         0.001005     -0.027537      0.019683
      9.02474      8.77615      9.21699        -0.027327     -0.029997     -0.002741
     10.38579      1.89669      9.36148         0.013810     -0.014816      0.012717
      2.44404      1.92453      9.28751        -0.022978     -0.003059     -0.019545
     11.65822      8.77579      9.31792         0.006133     -0.008627      0.001064
     12.97428      6.49838      9.41428         0.025790     -0.002241     -0.022334
      5.04978      1.90760      9.33554        -0.003352      0.021165      0.006842
      7.72163      6.50797      9.31835        -0.016648     -0.000552     -0.011449
      9.02493      4.26158      9.51428         0.014010      0.019883      0.041836
      5.06556      6.49732      9.41143        -0.024588      0.002311     -0.024810
      7.66275      1.89592      9.40717         0.018335     -0.021969      0.018235
      7.80307      3.45537      7.01405         0.017768      0.001055      0.044211
      6.32804      1.15874      6.95274         0.008193      0.001658      0.001983
      6.42858      1.12974      0.87872        -0.020277     -0.013783     -0.006820
      3.70548      4.20844      2.81687         0.012276      0.033174     -0.033250
      1.16416      1.26146      6.92370        -0.005729     -0.005686      0.020365
      1.13569      1.19080      0.72557        -0.005955      0.025768      0.005317
      6.43607      8.76100      2.90031        -0.039671      0.009308      0.001880
      6.33307      4.24424      9.35251        -0.001142      0.003230     -0.002001
      7.68135      4.99073      4.81474         0.026948     -0.062861      0.018831
     10.32825      6.50476      9.29137        -0.017835     -0.018773      0.017791
     14.26424      7.22593      4.86299         0.034648     -0.078362     -0.036274
     11.67440      5.69450      7.00777        -0.015165     -0.002402     -0.002512
      6.41703      5.77625      7.00064        -0.000198      0.004669      0.007963
      3.62119      2.56589      4.96023         0.018586     -0.036014     -0.014855
     10.36091      5.02430      4.85652        -0.015881     -0.032313     -0.057730
      3.75867      5.77114      7.18202        -0.004160     -0.009630     -0.048355
     12.96907      7.87977      0.92567        -0.004824     -0.002535     -0.001010
      5.16340      7.91719      0.83030         0.002899     -0.000908     -0.003636
      3.80701      5.74502      0.81381         0.014004      0.000256     -0.031293
      7.79852      2.03245      2.83251        -0.028390     -0.023931      0.014436
      9.07755      8.73373      2.85743         0.007824      0.020804      0.028355
      2.40719      3.50768      7.13447        -0.009927      0.009473      0.000053
      2.34409      3.49051      0.82510         0.008427      0.000597     -0.023753
     10.34814      1.96983      2.82249        -0.033944      0.025040      0.003696
     12.96035      4.98587      4.92559         0.044884     -0.031180     -0.027292
      3.74726      1.07163      7.06434        -0.002873      0.001092     -0.005562
      9.03604      5.76865      7.08203        -0.011696     -0.004368      0.004381
      3.74824      1.09182      0.86700        -0.014442      0.005440     -0.009258
      9.09121      5.71867      0.96043        -0.005467      0.040327     -0.014930
      5.12448      3.47045      0.85563        -0.000752      0.033947     -0.002633
     11.62092      8.68758      2.90590         0.022415      0.021443      0.020767
     11.65313      7.26450      4.84229        -0.029708      0.012905     -0.051352
     12.86756      6.45280      2.83379         0.025470      0.000179      0.004061
      9.04201      4.20780      2.79628         0.026500      0.012472     -0.005809
      7.76800      8.01327      6.98656        -0.000039      0.008896     -0.001338
      7.81315      7.93922      0.88653        -0.000931     -0.005691      0.003869
     10.39144      6.53566      2.82198         0.024245     -0.038276     -0.008759
      2.51347      0.25826      5.00083         0.088597      0.017625     -0.043873
      7.74264      3.48454      0.76157        -0.002146     -0.009093     -0.003613
      5.07835      1.87760      2.91701         0.006559     -0.008725     -0.006778
      5.16037      6.44715      2.89923        -0.019505      0.003901     -0.007126
      7.70892      0.45986      4.84799         0.002686      0.052487      0.035921
      9.06023      1.19956      7.00488         0.003029      0.009895     -0.016536
[...]
      9.07350      2.65252      4.91360        -0.029252     -0.020551      0.098757
      6.37169      2.66558      4.85827         0.048785      0.010065      0.093720
     11.65891      4.17486      2.81483        -0.027261      0.011352     -0.034719
      2.44098      1.89237      2.83279        -0.009313      0.005295      0.014450
     11.64953      5.68621      0.88546         0.001209      0.032219     -0.008464
      6.44743      5.71949      0.92597        -0.003168      0.016966     -0.004131
      7.82927      6.50651      2.83621        -0.047938     -0.022041     -0.000766
      6.41922      4.13007      2.78290        -0.007678      0.000241     -0.005146
     10.37167      3.47086      7.05857        -0.001038      0.007165      0.007995
     10.34410      3.45013      0.86804         0.000375     -0.021740     -0.014892
     10.37063      0.48410      4.87151        -0.020970      0.025082      0.022634
      9.04079      7.29017      4.93700         0.018589     -0.037215      0.009281
      6.46265      7.29503      4.94074         0.044403      0.023577     -0.055210
      5.04247      0.27633      4.88406        -0.019451      0.032030      0.059011
      9.04072      2.61839     10.58527        -0.021940     -0.026566     -0.008490
    total drift:                                0.017035     -0.022079     -0.042604

  FREE ENERGIE OF THE ION-ELECTRON SYSTEM (eV)
  free  energy   TOTEN  =      -514.72893397 eV

  energy  without entropy=     -514.74495327  energy(sigma->0) =     -514.73427374

 d Force = 0.2508287E-02[ 0.126E-02, 0.376E-02]  d Energy = 0.2443053E-02 0.652E-04
 d Force =-0.1022868E+02[-0.102E+02,-0.102E+02]  d Ewald  =-0.1022868E+02-0.328E-05

 Conjugate gradient step on ions:
 trial-energy change:   -0.002443  1 .order   -0.002508   -0.003756   -0.001261
  (g-gl).g = 0.275E-02      g.g   = 0.300E-02  gl.gl    = 0.691E-02
 g(Force)  = 0.300E-02   g(Stress)= 0.000E+00 ortho     =-0.148E-04
 gamma     =   0.39761
 trial     =   1.25404
 opt step  =   2.11554  (harmonic =   1.88758) maximal distance =0.01238600
 next E    =  -514.729346   (d E  =  -0.00285)

 reached required accuracy - stopping structural energy minimisation