 vasp.5.4.4.18Apr17-6-g9f103f2a35 (build Oct 25 2019 11:13:22) complex

 executed on             LinuxIFC date 2022.01.30  11:25:34

 INCAR:
 POTCAR:    PAW_PBE Pt 04Feb2005
 POTCAR:    PAW_PBE Fe 06Sep2000
 POTCAR:    PAW_PBE Co 02Aug2007
 POTCAR:    PAW_PBE Cu 22Jun2005
 POTCAR:    PAW_PBE Ni 02Aug2007
 POTCAR:    PAW_PBE H 15Jun2001

 POTCAR:    PAW_PBE Pt 04Feb2005
   VRHFIN =Pt: s1d9

   TITEL  = PAW_PBE Pt 04Feb2005
   POMASS =  195.080; ZVAL   =   10.000    mass and valenz
   ENMAX  =  230.283; ENMIN  =  172.712 eV

 POTCAR:    PAW_PBE Fe 06Sep2000
   VRHFIN =Fe:  d7 s1

   TITEL  = PAW_PBE Fe 06Sep2000
   POMASS =   55.847; ZVAL   =    8.000    mass and valenz
   ENMAX  =  267.882; ENMIN  =  200.911 eV

 POTCAR:    PAW_PBE Co 02Aug2007
   VRHFIN =Co: d8 s1

   TITEL  = PAW_PBE Co 02Aug2007
   POMASS =   58.933; ZVAL   =    9.000    mass and valenz
   ENMAX  =  267.968; ENMIN  =  200.976 eV

 POTCAR:    PAW_PBE Cu 22Jun2005
   VRHFIN =Cu: d10 p1

   TITEL  = PAW_PBE Cu 22Jun2005
   POMASS =   63.546; ZVAL   =   11.000    mass and valenz
   ENMAX  =  295.446; ENMIN  =  221.585 eV

 POTCAR:    PAW_PBE Ni 02Aug2007
   VRHFIN =Ni:

   TITEL  = PAW_PBE Ni 02Aug2007
   POMASS =   58.690; ZVAL   =   10.000    mass and valenz
   ENMAX  =  269.532; ENMIN  =  202.149 eV

 POTCAR:    PAW_PBE H 15Jun2001
   VRHFIN =H: ultrasoft test

   TITEL  = PAW_PBE H 15Jun2001
   POMASS =    1.000; ZVAL   =    1.000    mass and valenz
   ENMAX  =  250.000; ENMIN  =  200.000 eV

 Optimization of the real space projectors (new method)

 maximal supplied QI-value         = 14.36
 optimisation between [QCUT,QGAM] = [ 11.92, 23.98] = [ 39.79,161.09] Ry
 Optimized for a Real-space Cutoff    1.49 Angstroem

   l    n(q)    QCUT    max X(q) W(low)/X(q) W(high)/X(q)  e(spline)
   2     10    11.920    66.195    0.79E-04    0.18E-03    0.24E-06
   2     10    11.920    64.643    0.81E-04    0.19E-03    0.24E-06
   0     11    11.920    95.520    0.28E-04    0.54E-04    0.18E-06
   0     11    11.920    63.403    0.27E-04    0.52E-04    0.17E-06
   1     10    11.920    19.961    0.18E-04    0.11E-03    0.23E-06
   1     10    11.920    13.289    0.25E-04    0.87E-04    0.19E-06
 Optimization of the real space projectors (new method)

[...]

   l    n(q)    QCUT    max X(q) W(low)/X(q) W(high)/X(q)  e(spline)
   2      9    11.864    60.317    0.21E-03    0.51E-03    0.25E-06
   2      9    11.864    55.921    0.21E-03    0.51E-03    0.26E-06
   0      9    11.864    51.690    0.22E-03    0.30E-04    0.17E-06
   0      9    11.864    30.015    0.20E-03    0.28E-04    0.15E-06
   1      9    11.864    18.849    0.76E-04    0.33E-03    0.17E-06
   1      9    11.864    14.624    0.60E-04    0.28E-03    0.15E-06
 Optimization of the real space projectors (new method)

 maximal supplied QI-value         = 34.20
 optimisation between [QCUT,QGAM] = [ 11.97, 23.94] = [ 40.13,160.53] Ry
 Optimized for a Real-space Cutoff    1.18 Angstroem

   l    n(q)    QCUT    max X(q) W(low)/X(q) W(high)/X(q)  e(spline)
   0      8    11.971    19.460    0.15E-03    0.31E-03    0.25E-06
   0      8    11.971    12.209    0.13E-03    0.29E-03    0.25E-06
   1      8    11.971     4.655    0.22E-03    0.24E-03    0.21E-06
  PAW_PBE Pt 04Feb2005                  :
  PAW_PBE Fe 06Sep2000                  :
  PAW_PBE Co 02Aug2007                  :
  PAW_PBE Cu 22Jun2005                  :
  PAW_PBE Ni 02Aug2007                  :
  PAW_PBE H 15Jun2001                   :

 POSCAR: 11.26
  positions in cartesian coordinates
 exchange correlation table for  LEXCH =        8
   RHO(1)=    0.500       N(1)  =     2000
   RHO(2)=  100.500       N(2)  =     4000

 ion  position               nearest neighbor table
   1  0.782  0.871  0.305-  49 2.53  59 2.61  28 2.68  61 2.75   4 2.79  19 2.80   2 2.80  33 2.80
                            11 2.81  29 2.83  12 2.85  60 2.87
   2  0.033  0.869  0.300-  79 2.51  77 2.57  30 2.76  28 2.77  33 2.77   1 2.80   4 2.82  60 2.85
                             6 2.85  16 2.90  22 2.97  52 3.10
   3  0.275  0.364  0.314-  64 2.54  31 2.66  68 2.68  39 2.71   5 2.74  43 2.76  13 2.76  25 2.79
                            30 2.81  33 2.82  19 2.83  18 2.99
   4  0.868  0.960  0.406-  60 2.65  17 2.74   9 2.75  16 2.77   6 2.79   1 2.79  11 2.80   2 2.82
                            12 2.85
   5  0.112  0.458  0.416-  81 1.80  39 2.68   3 2.74  33 2.75  10 2.75   7 2.76  12 2.78  16 2.85
                            25 2.89  13 2.94
   6  0.122  0.949  0.406-  52 2.61  22 2.71  16 2.72  14 2.76   4 2.79   8 2.82   9 2.85   2 2.85
                            10 2.91
   7  0.872  0.447  0.416-  39 2.61  75 2.62   9 2.74  29 2.74   5 2.76  10 2.77  15 2.78  27 2.86
                            12 2.89
   8  0.371  0.952  0.415-  52 2.54  43 2.58  61 2.72  13 2.76  14 2.78  27 2.79  10 2.81   6 2.82
                            11 2.83
   9  0.870  0.204  0.407-  75 2.61  60 2.65   7 2.74   4 2.75  22 2.76  17 2.77  15 2.81   6 2.85
                            10 2.88
  10  0.125  0.207  0.413-  39 2.64  43 2.65  22 2.72   5 2.75  13 2.76   7 2.77   8 2.81   9 2.88
                             6 2.91
  11  0.624  0.950  0.412-  61 2.66  12 2.72  19 2.74  13 2.78   4 2.80   1 2.81  27 2.82   8 2.83
                            17 2.83
  12  0.866  0.707  0.412-  29 2.67  33 2.68  11 2.72   5 2.78  16 2.80  27 2.81   1 2.85   4 2.85
                             7 2.89
  13  0.375  0.196  0.415-  43 2.65  19 2.74  10 2.76   3 2.76   8 2.76  11 2.78  17 2.83  25 2.84
                             5 2.94
  14  0.370  0.706  0.407-  44 2.56  52 2.62   6 2.76  27 2.76   8 2.78  15 2.81  30 2.84  16 2.85
                            25 2.86
  15  0.620  0.455  0.412-  44 2.58  75 2.60  27 2.76  18 2.77   7 2.78  25 2.80  17 2.81   9 2.81
                            14 2.81
  16  0.113  0.711  0.412-  81 1.71  33 2.68   6 2.72  30 2.74   4 2.77  12 2.80  14 2.85   5 2.85
                             2 2.90  25 2.92
  17  0.624  0.203  0.410-  60 2.68   4 2.74  18 2.74   9 2.77  19 2.77  25 2.79  15 2.81  13 2.83
                            11 2.83
  18  0.536  0.372  0.310-  67 2.52  68 2.63  26 2.68  25 2.74  17 2.74  15 2.77  44 2.77  60 2.77
                            75 2.83  30 2.87  19 2.89   3 2.99
  19  0.531  0.117  0.311-  80 2.52  68 2.53  59 2.57  43 2.67  13 2.74  11 2.74  61 2.75  17 2.77
                             1 2.80   3 2.83  60 2.89  18 2.89
  20  0.557  0.109  0.059-  37 2.52  48 2.53  57 2.55  62 2.63  34 2.71  63 2.75  56 2.89  45 3.25

  21  0.093  0.426  0.123-  47 2.48  40 2.50  36 2.53  70 2.60  42 2.61  69 2.66  31 2.74  57 2.74
                            64 2.76  50 2.79
  22  0.050  0.124  0.310-  77 2.49  65 2.53  55 2.56  43 2.71   6 2.71  39 2.71  10 2.72   9 2.76
                            52 2.77  75 2.95   2 2.97  60 2.97  31 3.31
  23  0.024  0.112  0.042-  40 2.53  41 2.56  70 2.59  62 2.65  24 2.72  45 2.74  35 2.80  76 2.81
                            53 2.86
  24  0.129  0.948  0.141-  79 2.49  35 2.53  77 2.57  55 2.58  70 2.60  53 2.61  58 2.68  73 2.68
                            23 2.72  66 2.78  38 2.80  41 2.95
  25  0.373  0.450  0.411-  18 2.74  30 2.78   3 2.79  17 2.79  15 2.80  13 2.84  14 2.86   5 2.89
                            16 2.92
  26  0.446  0.559  0.220-  73 2.48  74 2.49  51 2.53  79 2.55  44 2.62  30 2.62  18 2.68  32 2.72
                            78 2.74  67 2.97  58 3.06  68 3.13  64 3.14
  27  0.618  0.702  0.413-  44 2.62  61 2.67  29 2.75  15 2.76  14 2.76   8 2.79  12 2.81  11 2.82
                             7 2.86
  28  0.950  0.757  0.209-  58 2.57  50 2.57  66 2.61  42 2.62  33 2.67   1 2.68  49 2.69   2 2.77
                            64 2.78
  29  0.794  0.614  0.315-  42 2.54  49 2.61  32 2.63  39 2.65  12 2.67  75 2.67  33 2.73   7 2.74
                            27 2.75   1 2.83  44 2.85  61 2.85
  30  0.271  0.617  0.309-  79 2.53  26 2.62  33 2.63  64 2.69  16 2.74   2 2.76  25 2.78   3 2.81
                            14 2.84  18 2.87  44 3.02  52 3.16
  31  0.189  0.266  0.225-  70 2.50  55 2.57  57 2.59  43 2.61  39 2.62  65 2.65   3 2.66  21 2.74
                            64 2.76  42 2.84  80 2.85  68 3.01  22 3.31
  32  0.693  0.549  0.221-  69 2.52  54 2.57  49 2.58  51 2.59  44 2.61  29 2.63  78 2.67  75 2.68
                            42 2.71  26 2.72  67 2.75  65 2.79  50 3.30
  33  0.033  0.624  0.315-  30 2.63  28 2.67  12 2.68  16 2.68  64 2.69  29 2.73  42 2.74   5 2.75
                             2 2.77   1 2.80  39 2.82   3 2.82
  34  0.791  0.861  0.064-  48 2.37  50 2.40  66 2.51  36 2.70  20 2.71  62 2.82  63 2.83  35 2.86

  35  0.050  0.852  0.056-  36 2.39  24 2.53  66 2.57  58 2.66  72 2.69  23 2.80  34 2.86  53 2.90
                            62 2.93
  36  0.048  0.640  0.066-  35 2.39  47 2.52  21 2.53  58 2.57  50 2.59  34 2.70  72 2.75
  37  0.628  0.231  0.134-  67 2.48  51 2.49  74 2.50  56 2.50  20 2.52  41 2.53  59 2.53  62 2.56
                            68 2.61  66 2.82
  38  0.378  0.948  0.136-  45 2.38  80 2.45  55 2.46  53 2.47  73 2.51  63 2.51  78 2.52  54 2.58
                            48 2.62  57 2.79  24 2.80  70 2.85
  39  0.027  0.376  0.319-  42 2.61   7 2.61  31 2.62  65 2.62  10 2.64  29 2.65   5 2.68  75 2.71
                             3 2.71  22 2.71  33 2.82  43 3.03
  40  0.980  0.356  0.044-  69 2.33  76 2.41  21 2.50  23 2.53  71 2.54  70 2.64  45 3.11
  41  0.864  0.208  0.134-  77 2.39  76 2.41  69 2.49  67 2.50  37 2.53  23 2.56  65 2.57  62 2.59
                            66 2.61  70 2.67  51 2.84  24 2.95
  42  0.945  0.527  0.221-  50 2.47  29 2.54  39 2.61  65 2.61  21 2.61  28 2.62  69 2.65  32 2.71
                            64 2.71  33 2.74  49 2.75  31 2.84
  43  0.298  0.108  0.320-  55 2.51  52 2.53   8 2.58  80 2.60  31 2.61  13 2.65  10 2.65  19 2.67
                            61 2.70  22 2.71   3 2.76  39 3.03
  44  0.539  0.617  0.318-  14 2.56  15 2.58  32 2.61  26 2.62  27 2.62  78 2.64  75 2.69  18 2.77
                            61 2.82  52 2.83  29 2.85  30 3.02
  45  0.273  0.099  0.052-  38 2.38  53 2.39  70 2.41  57 2.59  63 2.73  23 2.74  40 3.11  20 3.25

  46  0.533  0.620  0.050-  51 2.36  73 2.40  54 2.41  71 2.45  72 2.60  56 2.76  53 2.78  76 2.82
                            63 2.89
  47  0.277  0.422  0.059-  74 2.25  72 2.41  21 2.48  36 2.52  56 2.59  57 2.67
  48  0.621  0.927  0.141-  49 2.29  34 2.37  80 2.44  54 2.48  63 2.51  20 2.53  38 2.62  59 2.63
                            50 2.71
  49  0.703  0.775  0.220-  48 2.29  50 2.43  54 2.51   1 2.53  32 2.58  78 2.59  29 2.61  61 2.64
                            28 2.69  42 2.75  80 2.80
  50  0.841  0.670  0.130-  71 2.37  34 2.40  49 2.43  54 2.44  42 2.47  28 2.57  69 2.58  36 2.59
                            48 2.71  21 2.79  32 3.30
  51  0.611  0.461  0.131-  46 2.36  76 2.42  37 2.49  26 2.53  56 2.54  74 2.57  69 2.58  32 2.59
                            67 2.64  73 2.79  54 2.82  41 2.84
  52  0.300  0.881  0.318-  55 2.38  79 2.38  43 2.53  78 2.53   8 2.54  61 2.61   6 2.61  14 2.62
                            22 2.77  44 2.83   2 3.10  30 3.16
[...]
     13.705920  8.365654  1.415812            0           0           0
      5.336769  8.276025  1.238917            0           0           0
      4.135541  6.224697  1.462456            0           0           0
      8.342678  2.247154  2.954262            0           0           0
      9.566421  9.217632  2.985507            0           0           0
      2.415886  3.652211  7.018275            0           0           0
     12.999641  3.457592  0.960354            0           0           0
     10.861906  2.018596  2.948772            0           0           0
     13.562259  5.118621  4.864532            0           0           0
      3.953630  1.046978  7.032610            0           0           0
      9.513639  5.996409  7.006121            0           0           0
      3.618050  0.957810  1.137373            0           0           0
      9.467772  6.029359  1.097646            0           0           0
      5.475081  4.096778  1.292149            0           0           0
     12.171883  9.010064  3.097482            0           0           0
     12.232007  7.529814  4.849671            0           0           0
     13.201906  6.516389  2.860049            0           0           0
      9.439361  4.481434  2.881981            0           0           0
      8.318242  8.566483  6.990509            0           0           0
      8.215871  8.514745  1.046134            0           0           0
     10.797304  6.956992  2.877208            0           0           0
      2.747277  0.169566  5.016340            0           0           0
      8.012111  3.686386  0.936353            0           0           0
      5.151173  2.018111  2.939760            0           0           0
      5.820638  6.716796  3.333529            0           0           0
      8.089607  0.552716  4.820863            0           0           0
      9.508349  1.223197  6.827854            0           0           0
[...]
      9.651011  2.870814  4.965495            0           0           0
      6.618604  2.700720  4.854143            0           0           0
     12.004382  4.229734  2.914633            0           0           0
      2.299472  1.817449  2.960623            0           0           0
     11.897406  5.747693  1.036536            0           0           0
      6.866926  6.065809  1.237958            0           0           0
      8.327728  7.035784  2.956202            0           0           0
      6.883022  4.269237  3.037923            0           0           0
     10.934208  3.710046  6.991553            0           0           0
     10.591534  3.442881  1.027706            0           0           0
     10.977009  0.658663  4.914776            0           0           0
      9.650178  7.718098  5.007647            0           0           0
      7.130498  7.755423  5.095638            0           0           0
      5.257279  0.254918  4.921263            0           0           0
      4.601547  5.752565 10.127355    -0.194222   -0.392681    0.898932

   2 f  =   27.848389 THz   174.976587 2PiTHz  928.922233 cm-1   115.171720 meV
             X         Y         Z           dx          dy          dz
     13.669172  8.467658  6.707402            0           0           0
      5.245835  8.447460  6.601976            0           0           0
      5.125076  3.538064  6.915023            0           0           0
     15.130958  9.327690  8.924325            0           0           0
      3.827883  4.448491  9.155354            0           0           0
      6.695434  9.224340  8.930922            0           0           0
     12.288392  4.341856  9.146875            0           0           0
      9.510479  9.255803  9.119526            0           0           0
     10.906478  1.982211  8.953292            0           0           0
      2.558383  2.007023  9.075503            0           0           0
     12.338073  9.236434  9.058134            0           0           0
     13.686506  6.874528  9.067873            0           0           0
      5.311223  1.907820  9.133274            0           0           0
      8.113248  6.858767  8.963102            0           0           0
      9.514271  4.422133  9.056065            0           0           0
      5.262881  6.912763  9.061602            0           0           0
      8.137885  1.974435  9.010664            0           0           0
      8.107678  3.618556  6.814569            0           0           0
      6.618687  1.140366  6.849672            0           0           0
      6.859966  1.056188  1.304516            0           0           0
      3.434902  4.140216  2.704604            0           0           0
      1.257642  1.205509  6.827632            0           0           0
      0.890964  1.085470  0.914220            0           0           0
      6.768544  9.209257  3.102482            0           0           0
      6.711732  4.372941  9.052560            0           0           0
      8.146595  5.433584  4.843710            0           0           0
     10.875249  6.826480  9.084391            0           0           0
     14.903167  7.353642  4.601981            0           0           0
     12.360154  5.969022  6.938963            0           0           0
      6.496475  5.992218  6.800411            0           0           0
      3.614299  2.583061  4.950121            0           0           0
     10.863846  5.339863  4.868867            0           0           0
      3.866698  6.063019  6.931998            0           0           0
     13.705920  8.365654  1.415812            0           0           0
      5.336769  8.276025  1.238917            0           0           0
      4.135541  6.224697  1.462456            0           0           0
      8.342678  2.247154  2.954262            0           0           0
      9.566421  9.217632  2.985507            0           0           0
      2.415886  3.652211  7.018275            0           0           0
     12.999641  3.457592  0.960354            0           0           0
     10.861906  2.018596  2.948772            0           0           0
     13.562259  5.118621  4.864532            0           0           0
      3.953630  1.046978  7.032610            0           0           0
      9.513639  5.996409  7.006121            0           0           0
      3.618050  0.957810  1.137373            0           0           0
      9.467772  6.029359  1.097646            0           0           0
      5.475081  4.096778  1.292149            0           0           0
     12.171883  9.010064  3.097482            0           0           0
     12.232007  7.529814  4.849671            0           0           0
     13.201906  6.516389  2.860049            0           0           0
      9.439361  4.481434  2.881981            0           0           0
      8.318242  8.566483  6.990509            0           0           0
      8.215871  8.514745  1.046134            0           0           0
     10.797304  6.956992  2.877208            0           0           0
      2.747277  0.169566  5.016340            0           0           0
      8.012111  3.686386  0.936353            0           0           0
      5.151173  2.018111  2.939760            0           0           0
      5.820638  6.716796  3.333529            0           0           0
      8.089607  0.552716  4.820863            0           0           0
      9.508349  1.223197  6.827854            0           0           0
[...]
      9.651011  2.870814  4.965495            0           0           0
      6.618604  2.700720  4.854143            0           0           0
     12.004382  4.229734  2.914633            0           0           0
      2.299472  1.817449  2.960623            0           0           0
     11.897406  5.747693  1.036536            0           0           0
      6.866926  6.065809  1.237958            0           0           0
      8.327728  7.035784  2.956202            0           0           0
      6.883022  4.269237  3.037923            0           0           0
     10.934208  3.710046  6.991553            0           0           0
     10.591534  3.442881  1.027706            0           0           0
     10.977009  0.658663  4.914776            0           0           0
      9.650178  7.718098  5.007647            0           0           0
      7.130498  7.755423  5.095638            0           0           0
      5.257279  0.254918  4.921263            0           0           0
      4.601547  5.752565 10.127355     0.432405    0.788279    0.437769

   3 f/i=    2.692691 THz    16.918677 2PiTHz   89.818505 cm-1    11.136079 meV
             X         Y         Z           dx          dy          dz
     13.669172  8.467658  6.707402            0           0           0
      5.245835  8.447460  6.601976            0           0           0
      5.125076  3.538064  6.915023            0           0           0
     15.130958  9.327690  8.924325            0           0           0
      3.827883  4.448491  9.155354            0           0           0
      6.695434  9.224340  8.930922            0           0           0
     12.288392  4.341856  9.146875            0           0           0
      9.510479  9.255803  9.119526            0           0           0
     10.906478  1.982211  8.953292            0           0           0
      2.558383  2.007023  9.075503            0           0           0
     12.338073  9.236434  9.058134            0           0           0
     13.686506  6.874528  9.067873            0           0           0
      5.311223  1.907820  9.133274            0           0           0
      8.113248  6.858767  8.963102            0           0           0
      9.514271  4.422133  9.056065            0           0           0
      5.262881  6.912763  9.061602            0           0           0
      8.137885  1.974435  9.010664            0           0           0
      8.107678  3.618556  6.814569            0           0           0
      6.618687  1.140366  6.849672            0           0           0
      6.859966  1.056188  1.304516            0           0           0
      3.434902  4.140216  2.704604            0           0           0
      1.257642  1.205509  6.827632            0           0           0
      0.890964  1.085470  0.914220            0           0           0
      6.768544  9.209257  3.102482            0           0           0
      6.711732  4.372941  9.052560            0           0           0
      8.146595  5.433584  4.843710            0           0           0
     10.875249  6.826480  9.084391            0           0           0
     14.903167  7.353642  4.601981            0           0           0
     12.360154  5.969022  6.938963            0           0           0
      6.496475  5.992218  6.800411            0           0           0
      3.614299  2.583061  4.950121            0           0           0
     10.863846  5.339863  4.868867            0           0           0
      3.866698  6.063019  6.931998            0           0           0
     13.705920  8.365654  1.415812            0           0           0
      5.336769  8.276025  1.238917            0           0           0
      4.135541  6.224697  1.462456            0           0           0
      8.342678  2.247154  2.954262            0           0           0
      9.566421  9.217632  2.985507            0           0           0
      2.415886  3.652211  7.018275            0           0           0
     12.999641  3.457592  0.960354            0           0           0
     10.861906  2.018596  2.948772            0           0           0
     13.562259  5.118621  4.864532            0           0           0
      3.953630  1.046978  7.032610            0           0           0
      9.513639  5.996409  7.006121            0           0           0
      3.618050  0.957810  1.137373            0           0           0
      9.467772  6.029359  1.097646            0           0           0
      5.475081  4.096778  1.292149            0           0           0
     12.171883  9.010064  3.097482            0           0           0
     12.232007  7.529814  4.849671            0           0           0
     13.201906  6.516389  2.860049            0           0           0
      9.439361  4.481434  2.881981            0           0           0
      8.318242  8.566483  6.990509            0           0           0
      8.215871  8.514745  1.046134            0           0           0
     10.797304  6.956992  2.877208            0           0           0
      2.747277  0.169566  5.016340            0           0           0
      8.012111  3.686386  0.936353            0           0           0
      5.151173  2.018111  2.939760            0           0           0
      5.820638  6.716796  3.333529            0           0           0
      8.089607  0.552716  4.820863            0           0           0
      9.508349  1.223197  6.827854            0           0           0
[...]
      9.651011  2.870814  4.965495            0           0           0
      6.618604  2.700720  4.854143            0           0           0
     12.004382  4.229734  2.914633            0           0           0
      2.299472  1.817449  2.960623            0           0           0
     11.897406  5.747693  1.036536            0           0           0
      6.866926  6.065809  1.237958            0           0           0
      8.327728  7.035784  2.956202            0           0           0
      6.883022  4.269237  3.037923            0           0           0
     10.934208  3.710046  6.991553            0           0           0
     10.591534  3.442881  1.027706            0           0           0
     10.977009  0.658663  4.914776            0           0           0
      9.650178  7.718098  5.007647            0           0           0
      7.130498  7.755423  5.095638            0           0           0
      5.257279  0.254918  4.921263            0           0           0
      4.601547  5.752565 10.127355     0.880513   -0.473727   -0.016696

 Finite differences POTIM=  1.500000000000000E-002
  LATTYP: Found a hexagonal cell.
 ALAT       =    11.2227001190
 C/A-ratio  =     1.9603125600

  Lattice vectors:

 A1 = (   5.6113500595,  -9.7191434021,   0.0000000000)
 A2 = ( -11.2227001190,   0.0000000000,   0.0000000000)
 A3 = (   0.0000000000,   0.0000000000, -22.0000000000)

Analysis of symmetry for initial positions (statically):
 Subroutine PRICEL returns:
 Original cell was already a primitive cell.

[...]

The static configuration has the point symmetry C_1 .

Analysis of symmetry for dynamics (positions and initial velocities):
 Subroutine PRICEL returns:
 Original cell was already a primitive cell.

[...]

The dynamic configuration has the point symmetry C_1 .

Analysis of constrained symmetry for selective dynamics:
 Subroutine PRICEL returns:
 Original cell was already a primitive cell.

[...]

The constrained configuration has the point symmetry C_1 .

Analysis of structural, dynamic, and magnetic symmetry:
 Subroutine PRICEL returns:
 Original cell was already a primitive cell.

 Routine SETGRP: Setting up the symmetry group for a
 hexagonal supercell.

 Subroutine GETGRP returns: Found  1 space group operations
 (whereof  1 operations were pure point group operations)
 out of a pool of 24 trial point group operations.

The magnetic configuration has the point symmetry C_1 .

 Subroutine INISYM returns: Found  1 space group operations
 (whereof  1 operations are pure point group operations),
 and found     1 'primitive' translations

 KPOINTS: mesh auto

Automatic generation of k-mesh.
Space group operators:
 irot       det(A)        alpha          n_x          n_y          n_z        tau_x        tau_y        tau_z
    1     1.000000     0.000000     1.000000     0.000000     0.000000     0.000000     0.000000     0.000000

 Subroutine IBZKPT returns following result:

 Found      4 irreducible k-points:

 Following reciprocal coordinates:
            Coordinates               Weight
  0.000000  0.000000  0.000000      1.000000
  0.500000  0.000000  0.000000      1.000000
  0.000000  0.500000  0.000000      1.000000
  0.500000  0.500000  0.000000      1.000000

 Following cartesian coordinates:
            Coordinates               Weight
  0.000000  0.000000  0.000000      1.000000
  0.044553 -0.025722  0.000000      1.000000
  0.000000  0.051445  0.000000      1.000000
  0.044553  0.025722  0.000000      1.000000

 TETIRR: Found     12 inequivalent tetrahedra from       24
 BZINTS: Fermi energy:  1.298076;778.000000 electrons
         Band energy:***********;  BLOECHL correction: -0.205110