 vasp.5.4.4.18Apr17-6-g9f103f2a35 (build Oct 25 2019 11:13:22) complex

 executed on             LinuxIFC date 2021.10.29  22:45:11

 INCAR:
 POTCAR:    PAW_PBE Pt 04Feb2005
 POTCAR:    PAW_PBE Fe 06Sep2000
 POTCAR:    PAW_PBE Co 02Aug2007
 POTCAR:    PAW_PBE Cu 22Jun2005
 POTCAR:    PAW_PBE Ni 02Aug2007
 POTCAR:    PAW_PBE H 15Jun2001
 POTCAR:    PAW_PBE Pt 04Feb2005
   VRHFIN =Pt: s1d9

   TITEL  = PAW_PBE Pt 04Feb2005
   POMASS =  195.080; ZVAL   =   10.000    mass and valenz
   ENMAX  =  230.283; ENMIN  =  172.712 eV

 POTCAR:    PAW_PBE Fe 06Sep2000
   VRHFIN =Fe:  d7 s1

   TITEL  = PAW_PBE Fe 06Sep2000
   POMASS =   55.847; ZVAL   =    8.000    mass and valenz
   ENMAX  =  267.882; ENMIN  =  200.911 eV

 POTCAR:    PAW_PBE Co 02Aug2007
   VRHFIN =Co: d8 s1

   TITEL  = PAW_PBE Co 02Aug2007
   POMASS =   58.933; ZVAL   =    9.000    mass and valenz
   ENMAX  =  267.968; ENMIN  =  200.976 eV

 POTCAR:    PAW_PBE Cu 22Jun2005
   VRHFIN =Cu: d10 p1

   TITEL  = PAW_PBE Cu 22Jun2005
   POMASS =   63.546; ZVAL   =   11.000    mass and valenz
   ENMAX  =  295.446; ENMIN  =  221.585 eV

 POTCAR:    PAW_PBE Ni 02Aug2007
   VRHFIN =Ni:

   TITEL  = PAW_PBE Ni 02Aug2007
   POMASS =   58.690; ZVAL   =   10.000    mass and valenz
   ENMAX  =  269.532; ENMIN  =  202.149 eV

 POTCAR:    PAW_PBE H 15Jun2001
   VRHFIN =H: ultrasoft test

   TITEL  = PAW_PBE H 15Jun2001
   POMASS =    1.000; ZVAL   =    1.000    mass and valenz
   ENMAX  =  250.000; ENMIN  =  200.000 eV

 Optimization of the real space projectors (new method)

 maximal supplied QI-value         = 14.36
 optimisation between [QCUT,QGAM] = [ 11.92, 23.98] = [ 39.79,161.09] Ry
 Optimized for a Real-space Cutoff    1.49 Angstroem

   l    n(q)    QCUT    max X(q) W(low)/X(q) W(high)/X(q)  e(spline)
   2     10    11.920    66.195    0.79E-04    0.18E-03    0.24E-06
   2     10    11.920    64.643    0.81E-04    0.19E-03    0.24E-06
   0     11    11.920    95.520    0.28E-04    0.54E-04    0.18E-06
   0     11    11.920    63.403    0.27E-04    0.52E-04    0.17E-06
   1     10    11.920    19.961    0.18E-04    0.11E-03    0.23E-06
   1     10    11.920    13.289    0.25E-04    0.87E-04    0.19E-06
 Optimization of the real space projectors (new method)

[...]

   l    n(q)    QCUT    max X(q) W(low)/X(q) W(high)/X(q)  e(spline)
   2      9    11.864    60.317    0.21E-03    0.51E-03    0.25E-06
   2      9    11.864    55.921    0.21E-03    0.51E-03    0.26E-06
   0      9    11.864    51.690    0.22E-03    0.30E-04    0.17E-06
   0      9    11.864    30.015    0.20E-03    0.28E-04    0.15E-06
   1      9    11.864    18.849    0.76E-04    0.33E-03    0.17E-06
   1      9    11.864    14.624    0.60E-04    0.28E-03    0.15E-06
 Optimization of the real space projectors (new method)

 maximal supplied QI-value         = 34.20
 optimisation between [QCUT,QGAM] = [ 11.97, 23.94] = [ 40.13,160.53] Ry
 Optimized for a Real-space Cutoff    1.18 Angstroem

   l    n(q)    QCUT    max X(q) W(low)/X(q) W(high)/X(q)  e(spline)
   0      8    11.971    19.460    0.15E-03    0.31E-03    0.25E-06
   0      8    11.971    12.209    0.13E-03    0.29E-03    0.25E-06
   1      8    11.971     4.655    0.22E-03    0.24E-03    0.21E-06
  PAW_PBE Pt 04Feb2005                  :
  PAW_PBE Fe 06Sep2000                  :
  PAW_PBE Co 02Aug2007                  :
  PAW_PBE Cu 22Jun2005                  :
  PAW_PBE Ni 02Aug2007                  :
  PAW_PBE H 15Jun2001                   :

 POSCAR: 11.26-high
  positions in direct lattice
  velocities in cartesian coordinates
 exchange correlation table for  LEXCH =        8
   RHO(1)=    0.500       N(1)  =     2000
   RHO(2)=  100.500       N(2)  =     4000

 ion  position               nearest neighbor table
   1  0.776  0.870  0.315-  56 2.59  32 2.67  15 2.74  33 2.75  65 2.77  23 2.78   8 2.78  40 2.79
                            16 2.83  41 2.87   3 2.88   2 2.93
   2  0.037  0.869  0.316-  38 2.65  79 2.66  32 2.76  26 2.76   8 2.79  34 2.81  58 2.81  10 2.81
                            41 2.83   3 2.83  20 2.84   1 2.93
   3  0.036  0.617  0.313-  50 2.60  68 2.63  32 2.69   6 2.81   9 2.81   4 2.81   2 2.83  20 2.84
                            33 2.85  34 2.86  16 2.87   1 2.88
   4  0.028  0.371  0.319-  50 2.61  36 2.68  42 2.70  11 2.72  77 2.76   9 2.77  14 2.77  33 2.80
                             3 2.81  26 2.83   6 2.88   5 2.96
   5  0.290  0.106  0.318-  61 2.55  36 2.68  12 2.69  39 2.69  58 2.70  26 2.77  65 2.77  14 2.78
                            17 2.79  23 2.80   6 2.92   4 2.96
   6  0.287  0.368  0.317-  68 2.59  71 2.62  36 2.71  23 2.75  29 2.76   9 2.80  17 2.81   3 2.81
                            34 2.86   4 2.88  22 2.90   5 2.92
   7  0.860  0.689  0.125-  74 2.52  43 2.54  45 2.59  55 2.63  60 2.65  50 2.65  56 2.66  32 2.70
                            72 2.71  25 2.83  64 3.07
   8  0.861  0.955  0.416-  15 2.76  21 2.77   1 2.78  41 2.78   2 2.79  16 2.80  13 2.83  20 2.87
                            10 2.94
   9  0.115  0.456  0.419-  81 1.68  20 2.72   4 2.77  16 2.78  11 2.79   6 2.80  29 2.81   3 2.81
                            14 2.84  17 2.90
  10  0.124  0.953  0.420-  58 2.71  14 2.76  26 2.76  12 2.78   2 2.81  18 2.83  13 2.87  20 2.90
                             8 2.94
  11  0.870  0.449  0.421-   4 2.72  77 2.72  19 2.74  13 2.76  14 2.79   9 2.79  33 2.82  31 2.82
                            16 2.83
  12  0.375  0.947  0.418-   5 2.69  65 2.70  58 2.70  18 2.72  15 2.74  31 2.75  10 2.78  17 2.79
                            14 2.86
  13  0.866  0.205  0.416-  77 2.72  11 2.76  21 2.77  26 2.77  41 2.77  19 2.78  14 2.83   8 2.83
                            10 2.87
  14  0.120  0.201  0.420-  10 2.76   4 2.77   5 2.78  11 2.79  26 2.81  17 2.81  13 2.83   9 2.84
                            12 2.86
  15  0.619  0.946  0.418-   1 2.74  12 2.74  16 2.75  65 2.75  31 2.76   8 2.76  17 2.79  23 2.81
                            21 2.92
  16  0.867  0.703  0.420-  15 2.75  20 2.76  33 2.77   9 2.78  31 2.79   8 2.80   1 2.83  11 2.83
                             3 2.87
  17  0.372  0.197  0.420-  23 2.75  12 2.79   5 2.79  15 2.79   6 2.81  14 2.81  21 2.82  29 2.83
                             9 2.90
  18  0.378  0.703  0.417-  51 2.60  58 2.67  31 2.69  12 2.72  34 2.74  19 2.75  10 2.83  29 2.89
                            20 2.98
  19  0.622  0.456  0.419-  51 2.65  77 2.66  31 2.72  22 2.73  11 2.74  18 2.75  13 2.78  21 2.82
                            29 2.88
  20  0.115  0.699  0.421-  81 1.66   9 2.72  16 2.76  29 2.81  34 2.82   3 2.84   2 2.84   8 2.87
                            10 2.90  18 2.98
  21  0.619  0.206  0.417-  22 2.75  13 2.77   8 2.77  23 2.77  29 2.78  41 2.80  17 2.82  19 2.82
                            15 2.92
  22  0.541  0.377  0.317-  70 2.59  30 2.64  71 2.64  77 2.68  51 2.70  19 2.73  21 2.75  34 2.79
                            41 2.80  29 2.80   6 2.90  23 2.92
  23  0.532  0.121  0.317-  71 2.65  40 2.70  39 2.75  17 2.75   6 2.75  21 2.77   1 2.78   5 2.80
                            15 2.81  41 2.84  22 2.92  65 2.94
  24  0.544  0.120  0.050-  46 2.53  63 2.54  55 2.60  43 2.70  66 2.73  54 2.84  62 2.84  52 2.87
                            67 2.92
  25  0.114  0.439  0.123-  54 2.49  48 2.53  45 2.58  36 2.70  73 2.70  63 2.75  50 2.75  68 2.78
                             7 2.83  72 2.85  64 2.94  76 3.11
  26  0.039  0.114  0.316-  79 2.55  61 2.63  42 2.67   2 2.76  10 2.76  13 2.77   5 2.77  58 2.79
                            14 2.81  41 2.82   4 2.83  77 2.96
  27  0.024  0.132  0.037-  48 2.54  49 2.59  73 2.61  28 2.65  78 2.71  59 2.73  66 2.74  52 2.92
                            44 3.11
  28  0.115  0.958  0.130-  59 2.54  79 2.58  44 2.59  38 2.63  27 2.65  61 2.66  69 2.68  73 2.69
                            47 2.79  49 2.84  35 2.87  64 2.93
  29  0.368  0.451  0.419-   6 2.76  34 2.77  21 2.78  22 2.80   9 2.81  20 2.81  17 2.83  19 2.88
                            18 2.89
  30  0.456  0.540  0.221-  76 2.51  57 2.56  22 2.64  34 2.68  51 2.72  37 2.72  35 2.73  80 2.74
                            71 2.76  38 2.79  70 2.79  68 2.85
  31  0.619  0.700  0.421-  51 2.68  18 2.69  65 2.72  19 2.72  33 2.75  12 2.75  15 2.76  16 2.79
                            11 2.82
  32  0.941  0.791  0.218-  64 2.57  69 2.60   1 2.67   3 2.69   7 2.70   2 2.76  56 2.78  40 2.87
                            50 2.87  79 2.91  68 3.02  38 3.04
  33  0.780  0.622  0.318-  56 2.60  37 2.62  50 2.62  65 2.69  77 2.73  31 2.75  51 2.75   1 2.75
                            16 2.77   4 2.80  11 2.82   3 2.85
  34  0.289  0.621  0.318-  38 2.67  30 2.68  68 2.74  18 2.74  58 2.75  29 2.77  51 2.77  22 2.79
                             2 2.81  20 2.82   6 2.86   3 2.86
  35  0.377  0.709  0.122-  53 2.48  75 2.55  59 2.60  47 2.62  60 2.68  30 2.73  80 2.74  38 2.75
                            57 2.85  76 2.87  28 2.87  64 2.87
  36  0.198  0.277  0.223-  73 2.54  63 2.54   4 2.68   5 2.68  25 2.70   6 2.71  61 2.76  42 2.81
                            68 2.83  50 2.84  39 2.91  71 2.97
  37  0.694  0.548  0.222-  72 2.55  60 2.56  57 2.60  33 2.62  56 2.63  80 2.66  51 2.69  77 2.70
                            30 2.72  50 2.75  70 2.82  42 2.88
  38  0.211  0.792  0.224-  64 2.58  58 2.59  61 2.62  28 2.63   2 2.65  34 2.67  80 2.70  35 2.75
                            30 2.79  79 2.85  68 3.02  32 3.04
  39  0.456  0.016  0.221-  47 2.49  55 2.60  80 2.62  63 2.64  65 2.65  61 2.65   5 2.69  56 2.69
                            23 2.75  40 2.78  36 2.91  71 3.11
  40  0.686  0.047  0.215-  46 2.52  69 2.55  55 2.59  23 2.70  71 2.71  41 2.74  39 2.78   1 2.79
                            70 2.86  32 2.87  56 2.93  79 2.99
  41  0.785  0.121  0.313-  70 2.55  79 2.58  40 2.74  13 2.77   8 2.78  21 2.80  22 2.80  26 2.82
                             2 2.83  23 2.84  77 2.87   1 2.87
  42  0.943  0.286  0.222-  49 2.49  72 2.55  70 2.65  26 2.67  79 2.67  73 2.68  77 2.70   4 2.70
                            50 2.78  36 2.81  37 2.88  61 3.01
  43  0.787  0.882  0.049-  55 2.41  69 2.50   7 2.54  44 2.64  24 2.70  66 2.72  45 2.88  67 2.95

  44  0.036  0.851  0.047-  45 2.41  69 2.53  64 2.55  28 2.59  43 2.64  75 2.68  59 3.07  27 3.11

  45  0.048  0.630  0.044-  44 2.41  75 2.46  64 2.49  25 2.58   7 2.59  54 2.82  43 2.88
  46  0.621  0.226  0.132-  70 2.50  62 2.51  57 2.51  40 2.52  24 2.53  66 2.58  76 2.58  71 2.59
                            49 2.65  69 2.81  63 2.90
  47  0.371  0.944  0.131-  59 2.38  52 2.40  39 2.49  67 2.54  61 2.56  35 2.62  80 2.62  60 2.68
                            73 2.76  55 2.77  28 2.79
  48  0.994  0.372  0.045-  72 2.33  78 2.48  74 2.51  25 2.53  27 2.54  73 2.62
  49  0.863  0.212  0.131-  78 2.43  42 2.49  66 2.56  70 2.57  27 2.59  79 2.61  72 2.63  69 2.64
                            46 2.65  57 2.68  28 2.84  73 2.86
  50  0.946  0.532  0.224-   3 2.60   4 2.61  33 2.62  72 2.64   7 2.65  37 2.75  25 2.75  56 2.78
                            42 2.78  36 2.84  32 2.87  68 2.92
  51  0.537  0.619  0.323-  18 2.60  80 2.64  19 2.65  65 2.67  31 2.68  37 2.69  77 2.69  22 2.70
[...]

 FORCES acting on ions
    electron-ion (+dipol)            ewald-force                    non-local-force                 convergence-correction
   -.728E+02 0.114E-01 -.130E+04   0.719E+02 -.210E+00 0.130E+04   0.911E+00 0.236E+00 0.142E+01   -.106E-01 -.257E-01 -.157E+00
   0.458E+02 0.324E+02 -.133E+04   -.453E+02 -.325E+02 0.133E+04   -.552E+00 0.103E+00 0.134E+01   0.108E+00 0.377E-01 -.156E+00
   0.972E+01 -.227E+02 -.130E+04   -.978E+01 0.219E+02 0.130E+04   0.653E-01 0.715E+00 0.230E+01   0.796E-02 0.302E-01 -.962E-01
   -.438E+02 0.199E+00 -.135E+04   0.434E+02 0.640E+00 0.135E+04   0.386E+00 -.795E+00 0.142E+01   0.798E-02 -.712E-01 -.879E-01
   0.875E-01 -.823E+02 -.137E+04   -.563E+00 0.812E+02 0.137E+04   0.604E+00 0.119E+01 0.175E+01   -.125E+00 -.797E-01 -.169E+00
   0.535E+02 -.608E+00 -.141E+04   -.532E+02 0.595E+00 0.141E+04   -.223E+00 0.169E-01 0.159E+01   -.486E-01 0.503E-02 -.849E-01
   -.122E+03 -.384E+01 0.153E+04   0.121E+03 0.446E+01 -.154E+04   0.989E+00 -.723E+00 0.672E+00   -.995E-01 0.671E-01 -.988E-01
   -.453E+01 0.246E+01 -.265E+04   0.471E+01 -.236E+01 0.265E+04   -.248E+00 -.738E-01 0.166E+01   0.756E-01 -.231E-01 -.100E-01
   -.869E+01 0.151E+02 -.265E+04   0.844E+01 -.146E+02 0.265E+04   0.288E+00 -.498E+00 0.242E-01   -.233E-01 -.132E-01 0.101E-01
   0.401E+02 -.168E+02 -.268E+04   -.396E+02 0.163E+02 0.267E+04   -.478E+00 0.496E+00 0.233E+01   0.498E-01 0.131E-02 -.610E-01
   -.388E+02 0.284E+00 -.270E+04   0.385E+02 -.101E+01 0.270E+04   0.306E+00 0.725E+00 0.189E+01   -.262E-02 0.315E-02 0.701E-02
   0.133E+02 -.453E+02 -.272E+04   -.135E+02 0.450E+02 0.271E+04   0.321E+00 0.275E+00 0.213E+01   -.871E-01 -.387E-01 -.622E-01
   -.611E+01 0.440E+02 -.266E+04   0.566E+01 -.437E+02 0.266E+04   0.373E+00 -.211E+00 0.167E+01   0.714E-01 -.316E-01 0.195E-02
   -.473E+00 0.344E+01 -.268E+04   0.648E+00 -.303E+01 0.268E+04   -.152E+00 -.361E+00 0.163E+01   -.176E-01 -.420E-01 -.328E-01
   -.448E+02 -.359E+02 -.269E+04   0.447E+02 0.352E+02 0.268E+04   0.165E+00 0.709E+00 0.156E+01   -.495E-01 -.450E-01 -.540E-02
   -.439E+02 0.542E+01 -.265E+04   0.428E+02 -.460E+01 0.265E+04   0.120E+01 -.839E+00 0.176E+01   -.171E-01 -.149E-01 -.534E-02
   0.160E+01 -.306E+02 -.269E+04   -.117E+01 0.298E+02 0.268E+04   -.373E+00 0.801E+00 0.180E+01   -.851E-01 -.595E-02 0.473E-02
   0.585E+02 0.171E+02 -.269E+04   -.574E+02 -.167E+02 0.268E+04   -.112E+01 -.437E+00 0.211E+01   0.296E-01 0.407E-01 -.640E-01
   0.316E+02 0.257E+02 -.272E+04   -.308E+02 -.249E+02 0.272E+04   -.746E+00 -.816E+00 0.206E+01   0.419E-02 0.821E-01 0.143E-01
   -.143E+01 -.175E+02 -.264E+04   0.952E+00 0.171E+02 0.264E+04   0.427E+00 0.365E+00 -.230E+00   0.468E-01 0.147E-01 -.196E-01
   0.652E+01 0.227E+02 -.268E+04   -.642E+01 -.223E+02 0.267E+04   -.152E+00 -.388E+00 0.183E+01   0.234E-01 0.180E-02 0.150E-01
   0.485E+02 0.217E+01 -.142E+04   -.472E+02 -.146E+01 0.142E+04   -.135E+01 -.817E+00 0.142E+01   0.140E-01 0.801E-01 -.110E+00
   -.298E+01 0.129E+02 -.135E+04   0.274E+01 -.126E+02 0.135E+04   0.240E+00 -.279E+00 0.111E+01   -.555E-01 -.397E-01 -.144E+00
   0.820E+02 0.607E+02 0.270E+04   -.818E+02 -.606E+02 -.270E+04   -.314E+00 0.802E-01 -.261E+01   0.718E-01 -.148E+00 0.110E-01
   0.523E+02 -.339E+02 0.159E+04   -.527E+02 0.337E+02 -.160E+04   0.635E+00 0.152E+00 0.143E+01   -.139E+00 0.373E-01 -.709E-03
   -.135E+02 -.161E+02 -.136E+04   0.136E+02 0.158E+02 0.135E+04   -.797E-01 0.403E+00 0.179E+01   0.757E-01 -.104E+00 -.181E+00
   -.789E+02 0.858E+02 0.283E+04   0.796E+02 -.844E+02 -.283E+04   -.629E+00 -.136E+01 -.293E+01   -.552E-02 -.662E-01 0.410E-01
   -.148E+02 0.279E+02 0.149E+04   0.144E+02 -.277E+02 -.149E+04   0.311E+00 -.104E+00 -.327E+00   0.486E-01 -.131E-02 -.149E-01
   0.261E+02 0.118E+01 -.268E+04   -.255E+02 -.163E+01 0.268E+04   -.663E+00 0.386E+00 0.230E+01   0.139E-01 0.630E-01 0.102E-01
   0.129E+02 -.795E+02 0.583E+01   -.125E+02 0.786E+02 -.635E+01   -.461E+00 0.718E+00 0.598E+00   0.669E-01 0.115E+00 -.124E+00
   -.267E+02 0.969E+01 -.273E+04   0.263E+02 -.990E+01 0.273E+04   0.529E+00 0.236E+00 0.189E+01   -.653E-01 0.463E-02 -.311E-01
   0.219E+02 0.341E+02 0.958E+02   -.226E+02 -.348E+02 -.959E+02   0.753E+00 0.569E+00 0.284E+00   0.238E-01 0.675E-01 -.146E+00
   -.827E+02 0.249E+02 -.135E+04   0.820E+02 -.247E+02 0.135E+04   0.790E+00 -.240E+00 0.225E+01   -.590E-01 0.488E-01 -.107E+00
   0.502E+02 -.145E+02 -.138E+04   -.493E+02 0.151E+02 0.138E+04   -.978E+00 -.638E+00 0.131E+01   0.685E-01 0.959E-01 -.110E+00
   0.414E+02 -.782E+02 0.159E+04   -.402E+02 0.781E+02 -.159E+04   -.140E+01 -.253E-01 0.132E+01   0.124E+00 0.643E-01 -.122E+00
   0.399E+02 -.314E+02 0.701E+00   -.402E+02 0.316E+02 -.118E+01   0.461E+00 0.238E-01 0.634E+00   -.865E-01 -.131E+00 -.907E-01
   -.502E+02 -.525E+01 0.606E+01   0.507E+02 0.637E+01 -.651E+01   -.433E+00 -.129E+01 0.659E+00   -.356E-01 0.109E+00 -.200E+00
   0.528E+02 -.178E+01 0.258E+02   -.521E+02 0.283E+01 -.254E+02   -.905E+00 -.120E+01 -.228E+00   0.860E-01 0.129E+00 -.117E+00
   -.302E+02 -.602E+02 0.879E+02   0.294E+02 0.587E+02 -.892E+02   0.105E+01 0.166E+01 0.156E+01   -.112E+00 -.921E-01 -.142E+00
   0.157E+02 0.773E+02 0.140E+03   -.160E+02 -.764E+02 -.142E+03   0.363E+00 -.843E+00 0.156E+01   0.299E-01 -.459E-01 -.180E+00
   0.179E+02 0.715E+02 -.134E+04   -.176E+02 -.711E+02 0.134E+04   -.326E+00 -.293E+00 0.153E+01   0.943E-01 -.604E-01 -.174E+00
   -.108E+03 0.186E+01 0.259E+02   0.107E+03 -.188E+01 -.270E+02   0.954E+00 0.103E+00 0.129E+01   0.125E-01 -.127E+00 -.154E+00
   -.869E+00 0.747E+02 0.220E+04   0.201E+01 -.742E+02 -.220E+04   -.119E+01 -.472E+00 -.366E+01   0.239E-02 -.221E-01 0.799E-02
   -.189E+02 -.161E+02 0.222E+04   0.172E+02 0.143E+02 -.222E+04   0.174E+01 0.196E+01 -.305E+01   0.234E-01 0.130E-01 0.483E-02
   0.122E+03 0.272E+02 0.225E+04   -.120E+03 -.261E+02 -.224E+04   -.202E+01 -.134E+01 -.397E+01   -.338E-01 0.131E+00 -.151E-01
   0.424E+02 0.106E+03 0.113E+04   -.419E+02 -.106E+03 -.112E+04   -.592E+00 -.232E+00 -.637E+00   0.706E-01 -.414E-01 -.490E-01
   0.946E+01 -.401E+02 0.114E+04   -.924E+01 0.400E+02 -.114E+04   -.214E+00 0.158E+00 -.526E+00   -.451E-01 -.835E-01 -.201E-01
   -.212E+03 0.614E+01 0.225E+04   0.209E+03 -.638E+01 -.224E+04   0.271E+01 0.194E+00 -.346E+01   -.773E-01 0.447E-02 0.808E-02
   -.620E+02 0.688E+02 0.113E+04   0.618E+02 -.677E+02 -.113E+04   0.350E+00 -.108E+01 -.636E+00   0.210E-01 -.418E-01 -.290E-01
   -.573E+02 -.108E+02 0.329E+02   0.567E+02 0.107E+02 -.322E+02   0.633E+00 0.474E-01 -.669E+00   -.493E-01 0.166E-01 -.110E+00
   0.247E+02 0.776E+01 -.113E+04   -.247E+02 -.803E+01 0.113E+04   0.749E-02 0.110E+00 -.189E+00   -.256E-01 0.814E-01 -.884E-01
   -.288E+02 -.104E+03 0.220E+04   0.282E+02 0.102E+03 -.220E+04   0.704E+00 0.259E+01 -.313E+01   -.755E-01 -.131E+00 0.172E-01
   0.105E+03 -.140E+03 0.252E+04   -.104E+03 0.139E+03 -.252E+04   -.128E+01 0.106E+01 -.309E+01   0.238E-01 0.945E-01 0.266E-01
   0.201E+03 0.807E+02 0.252E+04   -.200E+03 -.795E+02 -.252E+04   -.115E+01 -.137E+01 -.302E+01   0.187E-01 0.411E-01 -.153E-01
   -.503E+02 -.582E+02 0.131E+04   0.501E+02 0.577E+02 -.131E+04   0.236E+00 0.620E+00 -.547E+00   -.452E-01 -.995E-01 -.614E-01
   -.100E+03 -.103E+01 0.404E+02   0.100E+03 0.799E+00 -.404E+02   0.253E+00 0.262E+00 0.121E+00   -.851E-01 -.297E-03 -.184E+00
   -.180E+01 -.465E+02 0.122E+04   0.193E+01 0.457E+02 -.122E+04   -.241E+00 0.771E+00 -.426E+00   0.583E-01 0.107E+00 -.127E+00
   0.536E+02 0.475E+01 -.125E+04   -.534E+02 -.481E+01 0.125E+04   -.273E+00 0.379E-01 0.380E+00   0.989E-02 0.263E-01 -.166E+00
   0.710E+02 0.479E+02 0.255E+04   -.703E+02 -.460E+02 -.254E+04   -.711E+00 -.188E+01 -.405E+01   0.189E-02 -.694E-01 0.384E-01
   -.593E+01 -.354E+02 0.127E+04   0.618E+01 0.357E+02 -.127E+04   -.226E+00 -.360E+00 -.416E+00   -.635E-01 0.129E-02 -.112E+00
[...]
   0.124E+03 -.519E+02 0.254E+02   -.124E+03 0.511E+02 -.247E+02   -.760E-01 0.790E+00 -.628E+00   0.233E-01 0.686E-01 -.102E+00
   0.391E+02 0.114E+03 0.157E+04   -.390E+02 -.113E+03 -.157E+04   -.278E+00 -.688E+00 -.131E+01   0.565E-01 -.115E-02 -.771E-01
   -.150E+02 0.405E+02 -.194E+02   0.155E+02 -.408E+02 0.196E+02   -.568E+00 0.395E+00 -.110E+00   0.538E-01 -.389E-01 -.213E+00
   0.527E+02 0.722E+02 -.344E+02   -.522E+02 -.717E+02 0.346E+02   -.546E+00 -.621E+00 -.710E-01   0.261E-01 -.288E-01 -.147E+00
   -.150E+03 -.654E+01 0.134E+04   0.149E+03 0.641E+01 -.134E+04   0.768E+00 0.134E+00 -.904E+00   -.769E-01 0.471E-01 -.964E-01
   -.219E+02 -.115E+02 0.146E+04   0.223E+02 0.115E+02 -.146E+04   -.481E+00 0.265E+00 -.772E+00   -.770E-01 -.119E+00 0.127E-01
   -.204E+03 -.116E+03 0.285E+04   0.204E+03 0.114E+03 -.285E+04   0.536E+00 0.133E+01 -.257E+01   -.155E+00 0.633E-01 0.555E-01
   -.195E+02 -.127E+03 0.282E+04   0.174E+02 0.126E+03 -.282E+04   0.199E+01 0.222E+00 -.167E+01   0.128E+00 0.229E+00 -.219E-01
   0.629E+02 -.397E+02 0.140E+04   -.622E+02 0.393E+02 -.140E+04   -.848E+00 0.294E+00 -.580E+00   0.156E+00 0.101E+00 0.194E-01
   -.527E+02 0.173E+02 -.140E+04   0.524E+02 -.170E+02 0.140E+04   0.351E+00 -.330E+00 -.294E-01   0.222E-01 0.188E-01 -.116E+00
   -.597E+02 0.501E+02 0.281E+04   0.601E+02 -.496E+02 -.281E+04   -.319E+00 -.623E+00 -.127E+01   -.233E-01 0.909E-01 0.113E-01
   -.133E+02 0.613E+02 0.177E+02   0.135E+02 -.608E+02 -.173E+02   -.391E+00 -.460E+00 -.290E+00   0.114E+00 -.266E-01 -.145E+00
   0.403E+02 0.657E+01 0.839E+01   -.400E+02 -.638E+01 -.809E+01   -.336E+00 -.312E+00 -.300E+00   -.273E-01 0.443E-01 -.163E+00
   -.990E+00 0.406E+00 -.318E+03   0.102E+01 -.514E+00 0.319E+03   0.391E-02 0.756E-01 -.175E+01   -.102E-02 -.125E-02 0.445E-02
   -.377E+00 0.137E+00 0.111E+02   0.479E-12 0.393E-12 0.124E-10   0.331E+00 -.264E+00 -.583E+01   0.273E-01 0.143E+00 -.523E+01

 POSITION                                       TOTAL-FORCE (eV/Angst)
     13.58725      8.46358      6.92308        -0.000340     -0.005706      0.005552
      5.27598      8.43903      6.93763         0.014672      0.001533      0.014587
      3.87114      5.98381      6.89904         0.001111      0.000069      0.004105
      2.40465      3.61315      7.01470         0.003206     -0.011882      0.010155
      3.85030      1.03422      7.00738         0.010863      0.014993     -0.007069
      5.28109      3.57539      6.98760        -0.013234      0.010447     -0.001849
     13.51950      6.69208      2.75694        -0.020080     -0.027972      0.008641
     15.08586      9.27444      9.16575         0.003447     -0.008145     -0.008837
      3.82481      4.39013      9.28659         0.003939      0.017254      0.000370
      6.71609      9.21586      9.17369        -0.006412     -0.013842      0.002527
     12.25333      4.35946      9.25442         0.005934      0.003223      0.010844
      9.47750      9.19424      9.20318         0.011198     -0.007570      0.010636
     10.86645      1.98235      9.13884        -0.013850      0.000794     -0.001134
      2.47070      1.96678      9.24278        -0.001295      0.017543     -0.006755
     12.24985      9.21243      9.19335        -0.001372      0.000964      0.000484
     13.64449      6.86659      9.21350        -0.001411      0.000365      0.003776
      5.28308      1.89962      9.23747        -0.017171      0.007494     -0.006402
      8.14804      6.84532      9.19052        -0.001914      0.008432      0.001120
      9.53108      4.43885      9.23022         0.017369      0.008061     -0.009816
      5.25433      6.85318      9.25722        -0.006758      0.003841      0.005363
      8.09483      1.98102      9.17379        -0.007668      0.002257      0.004576
      8.18723      3.65317      6.98333         0.006634     -0.002084     -0.008946
      6.64633      1.18502      6.95947        -0.014790     -0.006702      0.001907
      6.78185      1.16816      1.10976        -0.015035      0.000965      0.004204
      3.74327      4.26289      2.71491         0.016284      0.011056     -0.002375
      1.08195      1.10697      6.95241        -0.005192      0.011485     -0.009053
      1.01575      1.28649      0.81183         0.013249      0.002449      0.015417
      6.67142      9.31568      2.85544         0.002792      0.017991     -0.014509
      6.71130      4.38097      9.22442        -0.006271     -0.006975      0.003523
      8.14285      5.24496      4.86976         0.003087      0.022886     -0.047651
     10.86658      6.80898      9.25228        -0.014128      0.000302      0.005509
     14.99686      7.68362      4.79411         0.012369     -0.037021      0.041200
     12.24845      6.04938      6.99764        -0.007521      0.005995     -0.037518
      6.72347      6.03025      6.99658        -0.004799      0.000520      0.011510
      8.20780      6.89173      2.69128        -0.011766     -0.009890     -0.018151
      3.77766      2.69345      4.90572        -0.000609      0.022322      0.010692
     10.86552      5.33036      4.88657         0.007976     -0.004936     -0.005507
      6.80891      7.69639      4.91949        -0.002402     -0.026049      0.049098
      5.20720      0.16029      4.85410         0.009979     -0.007046      0.006461
      7.96508      0.45571      4.72390        -0.000804     -0.012870     -0.040418
      9.48328      1.17426      6.88205         0.005596      0.001475      0.022647
     12.19222      2.77766      4.87496         0.009527      0.006349     -0.029418
     13.78001      8.57392      1.07376        -0.006744     -0.010401     -0.013481
      5.17612      8.26819      1.02395         0.019018      0.017012     -0.002381
      4.07688      6.12594      0.96722         0.018227     -0.002013      0.018547
      8.23477      2.19285      2.91186        -0.011136      0.011741      0.009798
      9.46232      9.17873      2.88867        -0.001971      0.010569     -0.021251
     13.23829      3.61532      0.98546         0.005953     -0.008885     -0.003182
     10.87798      2.06279      2.87872         0.010595     -0.028865      0.032239
     13.60649      5.17210      4.92826         0.030540      0.022775      0.014256
      9.49429      6.01859      7.10274         0.003707     -0.007267     -0.002470
      3.91652      1.06390      1.10530         0.006107     -0.006747      0.035346
      9.69052      5.79723      1.02825        -0.012698     -0.007548     -0.006186
      5.55996      3.72993      1.09992        -0.003755     -0.042491     -0.010320
     12.22782      8.97667      2.86865        -0.016427     -0.004354      0.007453
     12.22062      7.58099      4.89646        -0.006337      0.002911     -0.003774
      9.50033      4.35926      2.89266        -0.028502      0.008046      0.014959
      8.10123      8.43179      7.03018        -0.002658     -0.017653      0.015589
      8.20297      8.78072      0.90411         0.018055      0.028337      0.009310
     10.87946      6.90186      2.86164        -0.025920      0.007130     -0.002434
[...]
     10.84088      8.41789      0.89812        -0.017295      0.013782     -0.007919
      5.29878      5.08233      4.87221        -0.008544      0.012684      0.021340
     15.21969      9.46320      2.91158         0.014893     -0.003728      0.020551
      9.54798      2.83243      4.93973         0.018808      0.001661     -0.019894
      6.74099      2.86414      4.91726         0.007284      0.011564     -0.010836
     12.12718      4.37157      2.88927         0.021767      0.000229      0.010203
      2.50652      1.86558      2.87455        -0.011461      0.007114     -0.009004
     12.02738      5.81407      0.92547        -0.017499     -0.005642      0.004035
      6.52756      5.95530      1.01982        -0.010153     -0.040812      0.003491
      6.84854      4.37406      2.90086        -0.025712     -0.020288     -0.003498
     10.86090      3.69513      7.03659        -0.007062      0.003040     -0.003899
     10.75754      3.55271      0.95995        -0.003612      0.003808     -0.007454
     10.94499      0.41654      4.90182         0.011502      0.024331     -0.066670
      9.50574      7.61774      4.99769        -0.009783      0.004584      0.002616
      4.58166      5.62500     10.29601         0.031072     -0.033595      0.007675
    total drift:                               -0.018756      0.015695      0.020409

  FREE ENERGIE OF THE ION-ELECTRON SYSTEM (eV)
  free  energy   TOTEN  =      -507.90927147 eV

  energy  without entropy=     -507.90863312  energy(sigma->0) =     -507.90905869

 d Force = 0.3752868E-03[-0.348E-04, 0.785E-03]  d Energy = 0.3244473E-03 0.508E-04
 d Force = 0.7174981E+01[ 0.717E+01, 0.718E+01]  d Ewald  = 0.7174982E+01-0.466E-06

 reached required accuracy - stopping structural energy minimisation