 vasp.5.4.4.18Apr17-6-g9f103f2a35 (build Nov 30 2020 22:55:02) complex

 executed on             LinuxIFC date 2021.11.02  14:56:14

 INCAR:
 POTCAR:    PAW_PBE Pt 04Feb2005
 POTCAR:    PAW_PBE Pt 04Feb2005
   VRHFIN =Pt: s1d9

   TITEL  = PAW_PBE Pt 04Feb2005
   POMASS =  195.080; ZVAL   =   10.000    mass and valenz
   ENMAX  =  230.283; ENMIN  =  172.712 eV

 Optimization of the real space projectors (new method)

 maximal supplied QI-value         = 14.36
 optimisation between [QCUT,QGAM] = [ 11.92, 23.98] = [ 39.79,161.09] Ry
 Optimized for a Real-space Cutoff    1.49 Angstroem

   l    n(q)    QCUT    max X(q) W(low)/X(q) W(high)/X(q)  e(spline)
   2     10    11.920    66.195    0.79E-04    0.18E-03    0.24E-06
   2     10    11.920    64.643    0.81E-04    0.19E-03    0.24E-06
   0     11    11.920    95.520    0.28E-04    0.54E-04    0.18E-06
   0     11    11.920    63.403    0.27E-04    0.52E-04    0.17E-06
   1     10    11.920    19.961    0.18E-04    0.11E-03    0.23E-06
   1     10    11.920    13.289    0.25E-04    0.87E-04    0.19E-06
  PAW_PBE Pt 04Feb2005                  :

 POSCAR: Pt111
  positions in direct lattice
  velocities in cartesian coordinates
 exchange correlation table for  LEXCH =        8
   RHO(1)=    0.500       N(1)  =     2000
   RHO(2)=  100.500       N(2)  =     4000

 ion  position               nearest neighbor table
   1  0.783  0.870  0.326-  20 2.73  71 2.73  55 2.73  27 2.78  35 2.79  34 2.79  43 2.79  56 2.80
                            73 2.80   3 2.81  72 2.81   2 2.81
   2  0.033  0.871  0.327-  65 2.73  55 2.73  68 2.74  27 2.78  39 2.78  29 2.79  72 2.79   3 2.81
                            47 2.81  23 2.81   1 2.81  57 2.82
   3  0.034  0.620  0.327-  76 2.73  12 2.73  55 2.73  35 2.78  28 2.78  39 2.78   9 2.80  57 2.80
                             2 2.81   1 2.81  56 2.81  15 2.82
   4  0.788  0.867  0.024-  21 2.78  78 2.78  19 2.78  44 2.80   6 2.80  74 2.81  75 2.81  58 2.82
                             5 2.82
   5  0.039  0.866  0.024-  70 2.78  49 2.78  59 2.78  78 2.79  24 2.80   6 2.81  74 2.81   4 2.82
                            48 2.82
   6  0.037  0.617  0.024-  70 2.78  46 2.78  21 2.78  10 2.79   4 2.80   5 2.81  59 2.81  58 2.81
                            18 2.81
   7  0.620  0.202  0.126-  71 2.72  79 2.73  80 2.74  42 2.78  44 2.78  74 2.79  22 2.80  53 2.80
                            11 2.81  78 2.81  61 2.81  19 2.82
   8  0.370  0.952  0.126-  69 2.73  66 2.73  26 2.74  16 2.78  24 2.78  75 2.79  25 2.80  49 2.80
                            19 2.80  54 2.81  53 2.81  60 2.81
   9  0.035  0.370  0.327-  12 2.73  77 2.73  62 2.74  28 2.77  33 2.78  30 2.78   3 2.80  47 2.81
                            63 2.81  13 2.81  15 2.81  56 2.81
  10  0.038  0.368  0.024-  54 2.78  46 2.78  45 2.79   6 2.79  18 2.80  58 2.80  48 2.80  16 2.80
                            64 2.82
  11  0.870  0.202  0.127-  65 2.72  77 2.73  79 2.74  64 2.77  74 2.78  48 2.78  45 2.80  49 2.81
                             7 2.81  54 2.81  78 2.81  22 2.82
  12  0.951  0.536  0.227-   9 2.73  21 2.73   3 2.73  56 2.73  45 2.73  46 2.74  77 2.80  55 2.80
                            20 2.80  67 2.81  76 2.81  62 2.82
  13  0.285  0.119  0.327-  62 2.73  26 2.73  69 2.74  36 2.78  33 2.78  31 2.78  73 2.80  43 2.80
                            47 2.81   9 2.81  23 2.81  15 2.81
  14  0.534  0.619  0.327-  51 2.73  66 2.73  67 2.74  38 2.78  52 2.78  37 2.79  41 2.80  57 2.80
                            73 2.80  56 2.81  23 2.81  63 2.81
  15  0.285  0.370  0.327-  76 2.73  62 2.73  80 2.74  36 2.77  50 2.78  28 2.78  57 2.80  41 2.80
                            43 2.81   9 2.81  13 2.81   3 2.82
  16  0.288  0.118  0.024-   8 2.78  53 2.78  54 2.79  18 2.79  48 2.80  10 2.80  24 2.81  44 2.81
                            75 2.81
  17  0.537  0.617  0.023-  25 2.78  22 2.78  60 2.80  42 2.80  58 2.80  75 2.80  64 2.80  59 2.81
                            24 2.81
  18  0.288  0.367  0.024-  53 2.77  61 2.78  42 2.79  16 2.79  46 2.79  10 2.80  59 2.81  44 2.81
                             6 2.81
  19  0.620  0.951  0.126-  71 2.73  20 2.73  69 2.74  44 2.77  75 2.78   4 2.78  21 2.80  53 2.80
                             8 2.80  25 2.81  78 2.81   7 2.82
  20  0.700  0.786  0.226-   1 2.73  19 2.73  25 2.73  56 2.73  73 2.74  21 2.74  69 2.79  67 2.80
                            66 2.80  12 2.80  55 2.81  71 2.81
  21  0.869  0.701  0.127-  12 2.73  55 2.73  20 2.74   4 2.78  58 2.78   6 2.78  19 2.80  45 2.80
                            46 2.81  25 2.81  70 2.81  78 2.81
  22  0.619  0.452  0.126-  79 2.73  67 2.73  51 2.74  42 2.78  17 2.78  64 2.79   7 2.80  25 2.80
                            61 2.80  60 2.80  45 2.81  11 2.82
  23  0.283  0.870  0.327-  26 2.73  68 2.73  66 2.74  29 2.78  31 2.79  37 2.79  47 2.80  57 2.80
                            73 2.80   2 2.81  14 2.81  13 2.81
  24  0.288  0.868  0.023-   8 2.78  60 2.78  49 2.79  75 2.80   5 2.80  48 2.80  16 2.81  17 2.81
                            59 2.82
  25  0.618  0.702  0.126-  67 2.73  20 2.73  66 2.75  75 2.77  17 2.78  58 2.79   8 2.80  60 2.80
                            22 2.80  45 2.81  21 2.81  19 2.81
  26  0.203  0.036  0.227-  54 2.72  23 2.73  49 2.73  47 2.73  13 2.73   8 2.74  66 2.80  69 2.80
                            65 2.81  68 2.81  77 2.81  62 2.81
  27  0.865  0.953  0.429-   1 2.78   2 2.78  72 2.78  40 2.79  35 2.79  39 2.80  34 2.80  32 2.81
                            29 2.83
  28  0.117  0.453  0.429-   9 2.77   3 2.78  15 2.78  36 2.80  35 2.80  33 2.81  30 2.81  39 2.81
                            50 2.82
  29  0.117  0.954  0.429-  23 2.78  47 2.78   2 2.79  32 2.79  33 2.80  39 2.80  37 2.80  31 2.81
                            27 2.83
  30  0.867  0.453  0.429-  56 2.78  63 2.78   9 2.78  38 2.80  35 2.80  52 2.80  33 2.81  28 2.81
                            32 2.82
  31  0.368  0.953  0.430-  13 2.78  73 2.78  23 2.79  34 2.79  52 2.80  37 2.81  29 2.81  33 2.81
                            36 2.82
  32  0.867  0.202  0.429-  72 2.77  63 2.78  47 2.78  29 2.79  40 2.80  38 2.81  27 2.81  33 2.81
                            30 2.82
  33  0.117  0.203  0.429-   9 2.78  47 2.78  13 2.78  29 2.80  28 2.81  30 2.81  32 2.81  31 2.81
                            36 2.81
  34  0.616  0.952  0.430-  73 2.78  43 2.78  31 2.79   1 2.79  52 2.80  27 2.80  36 2.81  35 2.81
                            40 2.81
  35  0.867  0.703  0.429-   3 2.78  56 2.78   1 2.79  27 2.79  39 2.80  30 2.80  28 2.80  34 2.81
                            52 2.82
  36  0.367  0.204  0.430-  15 2.77  13 2.78  43 2.79  40 2.80  28 2.80  50 2.80  34 2.81  33 2.81
                            31 2.82
  37  0.366  0.703  0.430-  57 2.78  23 2.79  14 2.79  50 2.80  39 2.80  29 2.80  31 2.81  52 2.81
                            38 2.82
  38  0.618  0.453  0.430-  14 2.78  41 2.78  63 2.79  30 2.80  50 2.80  52 2.80  32 2.81  40 2.81
                            37 2.82
  39  0.116  0.705  0.430-   3 2.78  57 2.78   2 2.78  37 2.80  35 2.80  27 2.80  29 2.80  28 2.81
                            50 2.83
  40  0.618  0.202  0.429-  43 2.78  41 2.78  72 2.79  27 2.79  36 2.80  32 2.80  50 2.80  38 2.81
                            34 2.81
  41  0.535  0.369  0.327-  80 2.73  51 2.73  79 2.74  40 2.78  38 2.78  50 2.78  14 2.80  72 2.80
                            63 2.80  15 2.80  43 2.81  57 2.82
  42  0.536  0.368  0.024-   7 2.78  22 2.78  18 2.79  61 2.79  59 2.80  17 2.80  44 2.81  64 2.81
                            74 2.83
  43  0.535  0.119  0.327-  80 2.73  69 2.73  71 2.74  40 2.78  34 2.78  36 2.79   1 2.79  13 2.80
                            72 2.80  15 2.81  73 2.81  41 2.81
  44  0.539  0.117  0.024-  19 2.77   7 2.78  53 2.79   4 2.80  42 2.81  74 2.81  16 2.81  18 2.81
                            75 2.81
  45  0.869  0.452  0.127-  77 2.72  12 2.73  67 2.74  58 2.77  64 2.78  10 2.79  11 2.80  21 2.80
                            25 2.81  22 2.81  54 2.81  46 2.81
  46  0.120  0.452  0.127-  62 2.73  76 2.73  12 2.74  10 2.78   6 2.78  18 2.79  54 2.80  70 2.80
                            61 2.80  21 2.81  45 2.81  53 2.82
  47  0.035  0.120  0.326-  77 2.73  26 2.73  65 2.73  32 2.78  33 2.78  29 2.78  23 2.80  63 2.80
                             2 2.81   9 2.81  13 2.81  72 2.81
  48  0.038  0.118  0.024-  49 2.77  11 2.78  54 2.78  16 2.80  10 2.80  24 2.80  64 2.81  74 2.81
                             5 2.82
  49  0.120  0.952  0.127-  68 2.73  26 2.73  65 2.74  48 2.77   5 2.78  24 2.79  60 2.80   8 2.80
                            11 2.81  78 2.81  54 2.81  70 2.82
  50  0.369  0.453  0.430-  15 2.78  57 2.78  41 2.78  37 2.80  38 2.80  36 2.80  40 2.80  28 2.82
                            39 2.83
  51  0.451  0.536  0.227-  61 2.73  14 2.73  41 2.73  60 2.73  57 2.74  22 2.74  66 2.80  76 2.80
                            67 2.80  80 2.80  68 2.80  79 2.81
  52  0.616  0.703  0.430-  14 2.78  73 2.79  56 2.79  34 2.80  38 2.80  31 2.80  30 2.80  37 2.81
                            35 2.82
  53  0.371  0.201  0.127-  69 2.72  80 2.73  62 2.74  18 2.77  16 2.78  44 2.79  19 2.80   7 2.80
                            61 2.80  54 2.80   8 2.81  46 2.82
  54  0.121  0.202  0.127-  26 2.72  62 2.73  77 2.73  10 2.78  48 2.78  16 2.79  46 2.80  53 2.80
                             8 2.81  11 2.81  45 2.81  49 2.81
  55  0.951  0.786  0.227-  78 2.73  21 2.73   2 2.73   1 2.73   3 2.73  70 2.74  71 2.80  12 2.80
                            20 2.81  76 2.81  68 2.81  65 2.81
  56  0.784  0.620  0.327-  12 2.73  20 2.73  67 2.74  30 2.78  35 2.78  52 2.79  63 2.80   1 2.80
                            73 2.80  14 2.81   9 2.81   3 2.81
  57  0.284  0.620  0.327-  76 2.73  68 2.73  51 2.74  37 2.78  50 2.78  39 2.78  23 2.80  14 2.80
                            15 2.80   3 2.80   2 2.82  41 2.82
  58  0.787  0.616  0.024-  45 2.77  21 2.78  25 2.79  10 2.80  17 2.80  64 2.80  75 2.80   6 2.81
                             4 2.82
  59  0.287  0.618  0.024-  60 2.77  61 2.78   5 2.78  70 2.79  42 2.80   6 2.81  17 2.81  18 2.81
                            24 2.82
  60  0.369  0.702  0.126-  66 2.73  51 2.73  68 2.75  59 2.77  24 2.78  49 2.80  25 2.80  17 2.80
                            22 2.80  61 2.81  70 2.81   8 2.81
  61  0.369  0.452  0.127-  80 2.73  51 2.73  76 2.74  18 2.78  59 2.78  42 2.79  46 2.80  22 2.80
                            53 2.80  70 2.80  60 2.81   7 2.81
  62  0.203  0.286  0.227-  15 2.73  13 2.73  46 2.73  54 2.73   9 2.74  53 2.74  80 2.80  76 2.80
                            69 2.80  26 2.81  77 2.81  12 2.82
  63  0.785  0.370  0.326-  79 2.73  67 2.73  77 2.73  32 2.78  30 2.78  38 2.79  56 2.80  41 2.80
                            47 2.80   9 2.81  14 2.81  72 2.81
  64  0.787  0.367  0.024-  11 2.77  45 2.78  22 2.79  74 2.80  58 2.80  17 2.80  48 2.81  42 2.81
                            10 2.82
  65  0.952  0.036  0.226-  11 2.72   2 2.73  78 2.73  47 2.73  72 2.74  49 2.74  68 2.80  79 2.80
                            71 2.81  26 2.81  77 2.81  55 2.81
[...]
   -.891E+00 0.214E+00 -.132E+04   0.874E+00 -.210E+00 0.132E+04   0.414E-01 -.283E-01 0.713E+00   0.376E-02 0.131E-01 0.783E-02
   -.217E+00 -.795E+00 0.260E+04   0.230E+00 0.763E+00 -.260E+04   -.317E-01 0.636E-01 -.144E+01   0.301E-02 -.374E-02 0.101E-01
   -.234E+00 0.744E+00 0.260E+04   0.233E+00 -.721E+00 -.260E+04   -.746E-02 -.296E-01 -.145E+01   0.493E-02 -.298E-02 0.713E-02
   -.385E-01 0.581E-01 0.260E+04   0.577E-01 -.724E-01 -.260E+04   -.227E-01 0.233E-01 -.145E+01   -.514E-02 0.331E-02 0.496E-02
   -.516E+00 0.714E-01 0.132E+04   0.489E+00 -.611E-01 -.132E+04   0.156E-02 0.188E-02 -.695E+00   0.294E-01 -.942E-02 -.209E-01
   -.107E+00 -.396E+00 0.132E+04   0.122E+00 0.388E+00 -.132E+04   -.138E-01 0.831E-02 -.718E+00   -.703E-02 0.495E-02 -.165E-01
   0.128E+00 0.817E+00 -.132E+04   -.123E+00 -.796E+00 0.132E+04   -.173E-01 -.266E-01 0.691E+00   0.195E-02 -.123E-01 0.119E-03
   -.404E+00 0.510E-01 0.260E+04   0.402E+00 -.662E-01 -.260E+04   0.715E-02 0.190E-01 -.146E+01   -.383E-02 0.357E-02 0.610E-02
   0.707E+00 0.487E+00 0.132E+04   -.703E+00 -.477E+00 -.132E+04   -.302E-01 -.208E-01 -.736E+00   0.666E-02 -.334E-02 -.990E-02
   0.107E+00 0.562E+00 -.120E+01   -.105E+00 -.552E+00 0.121E+01   -.122E-01 -.132E-01 -.933E-02   -.103E-02 -.592E-02 0.489E-02
   0.143E+00 -.513E+00 -.132E+04   -.120E+00 0.485E+00 0.132E+04   -.918E-02 0.790E-02 0.693E+00   -.175E-01 0.251E-01 0.947E-02
   -.151E+00 0.155E-01 -.132E+04   0.143E+00 -.418E-02 0.132E+04   0.252E-01 -.720E-02 0.703E+00   -.911E-03 -.454E-02 0.292E-01
   -.120E+00 0.475E+00 -.132E+04   0.140E+00 -.475E+00 0.132E+04   -.185E-01 -.145E-01 0.706E+00   -.759E-02 0.202E-02 0.195E-01
   0.817E+00 -.126E+01 0.260E+04   -.779E+00 0.124E+01 -.260E+04   -.604E-01 0.335E-01 -.145E+01   -.191E-02 -.462E-03 0.132E-02
   -.125E+00 -.284E-01 0.260E+04   0.118E+00 0.217E-01 -.260E+04   0.186E-01 0.278E-01 -.145E+01   -.109E-02 -.111E-01 -.120E-01
   0.235E+00 0.440E+00 0.260E+04   -.235E+00 -.432E+00 -.260E+04   -.787E-02 -.133E-01 -.144E+01   0.589E-02 -.752E-03 -.160E-02
   -.248E+00 -.290E+00 0.132E+04   0.223E+00 0.307E+00 -.132E+04   0.534E-02 0.110E-01 -.722E+00   0.183E-01 -.237E-01 -.199E-01
   0.303E+00 -.272E+00 0.243E+01   -.326E+00 0.288E+00 -.244E+01   0.588E-02 -.291E-02 0.377E-01   0.109E-01 -.133E-01 -.174E-01
   0.119E+00 -.162E-01 0.132E+04   -.114E+00 0.638E-02 -.132E+04   0.108E-01 0.102E-01 -.724E+00   -.130E-01 0.251E-02 -.544E-02
   0.123E+00 0.820E+00 0.132E+04   -.134E+00 -.803E+00 -.132E+04   0.135E-02 -.286E-01 -.720E+00   0.753E-02 -.576E-02 -.339E-01
   0.145E+00 -.273E+00 -.132E+04   -.117E+00 0.260E+00 0.132E+04   0.519E-04 -.293E-02 0.711E+00   -.277E-01 0.157E-01 0.205E-01
   0.662E+00 0.299E-01 0.260E+04   -.645E+00 -.371E-01 -.260E+04   -.297E-01 0.553E-02 -.144E+01   -.711E-03 0.654E-03 -.387E-02
   -.736E+00 -.100E+00 0.132E+04   0.701E+00 0.105E+00 -.132E+04   0.355E-01 0.138E-01 -.704E+00   0.202E-01 -.793E-02 -.179E-01
   0.607E-01 -.320E+00 -.518E+00   -.479E-01 0.306E+00 0.512E+00   -.186E-02 -.140E-01 0.129E-02   -.126E-01 0.270E-01 0.843E-02
   0.994E-01 -.197E+00 -.260E+04   -.989E-01 0.207E+00 0.260E+04   0.712E-02 -.992E-02 0.145E+01   -.194E-02 -.817E-02 -.406E-02
   0.639E+00 0.545E+00 -.260E+04   -.615E+00 -.527E+00 0.260E+04   -.381E-01 -.374E-01 0.145E+01   0.164E-02 0.147E-02 -.497E-02
   -.117E+00 -.170E+00 -.260E+04   0.920E-01 0.175E+00 0.260E+04   0.534E-01 -.190E-01 0.145E+01   -.332E-02 0.320E-02 -.252E-02
   0.273E+00 0.180E-01 -.260E+04   -.263E+00 -.379E-01 0.260E+04   -.201E-01 0.312E-01 0.145E+01   0.619E-02 -.299E-02 -.357E-02
   -.837E+00 0.277E+00 -.260E+04   0.815E+00 -.267E+00 0.260E+04   0.621E-01 -.366E-01 0.144E+01   -.134E-01 0.943E-02 0.106E-01
   0.266E+00 0.198E+00 -.260E+04   -.270E+00 -.191E+00 0.260E+04   0.467E-02 0.135E-02 0.144E+01   0.468E-02 -.541E-02 -.101E-01
   0.546E+00 0.131E+00 -.260E+04   -.538E+00 -.122E+00 0.260E+04   -.966E-02 -.243E-01 0.145E+01   -.969E-03 0.642E-02 -.113E-01
   -.927E-01 -.431E+00 -.260E+04   0.851E-01 0.431E+00 0.260E+04   0.339E-02 0.539E-02 0.144E+01   0.504E-02 -.251E-02 0.103E-01
   -.100E+01 -.163E+00 -.260E+04   0.950E+00 0.167E+00 0.260E+04   0.605E-01 0.266E-02 0.145E+01   0.169E-01 -.625E-02 -.454E-02
   -.467E+00 -.239E+00 -.260E+04   0.470E+00 0.211E+00 0.260E+04   0.168E-01 0.159E-01 0.145E+01   -.858E-02 0.202E-01 -.615E-03
   0.349E+00 0.288E+00 -.260E+04   -.315E+00 -.277E+00 0.260E+04   -.141E-01 -.245E-01 0.144E+01   -.225E-01 0.344E-02 0.110E-01
   -.119E+00 0.310E+00 -.260E+04   0.104E+00 -.319E+00 0.260E+04   0.708E-02 0.246E-01 0.145E+01   0.738E-02 -.587E-02 0.748E-02
   0.128E+00 -.537E+00 -.260E+04   -.128E+00 0.524E+00 0.260E+04   0.149E-01 0.218E-02 0.145E+01   -.635E-02 0.516E-02 -.772E-02
   -.259E+00 0.186E-02 -.260E+04   0.245E+00 -.215E-02 0.260E+04   0.107E-01 0.114E-01 0.145E+01   0.309E-02 -.244E-02 -.135E-03
   0.422E+00 0.103E+01 -.132E+04   -.420E+00 -.100E+01 0.132E+04   -.169E-02 -.274E-01 0.692E+00   -.342E-02 -.196E-01 0.104E-01
   0.647E+00 -.402E+00 0.260E+04   -.635E+00 0.359E+00 -.260E+04   -.260E-01 0.566E-01 -.144E+01   0.670E-02 0.633E-02 -.340E-02
   -.665E-01 -.108E+01 -.132E+04   0.677E-01 0.106E+01 0.132E+04   -.669E-02 0.263E-01 0.713E+00   0.642E-02 0.152E-01 0.144E-02
   -.245E-01 -.732E+00 0.260E+04   0.274E-01 0.723E+00 -.260E+04   -.190E-01 0.187E-01 -.145E+01   0.108E-01 -.697E-02 -.540E-02
   0.822E-01 -.109E+00 0.132E+04   -.855E-01 0.112E+00 -.132E+04   0.300E-02 -.361E-03 -.719E+00   0.926E-03 0.197E-02 -.285E-02
   -.310E-01 0.197E+00 0.132E+04   0.479E-01 -.207E+00 -.132E+04   -.744E-02 -.140E-02 -.730E+00   -.114E-01 0.101E-01 0.722E-02
   -.140E+00 -.475E+00 -.132E+04   0.129E+00 0.466E+00 0.132E+04   0.160E-01 -.155E-02 0.732E+00   0.470E-02 0.132E-01 -.818E-02
   0.115E+00 -.332E+00 0.260E+04   -.940E-01 0.322E+00 -.260E+04   -.382E-01 0.695E-02 -.145E+01   -.227E-02 0.364E-02 0.117E-01
   0.364E+00 -.298E+00 0.132E+04   -.349E+00 0.289E+00 -.132E+04   -.207E-01 0.909E-02 -.713E+00   -.482E-02 0.460E-02 -.819E-02
   -.577E+00 0.712E+00 -.260E+04   0.573E+00 -.701E+00 0.260E+04   0.182E-01 -.271E-01 0.144E+01   -.929E-02 0.268E-02 0.276E-02
   0.275E+00 0.800E+00 -.119E+01   -.266E+00 -.787E+00 0.119E+01   0.436E-02 -.122E-01 -.128E-01   -.197E-01 -.100E-01 -.444E-04
   -.105E+00 -.229E+00 -.260E+04   0.937E-01 0.233E+00 0.260E+04   0.105E-01 0.173E-01 0.144E+01   0.325E-02 -.115E-01 0.118E-01
   0.161E+00 0.175E+00 0.132E+04   -.146E+00 -.164E+00 -.132E+04   -.270E-01 -.105E-01 -.746E+00   -.657E-02 -.582E-02 -.166E-01
   -.549E-02 0.192E+00 0.132E+04   0.274E-01 -.193E+00 -.132E+04   -.229E-01 -.362E-02 -.709E+00   -.662E-02 0.121E-02 0.714E-02
   -.665E+00 0.278E-01 0.276E+00   0.652E+00 -.190E-01 -.288E+00   0.257E-01 -.209E-01 0.163E-01   0.668E-02 0.285E-02 0.996E-02
   -.126E+00 0.400E+00 -.132E+04   0.955E-01 -.385E+00 0.132E+04   0.291E-01 -.185E-01 0.716E+00   0.138E-01 -.863E-02 0.101E-01
   0.453E+00 0.276E+00 -.132E+04   -.422E+00 -.284E+00 0.132E+04   -.420E-03 -.132E-01 0.713E+00   -.319E-01 0.131E-01 0.255E-01
   -.149E+00 0.520E+00 0.260E+04   0.147E+00 -.518E+00 -.260E+04   -.683E-02 0.109E-01 -.144E+01   0.457E-03 -.616E-02 0.432E-02
   0.341E+00 -.255E+00 0.260E+04   -.337E+00 0.240E+00 -.260E+04   -.510E-02 0.294E-01 -.144E+01   0.419E-02 0.129E-03 0.277E-02
   0.313E+00 0.266E+00 0.132E+04   -.308E+00 -.267E+00 -.132E+04   0.124E-01 -.304E-02 -.725E+00   -.155E-01 0.247E-03 -.317E-01
[...]
   0.694E-02 -.488E-01 0.335E+00   -.410E-01 0.587E-01 -.331E+00   0.733E-02 0.140E-01 -.821E-02   0.311E-01 -.911E-02 -.527E-02
   0.384E+00 0.344E+00 -.857E+00   -.358E+00 -.348E+00 0.856E+00   0.166E-01 -.312E-01 0.548E-03   -.411E-01 0.156E-01 0.506E-02
   -.133E+00 0.157E-01 -.214E+00   0.137E+00 -.147E-01 0.206E+00   -.294E-03 -.116E-01 -.297E-03   -.654E-02 0.255E-02 0.113E-01
   -.325E+00 0.112E+00 0.132E+04   0.329E+00 -.119E+00 -.132E+04   0.789E-02 0.149E-02 -.715E+00   -.342E-02 0.547E-02 0.196E-02
   -.193E+00 -.969E+00 0.244E+01   0.166E+00 0.971E+00 -.246E+01   0.309E-02 0.219E-01 0.328E-01   0.277E-01 0.252E-03 0.626E-02
   0.276E+00 -.948E-03 -.132E+04   -.283E+00 0.118E-01 0.132E+04   -.897E-03 -.186E-01 0.728E+00   0.513E-02 -.230E-02 -.135E-01
   0.230E+00 -.398E+00 -.132E+04   -.240E+00 0.394E+00 0.132E+04   0.184E-01 0.855E-02 0.714E+00   -.279E-02 0.357E-03 0.341E-02
   0.366E+00 -.400E+00 0.260E+04   -.359E+00 0.381E+00 -.260E+04   -.423E-01 0.340E-01 -.144E+01   0.127E-01 -.127E-02 0.116E-01
   0.402E+00 0.175E+00 0.260E+04   -.378E+00 -.168E+00 -.260E+04   -.388E-01 0.342E-03 -.144E+01   0.388E-02 -.874E-02 -.825E-02
   -.538E+00 0.537E-01 -.345E+01   0.550E+00 -.660E-01 0.345E+01   0.271E-01 0.252E-02 -.327E-01   -.212E-01 0.166E-01 0.150E-01
   -.257E+00 0.258E+00 -.482E+00   0.240E+00 -.252E+00 0.472E+00   0.196E-03 -.817E-02 0.954E-02   0.194E-01 -.274E-02 0.136E-01
   -.429E-01 -.733E+00 0.132E+04   0.365E-01 0.734E+00 -.132E+04   -.811E-04 0.124E-01 -.720E+00   0.601E-02 -.246E-02 -.843E-02
   0.900E+00 0.437E+00 0.231E+01   -.906E+00 -.411E+00 -.234E+01   -.305E-01 -.917E-02 0.490E-01   0.117E-01 -.251E-01 0.805E-02
   -.446E+00 -.425E-01 -.137E+01   0.443E+00 0.463E-01 0.134E+01   -.479E-02 0.577E-02 0.147E-01   0.119E-01 -.113E-02 0.302E-01
   0.142E-01 -.196E-01 -.716E-01   0.435E-12 -.330E-14 0.134E-11   0.132E-01 0.306E-02 -.707E-01   -.270E-02 0.484E-02 0.898E-01

 POSITION                                       TOTAL-FORCE (eV/Angst)
     13.67554      8.44906      7.19124         0.029185      0.005952      0.004576
      5.26242      8.45171      7.19426         0.001368     -0.000221     -0.016461
      3.85869      6.02381      7.19631         0.027055     -0.011093      0.004853
     13.70654      8.42728      0.51102        -0.016504      0.026974     -0.002257
      5.28962      8.43452      0.51547        -0.004547     -0.008056     -0.017711
      3.88365      6.00101      0.51887        -0.009111      0.012291     -0.026911
      8.08602      1.96007      2.77646         0.003144      0.002724      0.007572
      9.48873      9.24927      2.77843        -0.006975      0.005748     -0.005815
      2.46514      3.59338      7.19664        -0.010923     -0.016884     -0.013386
      2.48119      3.57320      0.52095         0.000795      0.007645     -0.033998
     10.89453      1.96338      2.77915        -0.020002     -0.013363     -0.024745
     13.68746      5.20864      4.98911        -0.011536     -0.008794     -0.001977
      3.86613      1.15994      7.19763        -0.004554      0.004757     -0.008784
      9.47036      6.02030      7.19684         0.016634     -0.000393     -0.003829
      5.27145      3.59181      7.19844        -0.006452     -0.012514     -0.000500
      3.89084      1.14281      0.51684        -0.023924      0.011337     -0.016514
      9.48961      6.00076      0.51053         0.009242      0.010031     -0.006176
      5.28635      3.57440      0.51936        -0.002156     -0.004583     -0.017028
     12.29176      9.24791      2.77616        -0.002045      0.003808     -0.011462
     12.27922      7.63465      4.98251        -0.006145     -0.000608      0.019446
     13.69100      6.81947      2.77931         0.003352      0.003083     -0.014318
      9.48405      4.39339      2.77805        -0.002077     -0.017574     -0.007232
      8.06908      8.45110      7.19592         0.001361     -0.000163      0.002707
      8.09511      8.43357      0.51232        -0.014461      0.000169     -0.006137
     10.88220      6.81926      2.77533         0.020380      0.010226      0.000463
      2.46869      0.34849      4.98745        -0.002101     -0.000478      0.004668
     15.07568      9.26270      9.45453         0.006195     -0.007897      0.023122
      3.86373      4.40691      9.46164        -0.012502     -0.016656      0.009146
      6.65763      9.26585      9.45780         0.024308     -0.009821      0.019371
     12.27811      4.40009      9.45770        -0.004265      0.007605      0.023453
      9.46320      9.26497      9.46282         0.025586     -0.016164      0.005257
     10.87220      1.97255      9.45531         0.006079      0.003870      0.015756
      2.45713      1.97592      9.45844        -0.002484     -0.008998      0.016056
     12.27081      9.26018      9.45850         0.001787      0.002592      0.016318
     13.67182      6.83251      9.45882         0.026104      0.000497      0.017020
      5.26244      1.97258      9.46182         0.011394      0.007958      0.007043
      8.06637      6.83590      9.46423        -0.001937     -0.008680      0.001634
      9.47115      4.39993      9.45981        -0.000385      0.008671      0.015264
      5.25870      6.83533      9.46000         0.008105     -0.005049      0.013981
      8.06631      1.97086      9.45650         0.000335      0.008008      0.018542
      8.07435      3.59192      7.19560        -0.003468     -0.022638     -0.016192
      8.09191      3.56907      0.51397        -0.006771      0.019873     -0.009705
      6.67014      1.15703      7.19359         0.001081      0.016715     -0.000329
      6.69286      1.14109      0.51288        -0.006130      0.003420     -0.007652
     12.29090      4.39183      2.78069         0.000872      0.004519     -0.008923
      3.87581      4.39147      2.78538        -0.002079     -0.000252     -0.013679
      1.05852      1.16169      7.19153         0.009613      0.001725      0.014176
      1.08491      1.14450      0.51699        -0.019507      0.001087     -0.019585
      6.68437      9.25083      2.77908        -0.011340      0.004504     -0.005882
      6.66639      4.40553      9.46367         0.003881     -0.013081      0.003190
      8.07484      5.20832      4.98899        -0.006291     -0.009372     -0.003509
     10.86933      6.82996      9.46140         0.001822      0.008764      0.008773
      5.28319      1.96157      2.78321        -0.019097     -0.005008     -0.027623
      2.47851      1.96223      2.78227        -0.008505     -0.002342     -0.000076
     15.08625      7.63826      4.98571         0.019387     -0.009017      0.015103
     12.27518      6.02103      7.19383         0.011880     -0.011784      0.003815
      6.66794      6.02308      7.19791        -0.000866     -0.007524      0.003112
     12.29829      6.00113      0.51194        -0.007899      0.007356     -0.000288
      6.68691      6.00129      0.51520         0.001979      0.014772     -0.006168
      8.07921      6.82164      2.77918         0.002431     -0.003665     -0.015656
[...]
      9.47276      7.63583      4.98555         0.037267      0.003871      0.013324
     10.87974      5.20682      4.98662         0.004661      0.014482     -0.008052
      6.67035      7.63910      4.98805         0.001501     -0.019795      0.005369
      5.27195      0.34597      4.98695        -0.003426     -0.007589      0.003622
      5.27521      6.82118      2.78175         0.008058      0.000127     -0.003282
      8.07715      0.34457      4.98205         0.003100      0.023624      0.017513
      9.47485      1.16182      7.18885        -0.002175     -0.009886      0.006675
     10.87216      8.44759      7.19448         0.005963      0.004427      0.000031
      9.50070      1.14041      0.51284        -0.022526      0.013946     -0.001327
     10.90067      8.43177      0.50832        -0.011215     -0.000256      0.006600
      5.26967      5.20818      4.99277         0.017541      0.007198     -0.013558
     12.28976      2.77898      4.98686         0.001766     -0.004343      0.013655
     15.09880      9.24910      2.77752        -0.001291      0.010146     -0.011576
      9.48367      2.77758      4.98187        -0.024875     -0.007970      0.031848
      6.67861      2.77571      4.98788         0.003300      0.008342      0.019651
    total drift:                                0.024672     -0.011715     -0.052419

  FREE ENERGIE OF THE ION-ELECTRON SYSTEM (eV)
  free  energy   TOTEN  =      -513.14075766 eV

  energy  without entropy=     -513.29158574  energy(sigma->0) =     -513.19103368

 d Force = 0.5830208E-02[ 0.188E-02, 0.978E-02]  d Energy = 0.5686701E-02 0.144E-03
 d Force = 0.2962814E+03[ 0.296E+03, 0.296E+03]  d Ewald  = 0.2962814E+03-0.934E-05

 Conjugate gradient step on ions:
 trial-energy change:   -0.005687  1 .order   -0.005830   -0.009780   -0.001880
  (g-gl).g = 0.588E-02      g.g   = 0.712E-02  gl.gl    = 0.952E-02
 g(Force)  = 0.712E-02   g(Stress)= 0.000E+00 ortho     = 0.124E-02
 gamma     =   0.61774
 trial     =   1.23948
 opt step  =   1.58215  (harmonic =   1.53447) maximal distance =0.00744619
 next E    =  -513.141015   (d E  =  -0.00594)

 reached required accuracy - stopping structural energy minimisation