 vasp.5.4.4.18Apr17-6-g9f103f2a35 (build Nov 30 2020 22:55:02) complex

 executed on             LinuxIFC date 2021.11.24  21:45:41

 INCAR:
 POTCAR:    PAW_PBE Pt 04Feb2005
 POTCAR:    PAW_PBE Fe 06Sep2000
 POTCAR:    PAW_PBE Co 02Aug2007
 POTCAR:    PAW_PBE Cu 22Jun2005
 POTCAR:    PAW_PBE Ni 02Aug2007
 POTCAR:    PAW_PBE H 15Jun2001

 POTCAR:    PAW_PBE Pt 04Feb2005
   VRHFIN =Pt: s1d9

   TITEL  = PAW_PBE Pt 04Feb2005
   POMASS =  195.080; ZVAL   =   10.000    mass and valenz
   ENMAX  =  230.283; ENMIN  =  172.712 eV

 POTCAR:    PAW_PBE Fe 06Sep2000
   VRHFIN =Fe:  d7 s1

   TITEL  = PAW_PBE Fe 06Sep2000
   POMASS =   55.847; ZVAL   =    8.000    mass and valenz
   ENMAX  =  267.882; ENMIN  =  200.911 eV

 POTCAR:    PAW_PBE Co 02Aug2007
   VRHFIN =Co: d8 s1

   TITEL  = PAW_PBE Co 02Aug2007
   POMASS =   58.933; ZVAL   =    9.000    mass and valenz
   ENMAX  =  267.968; ENMIN  =  200.976 eV

 POTCAR:    PAW_PBE Cu 22Jun2005
   VRHFIN =Cu: d10 p1

   TITEL  = PAW_PBE Cu 22Jun2005
   POMASS =   63.546; ZVAL   =   11.000    mass and valenz
   ENMAX  =  295.446; ENMIN  =  221.585 eV

 POTCAR:    PAW_PBE Ni 02Aug2007
   VRHFIN =Ni:

   TITEL  = PAW_PBE Ni 02Aug2007
   POMASS =   58.690; ZVAL   =   10.000    mass and valenz
   ENMAX  =  269.532; ENMIN  =  202.149 eV

 POTCAR:    PAW_PBE H 15Jun2001
   VRHFIN =H: ultrasoft test

   TITEL  = PAW_PBE H 15Jun2001
   POMASS =    1.000; ZVAL   =    1.000    mass and valenz
   ENMAX  =  250.000; ENMIN  =  200.000 eV

 Optimization of the real space projectors (new method)

 maximal supplied QI-value         = 14.36
 optimisation between [QCUT,QGAM] = [ 11.92, 23.98] = [ 39.79,161.09] Ry
 Optimized for a Real-space Cutoff    1.49 Angstroem

   l    n(q)    QCUT    max X(q) W(low)/X(q) W(high)/X(q)  e(spline)
   2     10    11.920    66.195    0.79E-04    0.18E-03    0.24E-06
   2     10    11.920    64.643    0.81E-04    0.19E-03    0.24E-06
   0     11    11.920    95.520    0.28E-04    0.54E-04    0.18E-06
   0     11    11.920    63.403    0.27E-04    0.52E-04    0.17E-06
   1     10    11.920    19.961    0.18E-04    0.11E-03    0.23E-06
   1     10    11.920    13.289    0.25E-04    0.87E-04    0.19E-06
 Optimization of the real space projectors (new method)

[...]

   l    n(q)    QCUT    max X(q) W(low)/X(q) W(high)/X(q)  e(spline)
   2      9    11.864    60.317    0.21E-03    0.51E-03    0.25E-06
   2      9    11.864    55.921    0.21E-03    0.51E-03    0.26E-06
   0      9    11.864    51.690    0.22E-03    0.30E-04    0.17E-06
   0      9    11.864    30.015    0.20E-03    0.28E-04    0.15E-06
   1      9    11.864    18.849    0.76E-04    0.33E-03    0.17E-06
   1      9    11.864    14.624    0.60E-04    0.28E-03    0.15E-06
 Optimization of the real space projectors (new method)

 maximal supplied QI-value         = 34.20
 optimisation between [QCUT,QGAM] = [ 11.97, 23.94] = [ 40.13,160.53] Ry
 Optimized for a Real-space Cutoff    1.18 Angstroem

   l    n(q)    QCUT    max X(q) W(low)/X(q) W(high)/X(q)  e(spline)
   0      8    11.971    19.460    0.15E-03    0.31E-03    0.25E-06
   0      8    11.971    12.209    0.13E-03    0.29E-03    0.25E-06
   1      8    11.971     4.655    0.22E-03    0.24E-03    0.21E-06
  PAW_PBE Pt 04Feb2005                  :
  PAW_PBE Fe 06Sep2000                  :
  PAW_PBE Co 02Aug2007                  :
  PAW_PBE Cu 22Jun2005                  :
  PAW_PBE Ni 02Aug2007                  :
  PAW_PBE H 15Jun2001                   :

 POSCAR: Pt   Fe   Co   Cu   Ni   H
  positions in cartesian coordinates
 exchange correlation table for  LEXCH =        8
   RHO(1)=    0.500       N(1)  =     2000
   RHO(2)=  100.500       N(2)  =     4000

 ion  position               nearest neighbor table
   1  0.786  0.880  0.317-  49 2.62  28 2.63  19 2.64  59 2.64  61 2.66  33 2.67  60 2.68  29 2.68
                             2 2.72  11 2.77   4 2.82  12 2.85
   2  0.042  0.883  0.316-  79 2.55  77 2.59  60 2.62  30 2.65  28 2.65  52 2.66  33 2.69  22 2.69
                             1 2.72   6 2.77   4 2.83  16 2.88
   3  0.277  0.381  0.321-  39 2.54  33 2.57  64 2.60  31 2.64  19 2.70  43 2.71  30 2.72  68 2.76
                            18 2.83  25 2.85  13 2.88   5 2.88
   4  0.875  0.962  0.424-  17 2.62  16 2.63   9 2.64  11 2.64   6 2.64  12 2.66  60 2.81   1 2.82
                             2 2.83
   5  0.121  0.464  0.435-  81 1.82  12 2.60   7 2.63  16 2.65  10 2.67  25 2.70  13 2.71  33 2.84
                            39 2.85   3 2.88
   6  0.125  0.961  0.422-  10 2.63   8 2.63  14 2.64  16 2.64   9 2.64   4 2.64   2 2.77  52 2.78
                            22 2.87
   7  0.875  0.460  0.426-  15 2.61   5 2.63   9 2.63  12 2.64  10 2.64  27 2.65  39 2.67  75 2.77
                            29 2.79
   8  0.376  0.960  0.420-  43 2.60  14 2.61  27 2.62   6 2.63  13 2.64  10 2.64  11 2.65  52 2.70
                            61 2.72
   9  0.875  0.211  0.421-  17 2.62   7 2.63  15 2.63   4 2.64  10 2.64   6 2.64  75 2.69  60 2.74
                            22 2.81
  10  0.125  0.210  0.421-   6 2.63   9 2.64   8 2.64   7 2.64  39 2.66  13 2.66   5 2.67  43 2.70
                            22 2.76
  11  0.626  0.960  0.424-  13 2.62   4 2.64  27 2.64  12 2.64   8 2.65  17 2.65   1 2.77  19 2.81
                            61 2.85
  12  0.875  0.710  0.426-   5 2.60  16 2.64  11 2.64   7 2.64  27 2.65   4 2.66  33 2.67  29 2.82
                             1 2.85
  13  0.378  0.208  0.430-  81 1.72  11 2.62   8 2.64  17 2.65  10 2.66  25 2.69   5 2.71  19 2.87
                             3 2.88  43 2.88
  14  0.376  0.712  0.424-  27 2.61   8 2.61  25 2.63   6 2.64  15 2.65  16 2.66  44 2.70  52 2.77
                            30 2.77
  15  0.626  0.461  0.423-   7 2.61  27 2.62  25 2.63   9 2.63  17 2.65  14 2.65  44 2.70  75 2.72
                            18 2.78
  16  0.124  0.712  0.426-   4 2.63   6 2.64  12 2.64  25 2.65   5 2.65  14 2.66  33 2.68  30 2.82
                             2 2.88
  17  0.628  0.210  0.422-   4 2.62   9 2.62  15 2.65  11 2.65  13 2.65  25 2.66  60 2.75  18 2.75
                            19 2.85
  18  0.547  0.375  0.317-  67 2.56  60 2.59  75 2.61  68 2.65  44 2.65  26 2.66  30 2.70  19 2.73
                            17 2.75  15 2.78   3 2.83  25 2.87
  19  0.532  0.125  0.316-  43 2.55  80 2.56  68 2.59  61 2.63   1 2.64  59 2.64   3 2.70  18 2.73
                            60 2.78  11 2.81  17 2.85  13 2.87
  20  0.547  0.124  0.040-  37 2.55  57 2.56  48 2.58  62 2.64  63 2.68  47 2.68  45 2.68  56 2.70
                            34 2.71
  21  0.121  0.460  0.128-  40 2.52  36 2.53  47 2.53  42 2.60  69 2.61  64 2.62  70 2.64  50 2.64
                            58 2.67  31 2.70  57 2.71  74 2.72
  22  0.042  0.137  0.314-  65 2.51  55 2.53  77 2.57  43 2.57  39 2.58  75 2.60  60 2.68   2 2.69
                            52 2.73  10 2.76   9 2.81   6 2.87  31 3.39
  23  0.042  0.130  0.033-  70 2.58  40 2.60  41 2.61  45 2.62  62 2.64  76 2.64  24 2.69  35 2.73
                            53 2.78
  24  0.130  0.958  0.132-  79 2.51  77 2.54  35 2.57  53 2.57  55 2.58  70 2.62  38 2.64  58 2.64
                            73 2.65  23 2.69  66 2.70  41 2.72
  25  0.377  0.463  0.426-  14 2.63  15 2.63  16 2.65  17 2.66  13 2.69   5 2.70  30 2.83   3 2.85
                            18 2.87
  26  0.455  0.546  0.219-  73 2.50  74 2.54  51 2.56  79 2.61  64 2.63  30 2.65  18 2.66  68 2.67
                            78 2.67  32 2.68  67 2.72  44 2.75
  27  0.623  0.711  0.424-  14 2.61   8 2.62  15 2.62  11 2.64   7 2.65  12 2.65  44 2.70  61 2.78
                            29 2.78
  28  0.956  0.790  0.221-  58 2.57  66 2.57  50 2.58  42 2.59  49 2.61   1 2.63  64 2.63   2 2.65
                            59 2.70  33 2.72  79 2.76  77 2.77
  29  0.794  0.622  0.319-  39 2.54  42 2.56  75 2.58  32 2.61  44 2.64  33 2.65  61 2.67   1 2.68
                            49 2.68  27 2.78   7 2.79  12 2.82
  30  0.291  0.631  0.318-  79 2.57  64 2.60  52 2.61  44 2.62   2 2.65  26 2.65  33 2.66  18 2.70
                             3 2.72  14 2.77  16 2.82  25 2.83
  31  0.203  0.281  0.225-  70 2.52  55 2.56  65 2.57  43 2.59  57 2.60   3 2.64  39 2.67  80 2.70
                            21 2.70  42 2.71  68 2.75  64 2.79  22 3.39
  32  0.706  0.549  0.221-  54 2.53  69 2.56  51 2.58  49 2.59  42 2.60  29 2.61  78 2.62  65 2.63
                            26 2.68  75 2.69  44 2.69  67 2.70
  33  0.040  0.630  0.325-   3 2.57  39 2.63  29 2.65  30 2.66   1 2.67  12 2.67  16 2.68   2 2.69
                            64 2.70  28 2.72  42 2.73   5 2.84
  34  0.797  0.862  0.042-  50 2.38  66 2.51  48 2.53  36 2.55  71 2.56  63 2.61  20 2.71  35 2.76
                            62 2.76
  35  0.056  0.866  0.038-  58 2.54  72 2.55  36 2.56  24 2.57  66 2.62  53 2.65  23 2.73  62 2.73
                            34 2.76
  36  0.046  0.628  0.037-  21 2.53  34 2.55  35 2.56  58 2.58  50 2.61  47 2.63  72 2.64  40 2.69
                            71 2.72
  37  0.627  0.222  0.129-  51 2.51  74 2.51  67 2.52  56 2.53  41 2.55  20 2.55  68 2.56  59 2.56
                            62 2.59  66 2.66  57 2.73  48 2.89
  38  0.382  0.955  0.130-  53 2.47  80 2.48  45 2.49  78 2.53  48 2.54  73 2.55  63 2.55  54 2.56
                            55 2.59  57 2.62  24 2.64  70 2.67
  39  0.035  0.384  0.325-  29 2.54   3 2.54  22 2.58  75 2.59  33 2.63  10 2.66  42 2.66  31 2.67
                             7 2.67  65 2.76  43 2.79   5 2.85
  40  0.031  0.382  0.038-  69 2.44  21 2.52  71 2.53  76 2.56  70 2.57  23 2.60  36 2.69  45 2.78
                            47 2.78
  41  0.872  0.215  0.128-  76 2.45  65 2.52  77 2.53  67 2.54  37 2.55  69 2.57  62 2.57  51 2.59
                            23 2.61  70 2.65  66 2.66  24 2.72
  42  0.955  0.545  0.224-  29 2.56  50 2.56  28 2.59  21 2.60  32 2.60  69 2.61  49 2.63  65 2.64
                            64 2.65  39 2.66  31 2.71  33 2.73
  43  0.296  0.115  0.321-  55 2.52  52 2.53  19 2.55  61 2.56  22 2.57  31 2.59   8 2.60  80 2.66
                            10 2.70   3 2.71  39 2.79  13 2.88
  44  0.540  0.629  0.322-  61 2.56  52 2.58  30 2.62  78 2.64  29 2.64  18 2.65  75 2.65  32 2.69
                            27 2.70  15 2.70  14 2.70  26 2.75
  45  0.295  0.119  0.039-  70 2.49  38 2.49  57 2.57  53 2.60  23 2.62  63 2.64  20 2.68  47 2.75
                            40 2.78
  46  0.548  0.625  0.044-  51 2.38  73 2.39  54 2.41  71 2.56  53 2.56  63 2.58  76 2.59  56 2.62
                            72 2.64
  47  0.296  0.379  0.039-  74 2.41  21 2.53  57 2.61  72 2.61  56 2.62  36 2.63  20 2.68  45 2.75
                            40 2.78
  48  0.625  0.950  0.132-  49 2.40  80 2.48  54 2.48  34 2.53  38 2.54  59 2.55  50 2.56  63 2.57
                            20 2.58  57 2.65  66 2.68  37 2.89
  49  0.706  0.794  0.220-  48 2.40  50 2.48  54 2.49  80 2.53  32 2.59  28 2.61  78 2.61   1 2.62
                            61 2.63  42 2.63  29 2.68  59 2.69
  50  0.866  0.706  0.129-  34 2.38  71 2.42  54 2.48  49 2.48  42 2.56  48 2.56  69 2.58  28 2.58
[...]
     12.969068  7.879772  0.925674            0           0           0
      5.163396  7.917194  0.830298            0           0           0
      3.807011  5.745024  0.813805            0           0           0
      7.798522  2.032451  2.832513            0           0           0
      9.077547  8.733730  2.857427            0           0           0
      2.398468  3.509789  7.141970            0           0           0
      2.344093  3.490514  0.825101            0           0           0
     10.348141  1.969830  2.822490            0           0           0
     12.960353  4.985870  4.925592            0           0           0
      3.730847  1.055085  7.063379            0           0           0
      9.030595  5.756704  7.082432            0           0           0
      3.748243  1.091821  0.867003            0           0           0
      9.091210  5.718673  0.960427            0           0           0
      5.124479  3.470454  0.855627            0           0           0
     11.620923  8.687580  2.905895            0           0           0
     11.653130  7.264496  4.842290            0           0           0
     12.867560  6.452796  2.833790            0           0           0
      9.042010  4.207796  2.796278            0           0           0
      7.765622  8.002966  6.990345            0           0           0
      7.813155  7.939223  0.886525            0           0           0
     10.391439  6.535663  2.821980            0           0           0
      2.513474  0.258257  5.000827            0           0           0
      7.742638  3.484538  0.761574            0           0           0
      5.078354  1.877603  2.917008            0           0           0
      5.160365  6.447147  2.899226            0           0           0
      7.708921  0.459858  4.847993            0           0           0
      9.052748  1.189659  6.971704            0           0           0
[...]
      9.073503  2.652522  4.913605            0           0           0
      6.371693  2.665576  4.858272            0           0           0
     11.658911  4.174860  2.814827            0           0           0
      2.440982  1.892366  2.832794            0           0           0
     11.649530  5.686214  0.885461            0           0           0
      6.447433  5.719494  0.925972            0           0           0
      7.829267  6.506514  2.836212            0           0           0
      6.419224  4.130068  2.782896            0           0           0
     10.368121  3.467392  7.046591            0           0           0
     10.344097  3.450125  0.868038            0           0           0
     10.370626  0.484098  4.871515            0           0           0
      9.040790  7.290173  4.936995            0           0           0
      6.462653  7.295032  4.940739            0           0           0
      5.042471  0.276335  4.884059            0           0           0
      4.778983  3.160437 10.581232     0.024751    0.361119    0.932191

   2 f  =   23.240926 THz   146.027045 2PiTHz  775.233824 cm-1    96.116779 meV
             X         Y         Z           dx          dy          dz
     12.944292  8.047489  6.979814            0           0           0
      5.104786  8.075263  6.948785            0           0           0
      4.935770  3.484822  7.063099            0           0           0
     14.317681  8.795804  9.327874            0           0           0
      3.722706  4.243471  9.561176            0           0           0
      6.400585  8.791840  9.285893            0           0           0
     11.664367  4.207058  9.376604            0           0           0
      9.031880  8.775394  9.241069            0           0           0
     10.354502  1.932559  9.260745            0           0           0
      2.432434  1.922203  9.270898            0           0           0
     11.676981  8.782971  9.324661            0           0           0
     12.993263  6.492882  9.368538            0           0           0
      5.090544  1.900501  9.459708            0           0           0
      7.730159  6.515508  9.325833            0           0           0
      9.050665  4.218949  9.303680            0           0           0
      5.073303  6.515052  9.373137            0           0           0
      7.738124  1.920639  9.275528            0           0           0
      7.762300  3.431840  6.974519            0           0           0
      6.274639  1.146047  6.955638            0           0           0
      6.428579  1.129740  0.878720            0           0           0
      3.705484  4.208436  2.816869            0           0           0
      1.172034  1.252697  6.906238            0           0           0
      1.135691  1.190800  0.725566            0           0           0
      6.436066  8.760995  2.900314            0           0           0
      6.421428  4.234683  9.382615            0           0           0
      7.681351  4.990728  4.814740            0           0           0
     10.339025  6.505208  9.319976            0           0           0
     14.264242  7.225928  4.862987            0           0           0
     11.670625  5.692410  7.015663            0           0           0
      6.407899  5.769458  7.004431            0           0           0
      3.621194  2.565893  4.960228            0           0           0
     10.360912  5.024302  4.856517            0           0           0
      3.752475  5.764882  7.160794            0           0           0
     12.969068  7.879772  0.925674            0           0           0
      5.163396  7.917194  0.830298            0           0           0
      3.807011  5.745024  0.813805            0           0           0
      7.798522  2.032451  2.832513            0           0           0
      9.077547  8.733730  2.857427            0           0           0
      2.398468  3.509789  7.141970            0           0           0
      2.344093  3.490514  0.825101            0           0           0
     10.348141  1.969830  2.822490            0           0           0
     12.960353  4.985870  4.925592            0           0           0
      3.730847  1.055085  7.063379            0           0           0
      9.030595  5.756704  7.082432            0           0           0
      3.748243  1.091821  0.867003            0           0           0
      9.091210  5.718673  0.960427            0           0           0
      5.124479  3.470454  0.855627            0           0           0
     11.620923  8.687580  2.905895            0           0           0
     11.653130  7.264496  4.842290            0           0           0
     12.867560  6.452796  2.833790            0           0           0
      9.042010  4.207796  2.796278            0           0           0
      7.765622  8.002966  6.990345            0           0           0
      7.813155  7.939223  0.886525            0           0           0
     10.391439  6.535663  2.821980            0           0           0
      2.513474  0.258257  5.000827            0           0           0
      7.742638  3.484538  0.761574            0           0           0
      5.078354  1.877603  2.917008            0           0           0
      5.160365  6.447147  2.899226            0           0           0
      7.708921  0.459858  4.847993            0           0           0
      9.052748  1.189659  6.971704            0           0           0
[...]
      9.073503  2.652522  4.913605            0           0           0
      6.371693  2.665576  4.858272            0           0           0
     11.658911  4.174860  2.814827            0           0           0
      2.440982  1.892366  2.832794            0           0           0
     11.649530  5.686214  0.885461            0           0           0
      6.447433  5.719494  0.925972            0           0           0
      7.829267  6.506514  2.836212            0           0           0
      6.419224  4.130068  2.782896            0           0           0
     10.368121  3.467392  7.046591            0           0           0
     10.344097  3.450125  0.868038            0           0           0
     10.370626  0.484098  4.871515            0           0           0
      9.040790  7.290173  4.936995            0           0           0
      6.462653  7.295032  4.940739            0           0           0
      5.042471  0.276335  4.884059            0           0           0
      4.778983  3.160437 10.581232    -0.587276    0.759865   -0.278769

   3 f/i=    7.047009 THz    44.277664 2PiTHz  235.062912 cm-1    29.144097 meV
             X         Y         Z           dx          dy          dz
     12.944292  8.047489  6.979814            0           0           0
      5.104786  8.075263  6.948785            0           0           0
      4.935770  3.484822  7.063099            0           0           0
     14.317681  8.795804  9.327874            0           0           0
      3.722706  4.243471  9.561176            0           0           0
      6.400585  8.791840  9.285893            0           0           0
     11.664367  4.207058  9.376604            0           0           0
      9.031880  8.775394  9.241069            0           0           0
     10.354502  1.932559  9.260745            0           0           0
      2.432434  1.922203  9.270898            0           0           0
     11.676981  8.782971  9.324661            0           0           0
     12.993263  6.492882  9.368538            0           0           0
      5.090544  1.900501  9.459708            0           0           0
      7.730159  6.515508  9.325833            0           0           0
      9.050665  4.218949  9.303680            0           0           0
      5.073303  6.515052  9.373137            0           0           0
      7.738124  1.920639  9.275528            0           0           0
      7.762300  3.431840  6.974519            0           0           0
      6.274639  1.146047  6.955638            0           0           0
      6.428579  1.129740  0.878720            0           0           0
      3.705484  4.208436  2.816869            0           0           0
      1.172034  1.252697  6.906238            0           0           0
      1.135691  1.190800  0.725566            0           0           0
      6.436066  8.760995  2.900314            0           0           0
      6.421428  4.234683  9.382615            0           0           0
      7.681351  4.990728  4.814740            0           0           0
     10.339025  6.505208  9.319976            0           0           0
     14.264242  7.225928  4.862987            0           0           0
     11.670625  5.692410  7.015663            0           0           0
      6.407899  5.769458  7.004431            0           0           0
      3.621194  2.565893  4.960228            0           0           0
     10.360912  5.024302  4.856517            0           0           0
      3.752475  5.764882  7.160794            0           0           0
     12.969068  7.879772  0.925674            0           0           0
      5.163396  7.917194  0.830298            0           0           0
      3.807011  5.745024  0.813805            0           0           0
      7.798522  2.032451  2.832513            0           0           0
      9.077547  8.733730  2.857427            0           0           0
      2.398468  3.509789  7.141970            0           0           0
      2.344093  3.490514  0.825101            0           0           0
     10.348141  1.969830  2.822490            0           0           0
     12.960353  4.985870  4.925592            0           0           0
      3.730847  1.055085  7.063379            0           0           0
      9.030595  5.756704  7.082432            0           0           0
      3.748243  1.091821  0.867003            0           0           0
      9.091210  5.718673  0.960427            0           0           0
      5.124479  3.470454  0.855627            0           0           0
     11.620923  8.687580  2.905895            0           0           0
     11.653130  7.264496  4.842290            0           0           0
     12.867560  6.452796  2.833790            0           0           0
      9.042010  4.207796  2.796278            0           0           0
      7.765622  8.002966  6.990345            0           0           0
      7.813155  7.939223  0.886525            0           0           0
     10.391439  6.535663  2.821980            0           0           0
      2.513474  0.258257  5.000827            0           0           0
      7.742638  3.484538  0.761574            0           0           0
      5.078354  1.877603  2.917008            0           0           0
      5.160365  6.447147  2.899226            0           0           0
      7.708921  0.459858  4.847993            0           0           0
      9.052748  1.189659  6.971704            0           0           0
[...]
      9.073503  2.652522  4.913605            0           0           0
      6.371693  2.665576  4.858272            0           0           0
     11.658911  4.174860  2.814827            0           0           0
      2.440982  1.892366  2.832794            0           0           0
     11.649530  5.686214  0.885461            0           0           0
      6.447433  5.719494  0.925972            0           0           0
      7.829267  6.506514  2.836212            0           0           0
      6.419224  4.130068  2.782896            0           0           0
     10.368121  3.467392  7.046591            0           0           0
     10.344097  3.450125  0.868038            0           0           0
     10.370626  0.484098  4.871515            0           0           0
      9.040790  7.290173  4.936995            0           0           0
      6.462653  7.295032  4.940739            0           0           0
      5.042471  0.276335  4.884059            0           0           0
      4.778983  3.160437 10.581232     0.809008    0.540554   -0.230884

 Finite differences POTIM=  1.500000000000000E-002
  LATTYP: Found a hexagonal cell.
 ALAT       =    10.5600004196
 C/A-ratio  =     2.0833332505

  Lattice vectors:

 A1 = (   5.2800002098,  -9.1452286274,   0.0000000000)
 A2 = ( -10.5600004196,   0.0000000000,   0.0000000000)
 A3 = (   0.0000000000,   0.0000000000, -22.0000000000)

Analysis of symmetry for initial positions (statically):
 Subroutine PRICEL returns:
 Original cell was already a primitive cell.

[...]

The static configuration has the point symmetry C_1 .

Analysis of symmetry for dynamics (positions and initial velocities):
 Subroutine PRICEL returns:
 Original cell was already a primitive cell.

[...]

The dynamic configuration has the point symmetry C_1 .

Analysis of constrained symmetry for selective dynamics:
 Subroutine PRICEL returns:
 Original cell was already a primitive cell.

[...]

The constrained configuration has the point symmetry C_1 .

Analysis of structural, dynamic, and magnetic symmetry:
 Subroutine PRICEL returns:
 Original cell was already a primitive cell.

 Routine SETGRP: Setting up the symmetry group for a
 hexagonal supercell.

 Subroutine GETGRP returns: Found  1 space group operations
 (whereof  1 operations were pure point group operations)
 out of a pool of 24 trial point group operations.

The magnetic configuration has the point symmetry C_1 .

 Subroutine INISYM returns: Found  1 space group operations
 (whereof  1 operations are pure point group operations),
 and found     1 'primitive' translations

 KPOINTS: mesh auto

Automatic generation of k-mesh.
Space group operators:
 irot       det(A)        alpha          n_x          n_y          n_z        tau_x        tau_y        tau_z
    1     1.000000     0.000001     1.000000     0.000000     0.000000     0.000000     0.000000     0.000000

 Subroutine IBZKPT returns following result:

 Found      4 irreducible k-points:

 Following reciprocal coordinates:
            Coordinates               Weight
  0.000000  0.000000  0.000000      1.000000
  0.500000  0.000000  0.000000      1.000000
  0.000000  0.500000  0.000000      1.000000
  0.500000  0.500000  0.000000      1.000000

 Following cartesian coordinates:
            Coordinates               Weight
  0.000000  0.000000  0.000000      1.000000
  0.047348 -0.027337  0.000000      1.000000
  0.000000  0.054673  0.000000      1.000000
  0.047348  0.027337  0.000000      1.000000

 TETIRR: Found     12 inequivalent tetrahedra from       24
 BZINTS: Fermi energy:  2.056411;778.000000 electrons
         Band energy:-677.245134;  BLOECHL correction: -0.234103