 vasp.5.4.4.18Apr17-6-g9f103f2a35 (build Oct 25 2019 11:13:22) complex

 executed on             LinuxIFC date 2021.11.08  08:52:43

 INCAR:
 POTCAR:    PAW_PBE Pt 04Feb2005
 POTCAR:    PAW_PBE Fe 06Sep2000
 POTCAR:    PAW_PBE Co 02Aug2007
 POTCAR:    PAW_PBE Cu 22Jun2005
 POTCAR:    PAW_PBE Ni 02Aug2007
 POTCAR:    PAW_PBE H 15Jun2001

 POTCAR:    PAW_PBE Pt 04Feb2005
   VRHFIN =Pt: s1d9

   TITEL  = PAW_PBE Pt 04Feb2005
   POMASS =  195.080; ZVAL   =   10.000    mass and valenz
   ENMAX  =  230.283; ENMIN  =  172.712 eV

 POTCAR:    PAW_PBE Fe 06Sep2000
   VRHFIN =Fe:  d7 s1

   TITEL  = PAW_PBE Fe 06Sep2000
   POMASS =   55.847; ZVAL   =    8.000    mass and valenz
   ENMAX  =  267.882; ENMIN  =  200.911 eV

 POTCAR:    PAW_PBE Co 02Aug2007
   VRHFIN =Co: d8 s1

   TITEL  = PAW_PBE Co 02Aug2007
   POMASS =   58.933; ZVAL   =    9.000    mass and valenz
   ENMAX  =  267.968; ENMIN  =  200.976 eV

 POTCAR:    PAW_PBE Cu 22Jun2005
   VRHFIN =Cu: d10 p1

   TITEL  = PAW_PBE Cu 22Jun2005
   POMASS =   63.546; ZVAL   =   11.000    mass and valenz
   ENMAX  =  295.446; ENMIN  =  221.585 eV

 POTCAR:    PAW_PBE Ni 02Aug2007
   VRHFIN =Ni:

   TITEL  = PAW_PBE Ni 02Aug2007
   POMASS =   58.690; ZVAL   =   10.000    mass and valenz
   ENMAX  =  269.532; ENMIN  =  202.149 eV

 POTCAR:    PAW_PBE H 15Jun2001
   VRHFIN =H: ultrasoft test

   TITEL  = PAW_PBE H 15Jun2001
   POMASS =    1.000; ZVAL   =    1.000    mass and valenz
   ENMAX  =  250.000; ENMIN  =  200.000 eV

 Optimization of the real space projectors (new method)

 maximal supplied QI-value         = 14.36
 optimisation between [QCUT,QGAM] = [ 11.92, 23.98] = [ 39.79,161.09] Ry
 Optimized for a Real-space Cutoff    1.49 Angstroem

   l    n(q)    QCUT    max X(q) W(low)/X(q) W(high)/X(q)  e(spline)
   2     10    11.920    66.195    0.79E-04    0.18E-03    0.24E-06
   2     10    11.920    64.643    0.81E-04    0.19E-03    0.24E-06
   0     11    11.920    95.520    0.28E-04    0.54E-04    0.18E-06
   0     11    11.920    63.403    0.27E-04    0.52E-04    0.17E-06
   1     10    11.920    19.961    0.18E-04    0.11E-03    0.23E-06
   1     10    11.920    13.289    0.25E-04    0.87E-04    0.19E-06
 Optimization of the real space projectors (new method)

[...]

   l    n(q)    QCUT    max X(q) W(low)/X(q) W(high)/X(q)  e(spline)
   2      9    11.864    60.317    0.21E-03    0.51E-03    0.25E-06
   2      9    11.864    55.921    0.21E-03    0.51E-03    0.26E-06
   0      9    11.864    51.690    0.22E-03    0.30E-04    0.17E-06
   0      9    11.864    30.015    0.20E-03    0.28E-04    0.15E-06
   1      9    11.864    18.849    0.76E-04    0.33E-03    0.17E-06
   1      9    11.864    14.624    0.60E-04    0.28E-03    0.15E-06
 Optimization of the real space projectors (new method)

 maximal supplied QI-value         = 34.20
 optimisation between [QCUT,QGAM] = [ 11.97, 23.94] = [ 40.13,160.53] Ry
 Optimized for a Real-space Cutoff    1.18 Angstroem

   l    n(q)    QCUT    max X(q) W(low)/X(q) W(high)/X(q)  e(spline)
   0      8    11.971    19.460    0.15E-03    0.31E-03    0.25E-06
   0      8    11.971    12.209    0.13E-03    0.29E-03    0.25E-06
   1      8    11.971     4.655    0.22E-03    0.24E-03    0.21E-06
  PAW_PBE Pt 04Feb2005                  :
  PAW_PBE Fe 06Sep2000                  :
  PAW_PBE Co 02Aug2007                  :
  PAW_PBE Cu 22Jun2005                  :
  PAW_PBE Ni 02Aug2007                  :
  PAW_PBE H 15Jun2001                   :

 POSCAR: 10.46-high
  positions in cartesian coordinates
 exchange correlation table for  LEXCH =        8
   RHO(1)=    0.500       N(1)  =     2000
   RHO(2)=  100.500       N(2)  =     4000

 ion  position               nearest neighbor table
   1  0.779  0.867  0.324-  23 2.59  33 2.61   3 2.62  65 2.62  41 2.67  32 2.70   2 2.70  56 2.71
                            15 2.71  40 2.88   8 3.15  16 3.27
   2  0.036  0.869  0.326-  26 2.59  34 2.62  41 2.63  58 2.64   3 2.64  38 2.69   1 2.70  32 2.74
                            10 2.74  79 2.77  20 2.85   8 3.06
   3  0.031  0.619  0.326-   1 2.62   4 2.63   2 2.64   6 2.64  50 2.67  33 2.69  32 2.70  34 2.72
                            68 2.75   9 2.79  20 2.88  16 3.21
   4  0.029  0.368  0.325-  77 2.57  26 2.60   3 2.63  33 2.65  50 2.65   6 2.69   5 2.72  36 2.73
                            11 2.79  42 2.80  14 2.86   9 2.87
   5  0.288  0.108  0.324-  58 2.53  65 2.55  61 2.59  26 2.62  23 2.62   6 2.71   4 2.72  39 2.73
                            36 2.73  12 2.74  14 2.89  17 2.93
   6  0.286  0.369  0.324-  23 2.62   3 2.64  22 2.67  34 2.67  68 2.69   4 2.69  71 2.71   5 2.71
                            36 2.72   9 2.83  17 2.87  29 2.88
   7  0.865  0.705  0.122-  43 2.51  74 2.52  60 2.55  55 2.56  45 2.63  56 2.63  69 2.65  64 2.66
                            72 2.66  32 2.67  25 2.69  50 2.75
   8  0.872  0.953  0.447-  81 1.76  13 2.62  21 2.64  20 2.64  16 2.64  10 2.64  15 2.64   2 3.06
                             1 3.15  41 3.16
   9  0.120  0.454  0.433-  11 2.60  20 2.61  29 2.63  14 2.63  16 2.65  17 2.65   3 2.79   6 2.83
                             4 2.87
  10  0.122  0.952  0.429-  14 2.61  13 2.61  12 2.61  18 2.62  20 2.62   8 2.64   2 2.74  58 2.82
                            26 2.83
  11  0.872  0.454  0.434-  19 2.60   9 2.60  31 2.60  14 2.63  16 2.64  13 2.64   4 2.79  33 2.87
                            77 2.92
  12  0.373  0.950  0.430-  18 2.58  31 2.60  10 2.61  15 2.62  17 2.62  14 2.63   5 2.74  65 2.77
                            58 2.84
  13  0.872  0.201  0.430-  21 2.61  19 2.61  10 2.61  14 2.62   8 2.62  11 2.64  26 2.83  77 2.83
                            41 2.84
  14  0.122  0.202  0.435-  10 2.61  13 2.62  17 2.62  11 2.63   9 2.63  12 2.63   4 2.86   5 2.89
                            26 2.99
  15  0.624  0.949  0.430-  31 2.60  12 2.62  17 2.63  21 2.64   8 2.64  16 2.65   1 2.71  23 2.82
                            65 2.87
  16  0.871  0.702  0.456-  81 1.75  11 2.64   8 2.64   9 2.65  31 2.65  15 2.65  20 2.67   3 3.21
                             1 3.27  33 3.35
  17  0.373  0.200  0.435-  21 2.62  12 2.62  14 2.62  15 2.63  29 2.63   9 2.65   6 2.87  23 2.89
                             5 2.93
  18  0.374  0.703  0.431-  12 2.58  31 2.59  10 2.62  19 2.63  20 2.63  29 2.63  51 2.73  34 2.78
                            58 2.84
  19  0.625  0.452  0.427-  11 2.60  31 2.60  13 2.61  18 2.63  21 2.63  29 2.64  51 2.71  77 2.71
                            22 2.76
  20  0.123  0.702  0.435-   9 2.61  29 2.61  10 2.62  18 2.63   8 2.64  16 2.67   2 2.85  34 2.87
                             3 2.88
  21  0.622  0.202  0.430-  13 2.61  29 2.62  17 2.62  19 2.63  15 2.64   8 2.64  41 2.81  22 2.83
                            23 2.86
  22  0.539  0.373  0.322-  77 2.53  51 2.58  34 2.61  41 2.61  30 2.64  70 2.66   6 2.67  23 2.71
                            71 2.74  19 2.76  21 2.83  29 2.92
  23  0.534  0.116  0.321-   1 2.59   6 2.62   5 2.62  41 2.64  65 2.67  71 2.71  22 2.71  40 2.76
                            39 2.77  15 2.82  21 2.86  17 2.89
  24  0.539  0.118  0.032-  63 2.57  46 2.57  55 2.58  66 2.61  43 2.64  52 2.64  54 2.65  62 2.68
                            67 2.68
  25  0.123  0.448  0.123-  54 2.50  48 2.52  73 2.58  63 2.59  45 2.60  76 2.63  64 2.63  36 2.65
                            68 2.66  72 2.67   7 2.69  50 2.77
  26  0.034  0.118  0.320-  61 2.58  41 2.59   2 2.59   4 2.60   5 2.62  79 2.64  77 2.65  58 2.66
                            42 2.67  13 2.83  10 2.83  14 2.99
  27  0.033  0.126  0.027-  48 2.58  78 2.61  52 2.61  73 2.61  66 2.61  49 2.62  28 2.64  59 2.70
                            44 2.70
  28  0.114  0.959  0.126-  79 2.57  73 2.59  44 2.60  69 2.61  59 2.62  49 2.63  47 2.63  38 2.64
                            27 2.64  61 2.66  64 2.67  35 2.74
  29  0.372  0.452  0.435-  20 2.61  21 2.62  17 2.63   9 2.63  18 2.63  19 2.64  34 2.88   6 2.88
                            22 2.92
  30  0.454  0.529  0.220-  71 2.56  70 2.57  76 2.60  68 2.61  57 2.62  22 2.64  35 2.65  37 2.65
                            80 2.66  38 2.69  34 2.73  51 2.80
  31  0.622  0.702  0.434-  18 2.59  19 2.60  11 2.60  15 2.60  12 2.60  16 2.65  33 2.80  51 2.82
                            65 2.86
  32  0.949  0.783  0.224-  50 2.58  56 2.60  68 2.62  64 2.65  79 2.66   7 2.67  40 2.69   1 2.70
                            38 2.70   3 2.70   2 2.74  69 2.74
  33  0.774  0.620  0.323-  51 2.51  65 2.54  77 2.55   1 2.61  50 2.65   4 2.65  37 2.66   3 2.69
                            56 2.71  31 2.80  11 2.87  16 3.35
  34  0.290  0.622  0.325-  51 2.54  58 2.54  22 2.61   2 2.62   6 2.67  38 2.70   3 2.72  30 2.73
                            68 2.75  18 2.78  20 2.87  29 2.88
  35  0.378  0.700  0.123-  53 2.48  59 2.53  75 2.54  60 2.57  57 2.59  47 2.60  30 2.65  64 2.68
                            76 2.68  80 2.70  38 2.73  28 2.74
  36  0.199  0.285  0.223-  73 2.61  71 2.61  61 2.62  50 2.63  63 2.63  68 2.63  25 2.65  42 2.65
                            39 2.69   6 2.72   4 2.73   5 2.73
  37  0.699  0.545  0.219-  56 2.52  80 2.54  60 2.55  50 2.57  72 2.60  57 2.61  30 2.65  33 2.66
                            42 2.68  70 2.69  77 2.75  51 2.79
  38  0.202  0.792  0.224-  61 2.52  80 2.58  58 2.59  79 2.62  28 2.64  64 2.66  68 2.69  30 2.69
                             2 2.69  32 2.70  34 2.70  35 2.73
  39  0.451  0.023  0.219-  80 2.50  61 2.53  47 2.53  56 2.54  55 2.55  63 2.60  40 2.68  36 2.69
                            65 2.70   5 2.73  71 2.75  23 2.77
  40  0.696  0.043  0.215-  46 2.54  69 2.56  70 2.57  71 2.59  55 2.59  79 2.61  56 2.68  39 2.68
                            32 2.69  23 2.76  41 2.76   1 2.88
  41  0.785  0.120  0.321-  26 2.59  22 2.61  77 2.62   2 2.63  23 2.64  79 2.65  70 2.66   1 2.67
                            40 2.76  21 2.81  13 2.84   8 3.16
  42  0.947  0.281  0.218-  49 2.52  79 2.55  70 2.55  72 2.57  73 2.62  36 2.65  61 2.67  26 2.67
                            50 2.68  37 2.68  77 2.73   4 2.80
  43  0.789  0.864  0.029-   7 2.51  69 2.56  45 2.62  67 2.63  24 2.64  55 2.64  74 2.65  66 2.67
                            44 2.67
  44  0.045  0.863  0.030-  75 2.54  45 2.58  64 2.58  28 2.60  59 2.60  69 2.61  43 2.67  66 2.70
                            27 2.70
  45  0.042  0.618  0.028-  75 2.52  54 2.57  44 2.58  25 2.60  64 2.61  43 2.62  48 2.62   7 2.63
                            74 2.72
  46  0.618  0.214  0.124-  76 2.47  57 2.50  40 2.54  49 2.54  62 2.55  70 2.55  24 2.57  71 2.62
                            66 2.63  69 2.64  63 2.64  55 2.85
  47  0.369  0.952  0.123-  52 2.46  59 2.49  55 2.52  39 2.53  67 2.56  73 2.60  35 2.60  60 2.60
                            63 2.62  28 2.63  61 2.71  80 2.74
  48  0.025  0.377  0.032-  72 2.47  74 2.50  25 2.52  78 2.55  73 2.57  27 2.58  45 2.62  52 2.75
                            54 2.76
  49  0.863  0.211  0.123-  78 2.46  57 2.51  72 2.52  42 2.52  46 2.54  66 2.59  70 2.60  27 2.62
                            28 2.63  69 2.63  79 2.65  73 2.68
  50  0.948  0.537  0.226-  37 2.57  32 2.58  56 2.61  36 2.63  68 2.65  33 2.65   4 2.65   3 2.67
[...]
     12.71905      4.86079      4.97755        -0.047408     -0.010630     -0.070231
      8.83118      5.63829      7.17452        -0.007949     -0.014902     -0.003637
      3.61116      1.03011      0.71575         0.024121     -0.003037      0.005407
      8.96244      5.55017      0.78359        -0.032523     -0.025544     -0.010852
      4.99011      3.39374      0.70946        -0.003951      0.015489      0.003128
     11.35685      8.54256      2.74103         0.017362     -0.005015      0.004067
     11.41974      7.11664      4.85312        -0.031341      0.001617     -0.085923
      8.87054      4.07764      2.72515         0.041687      0.000100      0.002964
      7.55854      7.83803      7.06195        -0.016623     -0.025751     -0.023507
      7.58345      7.86427      0.68786         0.011940      0.000761     -0.009164
     10.17979      6.39732      2.73108         0.032892      0.010305      0.066948
[...]
     10.14167      7.81097      0.64587         0.008203     -0.009119      0.006848
      4.90924      4.84723      4.90184         0.002631     -0.050632     -0.008321
     14.05673      8.67588      2.68456        -0.000664     -0.003502     -0.006104
      8.83290      2.58989      4.85900        -0.005056     -0.025454      0.043380
      6.18453      2.60592      4.85170        -0.012043      0.027430      0.007677
     11.42400      4.06434      2.72845        -0.005026      0.026564     -0.011584
      2.34232      1.83008      2.72921        -0.009504      0.030036     -0.008514
     11.41431      5.56039      0.71047        -0.026396     -0.001702      0.023280
      6.18959      5.58046      0.74095        -0.009692      0.000149     -0.009660
      6.25827      4.02492      2.70387         0.009376     -0.017235     -0.010160
     10.11848      3.37360      7.08456        -0.006642      0.001551     -0.007738
     10.13694      3.37925      0.73892        -0.010740      0.008446      0.015829
     10.11248      0.34012      4.85224        -0.025444     -0.020177      0.052742
      8.83182      7.10221      4.97875        -0.024704      0.011614     -0.001602
     13.55057      7.53187     11.06957        -0.011535      0.033204      0.159695
    total drift:                                0.029459     -0.008132     -0.024887

  FREE ENERGIE OF THE ION-ELECTRON SYSTEM (eV)
  free  energy   TOTEN  =      -515.71437725 eV

  energy  without entropy=     -515.71437725  energy(sigma->0) =     -515.71437725

 d Force =-0.1080507E-02[-0.479E-02, 0.263E-02]  d Energy =-0.9959037E-03-0.846E-04
 d Force =-0.1022921E+02[-0.103E+02,-0.102E+02]  d Ewald  =-0.1022939E+02 0.172E-03

 Finite differences progress:
  Degree of freedom:   3/  3
  Displacement:        2/  2
  Total:               6/  6

 SECOND DERIVATIVES (NOT SYMMETRIZED)
              81X         81Y         81Z
 81X    -1.086566   -0.846268   -0.621167
 81Y    -0.865946   -1.978613   -0.311587
 81Z    -0.625555   -0.324201   -8.245191

 Eigenvectors and eigenvalues of the dynamical matrix

   1 f  =   45.102689 THz   283.388553 2PiTHz 1504.463718 cm-1   186.529795 meV
             X         Y         Z           dx          dy          dz
     12.686410  7.854190  7.135023            0           0           0
      4.924045  7.869894  7.161134            0           0           0
      3.566555  5.607585  7.177546            0           0           0
      2.229816  3.337524  7.150808            0           0           0
      3.581622  0.979144  7.117522            0           0           0
      4.924255  3.338605  7.132692            0           0           0
     12.731512  6.386202  2.690597            0           0           0
     14.107656  8.633428  9.835335            0           0           0
      3.629621  4.114203  9.531480            0           0           0
      6.260856  8.626858  9.433261            0           0           0
     11.490951  4.110895  9.551056            0           0           0
      8.873146  8.608399  9.458071            0           0           0
     10.173515  1.821539  9.450166            0           0           0
      2.327560  1.828047  9.577086            0           0           0
     11.490807  8.600698  9.454660            0           0           0
     12.780886  6.357486 10.039643            0           0           0
      4.949943  1.815548  9.565281            0           0           0
      7.586664  6.369465  9.492368            0           0           0
      8.898961  4.097777  9.397962            0           0           0
      4.955992  6.355845  9.580761            0           0           0
      7.565066  1.831877  9.454022            0           0           0
      7.590241  3.377712  7.078436            0           0           0
      6.198394  1.054952  7.070379            0           0           0
      6.252151  1.069120  0.712476            0           0           0
      3.629947  4.060530  2.703952            0           0           0
      0.968005  1.065385  7.029160            0           0           0
      1.009994  1.144150  0.595390            0           0           0
      6.209486  8.689384  2.763651            0           0           0
      6.260454  4.095961  9.571995            0           0           0
      7.513452  4.796155  4.848780            0           0           0
     10.176028  6.354779  9.544981            0           0           0
     14.020167  7.090550  4.919448            0           0           0
     11.336356  5.618542  7.110584            0           0           0
      6.290819  5.635420  7.141312            0           0           0
      7.608368  6.338105  2.701617            0           0           0
      3.570795  2.579196  4.901762            0           0           0
     10.156428  4.936169  4.822298            0           0           0
      6.255588  7.172819  4.925673            0           0           0
      4.835716  0.206390  4.815478            0           0           0
      7.507131  0.386266  4.739423            0           0           0
      8.836464  1.085514  7.056317            0           0           0
     11.380678  2.548167  4.803738            0           0           0
     12.770488  7.830531  0.633320            0           0           0
      4.982628  7.814221  0.650337            0           0           0
      3.669646  5.596209  0.612247            0           0           0
      7.579688  1.938875  2.735304            0           0           0
      8.838755  8.623691  2.695591            0           0           0
      2.230602  3.411877  0.708775            0           0           0
     10.123894  1.908403  2.712351            0           0           0
     12.719051  4.860790  4.977551            0           0           0
      8.831181  5.638293  7.174524            0           0           0
      3.611159  1.030107  0.715746            0           0           0
      8.962440  5.550174  0.783586            0           0           0
      4.990107  3.393744  0.709460            0           0           0
     11.356853  8.542558  2.741032            0           0           0
     11.419743  7.116638  4.853119            0           0           0
      8.870541  4.077644  2.725148            0           0           0
      7.558542  7.838026  7.061949            0           0           0
      7.583454  7.864267  0.687861            0           0           0
     10.179788  6.397321  2.731078            0           0           0
[...]
     10.141670  7.810971  0.645866            0           0           0
      4.909237  4.847227  4.901839            0           0           0
     14.056726  8.675881  2.684563            0           0           0
      8.832903  2.589890  4.859003            0           0           0
      6.184535  2.605925  4.851696            0           0           0
     11.424000  4.064340  2.728447            0           0           0
      2.342315  1.830083  2.729215            0           0           0
     11.414307  5.560394  0.710474            0           0           0
      6.189591  5.580463  0.740954            0           0           0
      6.258266  4.024923  2.703874            0           0           0
     10.118481  3.373595  7.084564            0           0           0
     10.136941  3.379254  0.738921            0           0           0
     10.112477  0.340119  4.852238            0           0           0
      8.831820  7.102214  4.978755            0           0           0
     13.550566  7.531867 11.084567     0.092969    0.062332    0.993716

[...]

   3 f  =   11.585851 THz    72.796051 2PiTHz  386.462391 cm-1    47.915247 meV
             X         Y         Z           dx          dy          dz
     12.686410  7.854190  7.135023            0           0           0
      4.924045  7.869894  7.161134            0           0           0
      3.566555  5.607585  7.177546            0           0           0
      2.229816  3.337524  7.150808            0           0           0
      3.581622  0.979144  7.117522            0           0           0
      4.924255  3.338605  7.132692            0           0           0
     12.731512  6.386202  2.690597            0           0           0
     14.107656  8.633428  9.835335            0           0           0
      3.629621  4.114203  9.531480            0           0           0
      6.260856  8.626858  9.433261            0           0           0
     11.490951  4.110895  9.551056            0           0           0
      8.873146  8.608399  9.458071            0           0           0
     10.173515  1.821539  9.450166            0           0           0
      2.327560  1.828047  9.577086            0           0           0
     11.490807  8.600698  9.454660            0           0           0
     12.780886  6.357486 10.039643            0           0           0
      4.949943  1.815548  9.565281            0           0           0
      7.586664  6.369465  9.492368            0           0           0
      8.898961  4.097777  9.397962            0           0           0
      4.955992  6.355845  9.580761            0           0           0
      7.565066  1.831877  9.454022            0           0           0
      7.590241  3.377712  7.078436            0           0           0
      6.198394  1.054952  7.070379            0           0           0
      6.252151  1.069120  0.712476            0           0           0
      3.629947  4.060530  2.703952            0           0           0
      0.968005  1.065385  7.029160            0           0           0
      1.009994  1.144150  0.595390            0           0           0
      6.209486  8.689384  2.763651            0           0           0
      6.260454  4.095961  9.571995            0           0           0
      7.513452  4.796155  4.848780            0           0           0
     10.176028  6.354779  9.544981            0           0           0
     14.020167  7.090550  4.919448            0           0           0
     11.336356  5.618542  7.110584            0           0           0
      6.290819  5.635420  7.141312            0           0           0
      7.608368  6.338105  2.701617            0           0           0
      3.570795  2.579196  4.901762            0           0           0
     10.156428  4.936169  4.822298            0           0           0
      6.255588  7.172819  4.925673            0           0           0
      4.835716  0.206390  4.815478            0           0           0
      7.507131  0.386266  4.739423            0           0           0
      8.836464  1.085514  7.056317            0           0           0
     11.380678  2.548167  4.803738            0           0           0
     12.770488  7.830531  0.633320            0           0           0
      4.982628  7.814221  0.650337            0           0           0
      3.669646  5.596209  0.612247            0           0           0
      7.579688  1.938875  2.735304            0           0           0
      8.838755  8.623691  2.695591            0           0           0
      2.230602  3.411877  0.708775            0           0           0
     10.123894  1.908403  2.712351            0           0           0
     12.719051  4.860790  4.977551            0           0           0
      8.831181  5.638293  7.174524            0           0           0
      3.611159  1.030107  0.715746            0           0           0
      8.962440  5.550174  0.783586            0           0           0
      4.990107  3.393744  0.709460            0           0           0
     11.356853  8.542558  2.741032            0           0           0
     11.419743  7.116638  4.853119            0           0           0
      8.870541  4.077644  2.725148            0           0           0
      7.558542  7.838026  7.061949            0           0           0
      7.583454  7.864267  0.687861            0           0           0
     10.179788  6.397321  2.731078            0           0           0
[...]
     10.141670  7.810971  0.645866            0           0           0
      4.909237  4.847227  4.901839            0           0           0
     14.056726  8.675881  2.684563            0           0           0
      8.832903  2.589890  4.859003            0           0           0
      6.184535  2.605925  4.851696            0           0           0
     11.424000  4.064340  2.728447            0           0           0
      2.342315  1.830083  2.729215            0           0           0
     11.414307  5.560394  0.710474            0           0           0
      6.189591  5.580463  0.740954            0           0           0
      6.258266  4.024923  2.703874            0           0           0
     10.118481  3.373595  7.084564            0           0           0
     10.136941  3.379254  0.738921            0           0           0
     10.112477  0.340119  4.852238            0           0           0
      8.831820  7.102214  4.978755            0           0           0
     13.550566  7.531867 11.084567     0.861627   -0.505178   -0.048923

 Finite differences POTIM=  1.500000000000000E-002
  LATTYP: Found a hexagonal cell.
 ALAT       =    10.4600000381
 C/A-ratio  =     2.1032504704

  Lattice vectors:

 A1 = (   5.2300000190,  -9.0586257566,   0.0000000000)
 A2 = ( -10.4600000381,   0.0000000000,   0.0000000000)
 A3 = (   0.0000000000,   0.0000000000, -22.0000000000)

Analysis of symmetry for initial positions (statically):
 Subroutine PRICEL returns:
 Original cell was already a primitive cell.

[...]

The static configuration has the point symmetry C_1 .

Analysis of symmetry for dynamics (positions and initial velocities):
 Subroutine PRICEL returns:
 Original cell was already a primitive cell.

[...]

The dynamic configuration has the point symmetry C_1 .

Analysis of constrained symmetry for selective dynamics:
 Subroutine PRICEL returns:
 Original cell was already a primitive cell.

[...]

The constrained configuration has the point symmetry C_1 .

Analysis of structural, dynamic, and magnetic symmetry:
 Subroutine PRICEL returns:
 Original cell was already a primitive cell.

 Routine SETGRP: Setting up the symmetry group for a
 hexagonal supercell.

 Subroutine GETGRP returns: Found  1 space group operations
 (whereof  1 operations were pure point group operations)
 out of a pool of 24 trial point group operations.

The magnetic configuration has the point symmetry C_1 .

 Subroutine INISYM returns: Found  1 space group operations
 (whereof  1 operations are pure point group operations),
 and found     1 'primitive' translations

 KPOINTS: mesh auto

Automatic generation of k-mesh.
Space group operators:
 irot       det(A)        alpha          n_x          n_y          n_z        tau_x        tau_y        tau_z
    1     1.000000     0.000000     1.000000     0.000000     0.000000     0.000000     0.000000     0.000000

 Subroutine IBZKPT returns following result:

 Found      4 irreducible k-points:

 Following reciprocal coordinates:
            Coordinates               Weight
  0.000000  0.000000  0.000000      1.000000
  0.500000 -0.000000  0.000000      1.000000
  0.000000  0.500000  0.000000      1.000000
  0.500000  0.500000  0.000000      1.000000

 Following cartesian coordinates:
            Coordinates               Weight
  0.000000  0.000000  0.000000      1.000000
  0.047801 -0.027598  0.000000      1.000000
  0.000000  0.055196  0.000000      1.000000
  0.047801  0.027598  0.000000      1.000000

 TETIRR: Found     12 inequivalent tetrahedra from       24
 BZINTS: Fermi energy:  2.591944;782.000000 electrons
         Band energy:-397.311102;  BLOECHL correction: -0.193782