 vasp.5.4.4.18Apr17-6-g9f103f2a35 (build Oct 25 2019 11:13:22) complex

 executed on             LinuxIFC date 2021.10.16  13:06:38

 INCAR:
 POTCAR:    PAW_PBE Pt 04Feb2005
 POTCAR:    PAW_PBE Fe 06Sep2000
 POTCAR:    PAW_PBE Co 02Aug2007
 POTCAR:    PAW_PBE Cu 22Jun2005
 POTCAR:    PAW_PBE Ni 02Aug2007
 POTCAR:    PAW_PBE H 15Jun2001
 POTCAR:    PAW_PBE Pt 04Feb2005
   VRHFIN =Pt: s1d9

   TITEL  = PAW_PBE Pt 04Feb2005
   POMASS =  195.080; ZVAL   =   10.000    mass and valenz
   ENMAX  =  230.283; ENMIN  =  172.712 eV

 POTCAR:    PAW_PBE Fe 06Sep2000
   VRHFIN =Fe:  d7 s1

   TITEL  = PAW_PBE Fe 06Sep2000
   POMASS =   55.847; ZVAL   =    8.000    mass and valenz
   ENMAX  =  267.882; ENMIN  =  200.911 eV

 POTCAR:    PAW_PBE Co 02Aug2007
   VRHFIN =Co: d8 s1

   TITEL  = PAW_PBE Co 02Aug2007
   POMASS =   58.933; ZVAL   =    9.000    mass and valenz
   ENMAX  =  267.968; ENMIN  =  200.976 eV

 POTCAR:    PAW_PBE Cu 22Jun2005
   VRHFIN =Cu: d10 p1

   TITEL  = PAW_PBE Cu 22Jun2005
   POMASS =   63.546; ZVAL   =   11.000    mass and valenz
   ENMAX  =  295.446; ENMIN  =  221.585 eV

 POTCAR:    PAW_PBE Ni 02Aug2007
   VRHFIN =Ni:

   TITEL  = PAW_PBE Ni 02Aug2007
   POMASS =   58.690; ZVAL   =   10.000    mass and valenz
   ENMAX  =  269.532; ENMIN  =  202.149 eV

 POTCAR:    PAW_PBE H 15Jun2001
   VRHFIN =H: ultrasoft test

   TITEL  = PAW_PBE H 15Jun2001
   POMASS =    1.000; ZVAL   =    1.000    mass and valenz
   ENMAX  =  250.000; ENMIN  =  200.000 eV

 Optimization of the real space projectors (new method)

 maximal supplied QI-value         = 14.36
 optimisation between [QCUT,QGAM] = [ 11.92, 23.98] = [ 39.79,161.09] Ry
 Optimized for a Real-space Cutoff    1.49 Angstroem

   l    n(q)    QCUT    max X(q) W(low)/X(q) W(high)/X(q)  e(spline)
   2     10    11.920    66.195    0.79E-04    0.18E-03    0.24E-06
   2     10    11.920    64.643    0.81E-04    0.19E-03    0.24E-06
   0     11    11.920    95.520    0.28E-04    0.54E-04    0.18E-06
   0     11    11.920    63.403    0.27E-04    0.52E-04    0.17E-06
   1     10    11.920    19.961    0.18E-04    0.11E-03    0.23E-06
   1     10    11.920    13.289    0.25E-04    0.87E-04    0.19E-06
 Optimization of the real space projectors (new method)

[...]

   l    n(q)    QCUT    max X(q) W(low)/X(q) W(high)/X(q)  e(spline)
   2      9    11.864    60.317    0.21E-03    0.51E-03    0.25E-06
   2      9    11.864    55.921    0.21E-03    0.51E-03    0.26E-06
   0      9    11.864    51.690    0.22E-03    0.30E-04    0.17E-06
   0      9    11.864    30.015    0.20E-03    0.28E-04    0.15E-06
   1      9    11.864    18.849    0.76E-04    0.33E-03    0.17E-06
   1      9    11.864    14.624    0.60E-04    0.28E-03    0.15E-06
 Optimization of the real space projectors (new method)

 maximal supplied QI-value         = 34.20
 optimisation between [QCUT,QGAM] = [ 11.97, 23.94] = [ 40.13,160.53] Ry
 Optimized for a Real-space Cutoff    1.18 Angstroem

   l    n(q)    QCUT    max X(q) W(low)/X(q) W(high)/X(q)  e(spline)
   0      8    11.971    19.460    0.15E-03    0.31E-03    0.25E-06
   0      8    11.971    12.209    0.13E-03    0.29E-03    0.25E-06
   1      8    11.971     4.655    0.22E-03    0.24E-03    0.21E-06
  PAW_PBE Pt 04Feb2005                  :
  PAW_PBE Fe 06Sep2000                  :
  PAW_PBE Co 02Aug2007                  :
  PAW_PBE Cu 22Jun2005                  :
  PAW_PBE Ni 02Aug2007                  :
  PAW_PBE H 15Jun2001                   :

 POSCAR: 10.96
  positions in direct lattice
  velocities in cartesian coordinates
 exchange correlation table for  LEXCH =        8
   RHO(1)=    0.500       N(1)  =     2000
   RHO(2)=  100.500       N(2)  =     4000

 ion  position               nearest neighbor table
   1  0.787  0.880  0.313-  49 2.59  59 2.62  28 2.64  19 2.73  33 2.75  61 2.75  11 2.75  29 2.75
                            60 2.76   4 2.80   2 2.81  12 2.84
   2  0.043  0.881  0.311-  79 2.55  77 2.60  28 2.70  30 2.72  60 2.72  33 2.74  52 2.75   6 2.79
                            22 2.80   1 2.81   4 2.86  16 2.93
   3  0.279  0.379  0.316-  64 2.55  31 2.65  39 2.66  68 2.66  33 2.71   5 2.74  13 2.77  19 2.79
                            43 2.80  25 2.81  30 2.81  18 2.93
   4  0.870  0.965  0.418-  17 2.69  11 2.72   9 2.73  60 2.75  12 2.78   1 2.80   6 2.80  16 2.83
                             2 2.86
   5  0.118  0.465  0.420-  39 2.67  12 2.69   7 2.69  33 2.70  16 2.70  10 2.72   3 2.74  25 2.78
                            13 2.82
   6  0.127  0.963  0.416-   8 2.69  52 2.72  10 2.73  14 2.76   9 2.77   2 2.79   4 2.80  22 2.81
                            16 2.82
   7  0.876  0.457  0.420-  39 2.65  75 2.68   5 2.69   9 2.70  15 2.70  10 2.72  12 2.75  29 2.76
                            27 2.79
   8  0.374  0.960  0.415-  43 2.58  52 2.65  61 2.69   6 2.69  14 2.70  27 2.71  13 2.72  10 2.74
                            11 2.74
   9  0.872  0.214  0.414-  75 2.63  60 2.68   7 2.70  15 2.70  17 2.73   4 2.73   6 2.77  22 2.79
                            10 2.79
  10  0.127  0.213  0.416-  39 2.65  43 2.69  13 2.70   5 2.72   7 2.72   6 2.73   8 2.74  22 2.74
                             9 2.79
  11  0.625  0.959  0.417-  81 1.66  12 2.72  27 2.72   4 2.72  13 2.73   8 2.74   1 2.75  61 2.75
                            17 2.75  19 2.79
  12  0.873  0.710  0.420-  33 2.69   5 2.69  11 2.72  29 2.73  27 2.74   7 2.75  16 2.76   4 2.78
                             1 2.84
  13  0.376  0.208  0.418-  10 2.70  43 2.71   8 2.72  11 2.73  17 2.75  25 2.76  19 2.77   3 2.77
                             5 2.82
  14  0.379  0.711  0.417-  44 2.63  27 2.67  52 2.68   8 2.70  15 2.72  30 2.75   6 2.76  25 2.77
                            16 2.79
  15  0.627  0.462  0.417-  44 2.64  75 2.66   7 2.70   9 2.70  27 2.71  14 2.72  18 2.73  17 2.78
                            25 2.79
  16  0.127  0.706  0.421-  33 2.66   5 2.70  25 2.70  12 2.76  30 2.78  14 2.79   6 2.82   4 2.83
                             2 2.93
  17  0.625  0.210  0.416-  81 1.67   4 2.69  18 2.72   9 2.73  60 2.74  25 2.74  13 2.75  11 2.75
                            15 2.78  19 2.82
  18  0.547  0.377  0.315-  67 2.55  68 2.61  26 2.67  44 2.71  60 2.71  17 2.72  75 2.73  15 2.73
                            25 2.81  30 2.81  19 2.84   3 2.93
  19  0.534  0.125  0.312-  80 2.54  68 2.56  59 2.58  43 2.64   1 2.73  61 2.74  13 2.77  11 2.79
                             3 2.79  17 2.82  18 2.84  60 2.86
  20  0.552  0.123  0.049-  37 2.55  57 2.55  48 2.56  62 2.66  34 2.75  63 2.75  56 2.76  47 2.76
                            45 2.89
  21  0.118  0.455  0.128-  47 2.53  36 2.53  40 2.54  42 2.61  64 2.66  69 2.68  70 2.73  31 2.73
                            50 2.74  57 2.80  58 2.90  74 2.90
  22  0.046  0.135  0.312-  65 2.53  77 2.56  55 2.56  43 2.67  39 2.68  10 2.74  75 2.76   9 2.79
                             2 2.80  60 2.80   6 2.81  52 2.82  31 3.38
  23  0.033  0.135  0.038-  70 2.57  41 2.58  40 2.62  76 2.65  62 2.69  24 2.71  45 2.75  35 2.89
                            53 2.94
  24  0.132  0.957  0.134-  79 2.51  77 2.56  35 2.57  53 2.57  55 2.60  70 2.65  58 2.70  23 2.71
                            73 2.72  38 2.73  66 2.80  41 2.85
  25  0.374  0.460  0.419-  16 2.70  17 2.74  13 2.76  14 2.77   5 2.78  15 2.79  30 2.79   3 2.81
                            18 2.81
  26  0.457  0.549  0.219-  73 2.51  74 2.53  51 2.55  30 2.65  79 2.65  18 2.67  44 2.70  78 2.73
                            32 2.73  68 2.78  64 2.78  67 2.84
  27  0.622  0.712  0.418-  44 2.66  14 2.67  61 2.70  15 2.71   8 2.71  11 2.72  12 2.74  29 2.77
                             7 2.79
  28  0.956  0.783  0.218-  58 2.56  50 2.56  66 2.59   1 2.64  42 2.65  49 2.67  33 2.67   2 2.70
                            64 2.72  59 2.87  79 3.01  77 3.01
  29  0.798  0.623  0.317-  42 2.55  39 2.61  32 2.63  49 2.65  75 2.66  33 2.72  12 2.73   1 2.75
                             7 2.76  27 2.77  61 2.77  44 2.79
  30  0.288  0.631  0.315-  79 2.55  64 2.61  26 2.65  33 2.71  52 2.71   2 2.72  14 2.75  44 2.76
                            16 2.78  25 2.79   3 2.81  18 2.81
  31  0.199  0.277  0.225-  70 2.49  43 2.57  57 2.58  55 2.62  65 2.62  39 2.63   3 2.65  21 2.73
                            42 2.78  80 2.81  64 2.93  68 2.93  22 3.38
  32  0.705  0.552  0.221-  54 2.54  69 2.56  51 2.58  29 2.63  49 2.63  44 2.66  78 2.67  75 2.68
                            42 2.70  65 2.70  26 2.73  67 2.77
  33  0.041  0.633  0.321-  16 2.66  28 2.67  64 2.69  12 2.69   5 2.70   3 2.71  30 2.71  42 2.72
                            29 2.72   2 2.74   1 2.75  39 2.76
  34  0.792  0.862  0.051-  50 2.38  48 2.46  66 2.53  63 2.62  36 2.62  71 2.63  20 2.75  35 2.86
                            62 2.92
  35  0.053  0.862  0.044-  36 2.47  58 2.55  24 2.57  66 2.62  72 2.68  53 2.84  34 2.86  62 2.89
                            23 2.89
  36  0.046  0.641  0.046-  35 2.47  21 2.53  58 2.56  50 2.62  34 2.62  72 2.68  47 2.85  71 2.92
                            40 3.01
  37  0.628  0.229  0.134-  67 2.50  56 2.50  51 2.50  59 2.55  20 2.55  68 2.55  74 2.56  62 2.58
                            41 2.59  66 2.75  57 2.89
  38  0.383  0.953  0.133-  53 2.44  45 2.46  80 2.47  78 2.53  55 2.54  63 2.56  73 2.59  48 2.60
                            54 2.61  24 2.73  57 2.74  70 2.78
  39  0.035  0.384  0.321-  29 2.61  42 2.62  31 2.63  10 2.65   7 2.65   3 2.66  75 2.66   5 2.67
                            22 2.68  65 2.69  33 2.76  43 2.92
  40  0.016  0.382  0.041-  69 2.39  76 2.54  21 2.54  71 2.59  23 2.62  70 2.63  45 2.98  36 3.01

  41  0.870  0.217  0.132-  76 2.44  77 2.48  67 2.52  65 2.53  62 2.56  23 2.58  37 2.59  69 2.64
                            51 2.65  66 2.70  70 2.71  24 2.85
  42  0.956  0.541  0.224-  50 2.51  29 2.55  69 2.60  21 2.61  39 2.62  28 2.65  65 2.67  32 2.70
                            33 2.72  49 2.72  64 2.75  31 2.78
  43  0.299  0.115  0.319-  55 2.51  31 2.57   8 2.58  80 2.59  19 2.64  52 2.66  61 2.66  22 2.67
                            10 2.69  13 2.71   3 2.80  39 2.92
  44  0.542  0.627  0.320-  78 2.62  14 2.63  15 2.64  27 2.66  32 2.66  61 2.68  52 2.68  26 2.70
                            18 2.71  75 2.71  30 2.76  29 2.79
  45  0.293  0.115  0.045-  38 2.46  70 2.49  53 2.58  57 2.62  63 2.72  23 2.75  20 2.89  47 2.98
                            40 2.98
  46  0.552  0.623  0.048-  51 2.40  54 2.41  73 2.41  71 2.59  76 2.68  53 2.72  63 2.73  56 2.74
                            72 2.78
  47  0.306  0.380  0.047-  74 2.34  21 2.53  56 2.59  57 2.60  72 2.61  20 2.76  36 2.85  45 2.98

  48  0.624  0.945  0.136-  49 2.37  34 2.46  80 2.47  54 2.50  63 2.53  20 2.56  59 2.58  38 2.60
                            50 2.66  57 2.78  66 2.84
  49  0.708  0.790  0.221-  48 2.37  50 2.44  54 2.49   1 2.59  61 2.63  32 2.63  29 2.65  80 2.65
                            28 2.67  78 2.69  42 2.72  59 2.86
  50  0.861  0.697  0.132-  34 2.38  71 2.38  49 2.44  54 2.50  42 2.51  28 2.56  69 2.57  36 2.62
                            48 2.66  21 2.74
[...]
   0.392E+02 -.106E+02 -.146E+04   -.407E+02 0.107E+02 0.145E+04   0.158E+01 -.130E+00 0.193E+01   -.832E-02 0.728E-02 -.154E-01
   0.625E+00 0.382E+02 -.278E+04   0.572E+00 -.383E+02 0.278E+04   -.123E+01 0.109E+00 0.179E+01   0.152E-01 0.394E-02 -.352E-01
   -.182E+02 0.489E+01 -.280E+04   0.174E+02 -.427E+01 0.279E+04   0.677E+00 -.600E+00 0.196E+01   0.198E-01 -.676E-02 0.288E-02
   0.105E+02 0.157E+01 -.279E+04   -.104E+02 -.193E+01 0.279E+04   -.663E-01 0.334E+00 0.159E+01   -.356E-02 0.865E-02 -.228E-01
   -.254E+02 -.855E+01 -.284E+04   0.254E+02 0.789E+01 0.284E+04   0.123E-02 0.619E+00 0.205E+01   0.102E-02 0.387E-02 -.114E-01
   0.158E+02 -.251E+02 -.282E+04   -.163E+02 0.251E+02 0.282E+04   0.610E+00 -.532E-02 0.242E+01   0.494E-02 0.336E-02 -.920E-02
   -.261E+02 0.235E+02 -.282E+04   0.261E+02 -.232E+02 0.282E+04   -.430E-01 -.310E+00 0.167E+01   0.311E-01 -.140E-01 -.721E-02
   -.453E+01 0.539E+00 -.279E+04   0.509E+01 -.181E+00 0.278E+04   -.520E+00 -.335E+00 0.216E+01   -.921E-02 -.792E-02 -.112E-01
   -.139E+02 0.637E+01 -.282E+04   0.141E+02 -.664E+01 0.282E+04   -.184E+00 0.263E+00 0.259E-01   -.263E-01 0.396E-02 -.818E-02
   -.206E+02 -.705E+01 -.280E+04   0.208E+02 0.656E+01 0.280E+04   -.183E+00 0.504E+00 0.184E+01   0.641E-02 -.104E-01 0.788E-03
   -.337E+01 -.284E+02 -.279E+04   0.218E+01 0.284E+02 0.279E+04   0.126E+01 0.239E-01 0.196E+01   -.227E-01 -.258E-02 -.211E-01
   0.358E+02 0.168E+02 -.281E+04   -.351E+02 -.166E+02 0.281E+04   -.757E+00 -.255E+00 0.205E+01   -.269E-02 0.184E-04 0.635E-02
   0.288E+02 -.151E+02 -.283E+04   -.284E+02 0.152E+02 0.283E+04   -.384E+00 -.134E+00 0.206E+01   0.116E-01 0.201E-01 0.592E-02
   -.329E+01 -.473E+01 -.279E+04   0.284E+01 0.408E+01 0.279E+04   0.459E+00 0.643E+00 0.171E+01   0.674E-02 -.385E-02 -.751E-02
   0.213E+02 -.210E+02 -.281E+04   -.213E+02 0.209E+02 0.281E+04   -.249E-01 0.998E-01 0.633E-01   0.101E-01 -.239E-01 -.123E-01
   0.724E+02 -.564E+02 -.148E+04   -.711E+02 0.563E+02 0.148E+04   -.125E+01 0.626E-01 0.133E+01   -.126E-01 0.216E-02 -.344E-01
   0.203E+02 -.384E+02 -.146E+04   -.214E+02 0.379E+02 0.146E+04   0.106E+01 0.423E+00 0.250E+01   -.311E-02 0.131E-01 -.264E-02
   0.585E+02 0.328E+02 0.285E+04   -.583E+02 -.329E+02 -.285E+04   -.371E+00 0.129E+00 -.259E+01   -.215E-02 0.104E-01 0.515E-02
   0.138E+02 -.105E+02 0.161E+04   -.149E+02 0.111E+02 -.161E+04   0.109E+01 -.624E+00 0.985E+00   0.859E-02 0.103E-04 0.946E-02
   -.576E+02 0.157E+02 -.141E+04   0.584E+02 -.151E+02 0.140E+04   -.872E+00 -.532E+00 0.248E+01   0.741E-03 -.131E-01 0.912E-02
   -.737E+02 0.863E+02 0.295E+04   0.743E+02 -.848E+02 -.295E+04   -.387E+00 -.163E+01 -.257E+01   0.459E-02 -.843E-02 0.251E-02
   0.230E+02 -.479E+02 0.155E+04   -.227E+02 0.473E+02 -.155E+04   -.384E+00 0.557E+00 -.748E+00   -.541E-02 0.100E-02 0.169E-01
   0.144E+02 -.581E+00 -.280E+04   -.145E+02 0.727E+00 0.280E+04   0.987E-01 -.167E+00 0.157E+01   -.192E-01 0.273E-01 -.164E-02
   -.542E+01 0.375E+01 0.100E+02   0.552E+01 -.331E+01 -.112E+02   -.166E+00 -.436E+00 0.100E+01   -.133E-01 -.492E-02 0.253E-01
   -.131E+02 0.197E+02 -.282E+04   0.127E+02 -.196E+02 0.282E+04   0.505E+00 -.144E+00 0.197E+01   -.294E-01 0.435E-03 -.195E-01
   0.962E+00 0.389E+02 0.828E+02   -.194E+01 -.404E+02 -.829E+02   0.109E+01 0.149E+01 0.479E-01   -.509E-02 -.127E-02 0.994E-02
   -.651E+02 0.266E+01 -.143E+04   0.657E+02 -.377E+01 0.143E+04   -.640E+00 0.117E+01 0.272E+01   0.118E-01 -.225E-02 -.222E-01
   0.351E+02 0.269E+02 -.146E+04   -.350E+02 -.262E+02 0.146E+04   -.159E+00 -.749E+00 0.215E+01   -.639E-02 -.967E-03 -.221E-02
   -.595E+01 -.669E+02 -.482E+02   0.497E+01 0.663E+02 0.485E+02   0.106E+01 0.471E+00 -.253E+00   0.624E-02 0.619E-02 0.180E-01
   -.232E+02 -.209E+02 0.767E+01   0.238E+02 0.215E+02 -.819E+01   -.649E+00 -.741E+00 0.497E+00   0.139E-01 0.553E-02 0.217E-01
   0.157E+02 0.990E+01 -.116E+04   -.157E+02 -.101E+02 0.116E+04   0.353E-01 0.307E+00 0.226E+00   0.344E-02 -.718E-02 -.849E-02
   -.879E+02 -.106E+01 0.229E+04   0.881E+02 -.202E+00 -.229E+04   -.150E+00 0.126E+01 -.273E+01   0.359E-02 0.126E-02 0.557E-02
   0.250E+02 -.199E+02 0.234E+04   -.253E+02 0.180E+02 -.234E+04   0.361E+00 0.198E+01 -.292E+01   -.195E-02 0.227E-02 0.500E-02
   0.431E+02 0.234E+02 0.232E+04   -.427E+02 -.220E+02 -.232E+04   -.446E+00 -.142E+01 -.315E+01   -.522E-03 -.546E-02 0.748E-02
   0.318E+02 0.688E+02 0.120E+04   -.308E+02 -.679E+02 -.120E+04   -.974E+00 -.854E+00 -.757E-01   -.770E-02 -.670E-02 0.105E-01
   0.295E+02 -.768E+02 0.124E+04   -.295E+02 0.764E+02 -.124E+04   -.110E+00 0.344E+00 -.501E+00   -.391E-02 0.828E-02 0.707E-02
   -.617E+02 -.200E+02 -.118E+04   0.619E+02 0.201E+02 0.118E+04   -.136E+00 -.218E+00 0.417E+00   0.530E-02 0.149E-03 -.525E-03
   -.159E+03 0.111E+02 0.238E+04   0.157E+03 -.113E+02 -.237E+04   0.152E+01 0.880E-01 -.360E+01   0.131E-01 0.469E-03 0.544E-02
   -.459E+02 0.589E+02 0.123E+04   0.451E+02 -.584E+02 -.123E+04   0.882E+00 -.531E+00 -.517E+00   -.221E-02 -.110E-01 0.158E-01
   -.671E+02 -.731E+00 -.210E+02   0.669E+02 0.108E+01 0.211E+02   0.234E+00 -.413E+00 -.173E+00   0.244E-02 0.732E-02 0.896E-02
   0.160E+02 -.817E+02 -.119E+04   -.160E+02 0.815E+02 0.119E+04   0.788E-01 0.221E+00 0.727E+00   -.194E-03 0.474E-02 0.529E-02
   0.140E+02 0.211E+02 -.118E+04   -.142E+02 -.212E+02 0.118E+04   0.152E+00 0.843E-01 -.670E-01   0.207E-03 0.491E-02 0.406E-02
   -.421E+01 -.819E+02 0.233E+04   0.317E+01 0.803E+02 -.233E+04   0.103E+01 0.160E+01 -.332E+01   0.411E-02 0.496E-02 0.147E-02
   0.240E+02 -.282E+02 0.264E+04   -.239E+02 0.284E+02 -.264E+04   -.112E+00 -.144E+00 -.293E+01   -.232E-02 0.678E-02 -.369E-02
   0.179E+03 0.393E+02 0.265E+04   -.179E+03 -.385E+02 -.265E+04   -.435E+00 -.848E+00 -.302E+01   -.344E-02 -.505E-02 0.484E-02
   -.581E+02 -.528E+02 0.133E+04   0.575E+02 0.517E+02 -.133E+04   0.613E+00 0.115E+01 -.271E+00   0.111E-01 -.128E-02 0.152E-01
   -.768E+02 0.403E+02 0.168E+02   0.769E+02 -.402E+02 -.173E+02   -.706E-01 -.130E+00 0.418E+00   0.112E-01 -.474E-02 0.151E-01
   -.143E+03 0.807E+01 0.135E+04   0.143E+03 -.763E+01 -.135E+04   0.325E+00 -.508E+00 -.234E+00   0.666E-02 0.149E-02 0.210E-01
   -.125E+02 -.163E+02 0.134E+04   0.127E+02 0.160E+02 -.134E+04   -.178E+00 0.414E+00 -.232E+00   -.526E-02 -.172E-01 0.265E-01
   0.452E+02 0.333E+01 -.135E+04   -.451E+02 -.339E+01 0.135E+04   -.141E+00 0.816E-01 0.891E+00   -.120E-01 0.960E-02 0.989E-03
   0.708E+02 -.638E+02 0.266E+04   -.700E+02 0.640E+02 -.266E+04   -.738E+00 -.119E+00 -.327E+01   -.701E-02 0.159E-01 -.147E-02
   -.801E+01 0.869E+01 0.134E+04   0.805E+01 -.842E+01 -.134E+04   -.118E+00 -.319E+00 -.558E+00   0.219E-01 0.882E-02 0.288E-01
   0.378E+02 -.804E+02 -.654E+01   -.369E+02 0.799E+02 0.688E+01   -.849E+00 0.524E+00 -.492E+00   -.547E-02 0.331E-02 0.135E-01
   0.413E+02 0.181E+02 0.329E+04   -.415E+02 -.173E+02 -.329E+04   0.304E+00 -.698E+00 -.400E+01   -.306E-01 -.221E-01 0.299E-02
   0.776E+02 0.288E+01 0.164E+04   -.778E+02 -.346E+01 -.164E+04   0.127E+00 0.559E+00 -.198E+00   0.459E-02 0.162E-01 0.332E-02
   0.147E+03 -.472E+02 0.161E+04   -.147E+03 0.475E+02 -.161E+04   -.326E+00 -.266E+00 -.165E+00   -.115E-01 -.191E-02 0.237E-01
   0.273E+02 0.741E+02 0.100E+03   -.279E+02 -.739E+02 -.100E+03   0.590E+00 -.290E+00 0.708E-01   0.564E-02 -.392E-02 0.919E-02
   0.143E+02 0.614E+02 -.163E+04   -.141E+02 -.611E+02 0.163E+04   -.245E+00 -.309E+00 0.899E+00   0.566E-02 -.839E-02 -.992E-02
[...]
   0.617E+02 -.770E+01 -.100E+02   -.610E+02 0.767E+01 0.103E+02   -.750E+00 -.245E-01 -.221E+00   -.356E-02 0.457E-02 0.123E-01
   -.955E+02 -.326E+00 0.150E+04   0.950E+02 0.527E+00 -.150E+04   0.487E+00 -.167E+00 -.378E+00   0.187E-01 0.372E-02 0.211E-01
   -.435E+02 0.748E+01 0.156E+04   0.439E+02 -.781E+01 -.156E+04   -.412E+00 0.393E+00 -.562E+00   0.580E-02 0.162E-02 0.120E-01
   -.124E+03 0.106E+01 0.297E+04   0.124E+03 -.102E+01 -.297E+04   -.352E+00 -.166E+00 -.221E+01   0.255E-01 0.505E-02 0.667E-02
   0.673E+02 -.696E+02 0.295E+04   -.680E+02 0.701E+02 -.295E+04   0.763E+00 -.352E+00 -.140E+01   -.217E-01 -.874E-02 0.182E-02
   0.201E+02 -.297E+02 0.153E+04   -.197E+02 0.295E+02 -.153E+04   -.377E+00 0.185E+00 -.265E-01   -.181E-01 0.145E-01 0.240E-01
   0.721E+02 0.256E+00 0.150E+04   -.714E+02 -.270E+00 -.150E+04   -.663E+00 0.668E-01 -.426E+00   -.210E-01 -.151E-01 0.931E-02
   -.328E+02 -.526E+02 -.150E+04   0.327E+02 0.527E+02 0.150E+04   0.101E+00 -.108E+00 0.320E+00   0.715E-02 0.547E-04 -.253E-02
   -.502E+02 0.684E+01 0.294E+04   0.507E+02 -.631E+01 -.294E+04   -.415E+00 -.386E+00 -.203E+01   0.929E-02 -.154E-01 0.275E-02
   -.490E+02 0.104E+03 0.859E+02   0.494E+02 -.104E+03 -.857E+02   -.477E+00 -.350E+00 -.346E+00   -.134E-02 -.105E-01 0.156E-01
   -.949E+00 0.567E+02 -.174E+02   0.871E+00 -.559E+02 0.173E+02   0.103E+00 -.871E+00 0.499E-02   0.500E-02 0.218E-02 0.184E-01
   0.841E+02 -.830E+01 -.263E+02   -.837E+02 0.891E+01 0.264E+02   -.433E+00 -.679E+00 -.285E+00   -.143E-01 0.352E-02 0.167E-01
   -.903E+01 -.788E+02 0.246E+02   0.856E+01 0.783E+02 -.246E+02   0.489E+00 0.552E+00 0.314E-01   0.160E-02 0.157E-02 0.165E-01
   -.543E+00 0.303E-01 -.335E+03   0.547E+00 -.754E-01 0.337E+03   0.174E-01 0.381E-01 -.181E+01   -.648E-03 -.196E-03 -.377E-04
   -.184E+01 -.364E+00 0.377E+01   0.912E-12 0.324E-12 -.189E-10   0.186E+01 0.365E+00 -.407E+01   -.110E-01 0.163E-01 0.302E+00

 POSITION                                       TOTAL-FORCE (eV/Angst)
     13.43048      8.35261      6.89625         0.007183     -0.001980     -0.005235
      5.30128      8.36322      6.81988        -0.001694      0.000210      0.011598
      5.14816      3.60267      6.95502         0.002183     -0.010495     -0.006332
     14.90728      9.12539      9.11558         0.014186      0.013159      0.037859
      3.85383      4.40879      9.24061        -0.008664      0.005202     -0.005509
      6.64109      9.10505      9.10689        -0.016343      0.013884      0.013192
     12.10442      4.35008      9.23766        -0.002425     -0.017385      0.004477
      9.34020      9.10165      9.12455         0.014930     -0.002175      0.002585
     10.75628      2.00047      9.10134        -0.001966     -0.019070     -0.006048
      2.54609      2.00866      9.14956        -0.001683     -0.002853     -0.000180
     12.08072      9.08335      9.23921         0.008563      0.004069      0.003001
     13.48222      6.73798      9.22076         0.007090     -0.001698      0.011549
      5.21252      1.99033      9.17913         0.014789     -0.013463      0.014379
      8.03167      6.75198      9.16544         0.013075      0.002268     -0.007063
      9.40234      4.36766      9.17200         0.007444      0.017270      0.004321
      5.24592      6.73327      9.20197         0.009218     -0.008380      0.016615
      8.02725      2.00431      9.21003        -0.017981     -0.003815      0.009276
      8.06710      3.56944      6.94246        -0.000617      0.001593     -0.016746
      6.55271      1.18420      6.89190        -0.000903     -0.005123     -0.003641
      6.72628      1.16745      1.08242        -0.018269     -0.001996      0.011766
      3.78814      4.32228      2.81446        -0.003113      0.001681     -0.056129
      1.25374      1.28075      6.85058        -0.013345     -0.013894      0.019233
      1.10289      1.28088      0.83038         0.008763     -0.004893      0.023927
      6.68973      9.08802      2.94861        -0.024991     -0.001624     -0.021132
      6.62562      4.37814      9.21203        -0.009049      0.018019      0.007925
      8.01503      5.21342      4.82519         0.013365      0.050765     -0.098370
     10.71905      6.75021      9.17266        -0.000860      0.005396      0.013837
     14.76728      7.43331      4.80456         0.002268      0.002972     -0.026705
     12.16080      5.91584      6.97576        -0.006654     -0.003323     -0.003045
      6.63167      5.98568      6.93230        -0.003541     -0.004813     -0.003627
      3.69641      2.63079      4.96058         0.002127     -0.016200      0.000930
     10.74899      5.24251      4.86996        -0.036492      0.002412     -0.012232
      3.91317      6.00112      7.05178        -0.001525      0.001662      0.000371
     13.40431      8.18144      1.12629         0.009027     -0.017848      0.012358
      5.30364      8.18579      0.97842        -0.006183     -0.004212      0.026596
      4.01252      6.08228      1.00891        -0.009281     -0.009210      0.054347
      8.14068      2.17808      2.94353        -0.006584     -0.000642     -0.000100
      9.41716      9.04979      2.92015         0.009855      0.006527     -0.003166
      2.49328      3.64503      7.07103        -0.006129     -0.000453     -0.008513
      2.27016      3.62463      0.90646        -0.011486      0.000423      0.045033
     10.72847      2.05865      2.89929         0.004102      0.014486     -0.028324
     13.44858      5.13914      4.92157         0.009836     -0.020784     -0.013263
      3.91785      1.08905      7.01227        -0.004843      0.001940      0.006760
      9.37157      5.94412      7.03939         0.010132     -0.006341      0.000076
      3.84203      1.09369      0.99843        -0.007627      0.010244      0.049525
      9.46597      5.91657      1.05336        -0.003632      0.005043      0.012074
      5.43495      3.60933      1.03054        -0.025364      0.009764      0.019696
     12.01888      8.97257      3.00065         0.013071      0.007085      0.002245
     12.09414      7.50068      4.86230        -0.012970      0.014847     -0.020870
     13.25111      6.61567      2.90710        -0.000110     -0.005559     -0.025923
      9.39189      4.34418      2.86168        -0.000340      0.008182     -0.015279
      8.05112      8.29810      6.97154         0.015266     -0.011871      0.003724
      8.14131      8.28722      0.98031         0.002658      0.000304      0.018044
     10.75943      6.81665      2.87577        -0.003802     -0.000238     -0.018260
      2.65866      0.23001      5.00725         0.018614     -0.005227     -0.039780
      8.02288      3.59150      0.88412         0.005446      0.022032     -0.006691
      5.26159      1.95152      3.02289        -0.011916     -0.001343     -0.022895
      5.47598      6.67403      3.01859        -0.014227      0.001237     -0.001052
      8.00253      0.50416      4.85587        -0.000199      0.003596      0.032997
      9.39704      1.22756      6.91757         0.002111     -0.011183      0.009077
[...]
      9.47732      2.78762      4.96322        -0.018501      0.012951      0.017832
      6.62486      2.80825      4.89292         0.012171     -0.037223      0.030629
     12.06521      4.33484      2.86673        -0.002261     -0.000402     -0.032877
      2.47669      1.92891      2.90301         0.021621      0.012748     -0.034298
     12.05319      5.92970      0.96885        -0.001172     -0.025553      0.011392
      6.68440      5.89557      1.05654        -0.011018      0.004541      0.006874
      8.15015      6.79554      2.87759         0.003798      0.002164     -0.006430
      6.69092      4.28584      2.88429         0.002231     -0.014124      0.004439
     10.78826      3.63502      7.02066         0.003444     -0.001440     -0.008882
     10.69673      3.54310      0.96432         0.003271      0.012865      0.017711
     10.77558      0.56009      4.86940        -0.011396      0.008025     -0.021204
      9.41147      7.55569      4.96424         0.003404     -0.022018     -0.007509
      6.80717      7.56930      4.94866         0.001989     -0.025528     -0.020203
      5.19417      0.24850      4.93127         0.059403      0.035511      0.059201
      7.33325      0.80920     10.27903         0.021201     -0.007045      0.002050
    total drift:                                0.010113      0.017316      0.006158

  FREE ENERGIE OF THE ION-ELECTRON SYSTEM (eV)
  free  energy   TOTEN  =      -506.50499373 eV

  energy  without entropy=     -506.52189230  energy(sigma->0) =     -506.51062659

 d Force = 0.1493790E-02[ 0.378E-03, 0.261E-02]  d Energy = 0.1429960E-02 0.638E-04
 d Force = 0.3473725E+02[ 0.347E+02, 0.348E+02]  d Ewald  = 0.3473725E+02 0.366E-05

 Conjugate gradient step on ions:
 trial-energy change:   -0.001430  1 .order   -0.001494   -0.002610   -0.000378
  (g-gl).g = 0.612E-03      g.g   = 0.144E-02  gl.gl    = 0.421E-02
 g(Force)  = 0.144E-02   g(Stress)= 0.000E+00 ortho     = 0.159E-03
 gamma     =   0.14520
 trial     =   1.78529
 opt step  =   2.16695  (harmonic =   2.08746) maximal distance =0.00625070
 next E    =  -506.505033   (d E  =  -0.00147)

 reached required accuracy - stopping structural energy minimisation