 vasp.5.4.4.18Apr17-6-g9f103f2a35 (build Oct 25 2019 11:13:22) complex

 executed on             LinuxIFC date 2021.10.30  05:44:48

 INCAR:
 POTCAR:    PAW_PBE Pt 04Feb2005
 POTCAR:    PAW_PBE Fe 06Sep2000
 POTCAR:    PAW_PBE Co 02Aug2007
 POTCAR:    PAW_PBE Cu 22Jun2005
 POTCAR:    PAW_PBE Ni 02Aug2007
 POTCAR:    PAW_PBE H 15Jun2001
 POTCAR:    PAW_PBE Pt 04Feb2005
   VRHFIN =Pt: s1d9

   TITEL  = PAW_PBE Pt 04Feb2005
   POMASS =  195.080; ZVAL   =   10.000    mass and valenz
   ENMAX  =  230.283; ENMIN  =  172.712 eV

 POTCAR:    PAW_PBE Fe 06Sep2000
   VRHFIN =Fe:  d7 s1

   TITEL  = PAW_PBE Fe 06Sep2000
   POMASS =   55.847; ZVAL   =    8.000    mass and valenz
   ENMAX  =  267.882; ENMIN  =  200.911 eV

 POTCAR:    PAW_PBE Co 02Aug2007
   VRHFIN =Co: d8 s1

   TITEL  = PAW_PBE Co 02Aug2007
   POMASS =   58.933; ZVAL   =    9.000    mass and valenz
   ENMAX  =  267.968; ENMIN  =  200.976 eV

 POTCAR:    PAW_PBE Cu 22Jun2005
   VRHFIN =Cu: d10 p1

   TITEL  = PAW_PBE Cu 22Jun2005
   POMASS =   63.546; ZVAL   =   11.000    mass and valenz
   ENMAX  =  295.446; ENMIN  =  221.585 eV

 POTCAR:    PAW_PBE Ni 02Aug2007
   VRHFIN =Ni:

   TITEL  = PAW_PBE Ni 02Aug2007
   POMASS =   58.690; ZVAL   =   10.000    mass and valenz
   ENMAX  =  269.532; ENMIN  =  202.149 eV

 POTCAR:    PAW_PBE H 15Jun2001
   VRHFIN =H: ultrasoft test

   TITEL  = PAW_PBE H 15Jun2001
   POMASS =    1.000; ZVAL   =    1.000    mass and valenz
   ENMAX  =  250.000; ENMIN  =  200.000 eV

 Optimization of the real space projectors (new method)

 maximal supplied QI-value         = 14.36
 optimisation between [QCUT,QGAM] = [ 11.92, 23.98] = [ 39.79,161.09] Ry
 Optimized for a Real-space Cutoff    1.49 Angstroem

   l    n(q)    QCUT    max X(q) W(low)/X(q) W(high)/X(q)  e(spline)
   2     10    11.920    66.195    0.79E-04    0.18E-03    0.24E-06
   2     10    11.920    64.643    0.81E-04    0.19E-03    0.24E-06
   0     11    11.920    95.520    0.28E-04    0.54E-04    0.18E-06
   0     11    11.920    63.403    0.27E-04    0.52E-04    0.17E-06
   1     10    11.920    19.961    0.18E-04    0.11E-03    0.23E-06
   1     10    11.920    13.289    0.25E-04    0.87E-04    0.19E-06
 Optimization of the real space projectors (new method)

[...]

   l    n(q)    QCUT    max X(q) W(low)/X(q) W(high)/X(q)  e(spline)
   2      9    11.864    60.317    0.21E-03    0.51E-03    0.25E-06
   2      9    11.864    55.921    0.21E-03    0.51E-03    0.26E-06
   0      9    11.864    51.690    0.22E-03    0.30E-04    0.17E-06
   0      9    11.864    30.015    0.20E-03    0.28E-04    0.15E-06
   1      9    11.864    18.849    0.76E-04    0.33E-03    0.17E-06
   1      9    11.864    14.624    0.60E-04    0.28E-03    0.15E-06
 Optimization of the real space projectors (new method)

 maximal supplied QI-value         = 34.20
 optimisation between [QCUT,QGAM] = [ 11.97, 23.94] = [ 40.13,160.53] Ry
 Optimized for a Real-space Cutoff    1.18 Angstroem

   l    n(q)    QCUT    max X(q) W(low)/X(q) W(high)/X(q)  e(spline)
   0      8    11.971    19.460    0.15E-03    0.31E-03    0.25E-06
   0      8    11.971    12.209    0.13E-03    0.29E-03    0.25E-06
   1      8    11.971     4.655    0.22E-03    0.24E-03    0.21E-06
  PAW_PBE Pt 04Feb2005                  :
  PAW_PBE Fe 06Sep2000                  :
  PAW_PBE Co 02Aug2007                  :
  PAW_PBE Cu 22Jun2005                  :
  PAW_PBE Ni 02Aug2007                  :
  PAW_PBE H 15Jun2001                   :

 POSCAR: 11.26-high
  positions in direct lattice
  velocities in cartesian coordinates
 exchange correlation table for  LEXCH =        8
   RHO(1)=    0.500       N(1)  =     2000
   RHO(2)=  100.500       N(2)  =     4000

 ion  position               nearest neighbor table
   1  0.776  0.870  0.315-  56 2.59  32 2.67  15 2.74  33 2.75  65 2.77  23 2.78   8 2.78  40 2.79
                            16 2.83  41 2.87   3 2.88   2 2.93
   2  0.037  0.869  0.316-  38 2.65  79 2.66  32 2.76  26 2.76   8 2.79  34 2.81  58 2.81  10 2.81
                            41 2.83   3 2.83  20 2.84   1 2.93
   3  0.036  0.617  0.313-  50 2.60  68 2.63  32 2.69   6 2.81   9 2.81   4 2.81   2 2.83  20 2.84
                            33 2.85  34 2.86  16 2.87   1 2.88
   4  0.028  0.371  0.319-  50 2.61  36 2.68  42 2.70  11 2.72  77 2.76   9 2.77  14 2.77  33 2.80
                             3 2.81  26 2.83   6 2.88   5 2.96
   5  0.290  0.106  0.318-  61 2.55  36 2.68  12 2.69  39 2.69  58 2.70  26 2.77  65 2.77  14 2.78
                            17 2.79  23 2.80   6 2.92   4 2.96
   6  0.287  0.368  0.317-  68 2.59  71 2.62  36 2.71  23 2.75  29 2.76   9 2.80  17 2.81   3 2.81
                            34 2.86   4 2.88  22 2.90   5 2.92
   7  0.860  0.689  0.125-  74 2.52  43 2.54  45 2.59  55 2.63  60 2.65  50 2.65  56 2.66  32 2.70
                            72 2.71  25 2.83  64 3.07
   8  0.861  0.955  0.416-  15 2.76  21 2.77   1 2.78  41 2.78   2 2.79  16 2.80  13 2.83  20 2.87
                            10 2.94
   9  0.115  0.456  0.419-  20 2.72   4 2.77  16 2.78  11 2.79   6 2.80  29 2.81   3 2.81  14 2.84
                            17 2.90
  10  0.124  0.953  0.420-  58 2.71  14 2.76  26 2.76  12 2.78   2 2.81  18 2.83  13 2.87  20 2.90
                             8 2.94
  11  0.870  0.449  0.421-  81 1.84   4 2.72  77 2.72  19 2.74  13 2.76  14 2.79   9 2.79  33 2.82
                            31 2.82  16 2.83
  12  0.375  0.947  0.418-   5 2.69  65 2.70  58 2.70  18 2.72  15 2.74  31 2.75  10 2.78  17 2.79
                            14 2.86
  13  0.866  0.205  0.416-  81 2.00  77 2.72  11 2.76  21 2.77  26 2.77  41 2.77  19 2.78  14 2.83
                             8 2.83  10 2.87
  14  0.120  0.201  0.420-  10 2.76   4 2.77   5 2.78  11 2.79  26 2.81  17 2.81  13 2.83   9 2.84
                            12 2.86
  15  0.619  0.946  0.418-   1 2.74  12 2.74  16 2.75  65 2.75  31 2.76   8 2.76  17 2.79  23 2.81
                            21 2.92
  16  0.867  0.703  0.420-  15 2.75  20 2.76  33 2.77   9 2.78  31 2.79   8 2.80   1 2.83  11 2.83
                             3 2.87
  17  0.372  0.197  0.420-  23 2.75  12 2.79   5 2.79  15 2.79   6 2.81  14 2.81  21 2.82  29 2.83
                             9 2.90
  18  0.378  0.703  0.417-  51 2.60  58 2.67  31 2.69  12 2.72  34 2.74  19 2.75  10 2.83  29 2.89
                            20 2.98
  19  0.622  0.456  0.419-  81 1.80  51 2.65  77 2.66  31 2.72  22 2.73  11 2.74  18 2.75  13 2.78
                            21 2.82  29 2.88
  20  0.115  0.699  0.421-   9 2.72  16 2.76  29 2.81  34 2.82   3 2.84   2 2.84   8 2.87  10 2.90
                            18 2.98
  21  0.619  0.206  0.417-  22 2.75  13 2.77   8 2.77  23 2.77  29 2.78  41 2.80  17 2.82  19 2.82
                            15 2.92
  22  0.541  0.377  0.317-  70 2.59  30 2.64  71 2.64  77 2.68  51 2.70  19 2.73  21 2.75  34 2.79
                            41 2.80  29 2.80   6 2.90  23 2.92
  23  0.532  0.121  0.317-  71 2.65  40 2.70  39 2.75  17 2.75   6 2.75  21 2.77   1 2.78   5 2.80
                            15 2.81  41 2.84  22 2.92  65 2.94
  24  0.544  0.120  0.050-  46 2.53  63 2.54  55 2.60  43 2.70  66 2.73  54 2.84  62 2.84  52 2.87
                            67 2.92
  25  0.114  0.439  0.123-  54 2.49  48 2.53  45 2.58  36 2.70  73 2.70  63 2.75  50 2.75  68 2.78
                             7 2.83  72 2.85  64 2.94  76 3.11
  26  0.039  0.114  0.316-  79 2.55  61 2.63  42 2.67   2 2.76  10 2.76  13 2.77   5 2.77  58 2.79
                            14 2.81  41 2.82   4 2.83  77 2.96
  27  0.024  0.132  0.037-  48 2.54  49 2.59  73 2.61  28 2.65  78 2.71  59 2.73  66 2.74  52 2.92
                            44 3.11
  28  0.115  0.958  0.130-  59 2.54  79 2.58  44 2.59  38 2.63  27 2.65  61 2.66  69 2.68  73 2.69
                            47 2.79  49 2.84  35 2.87  64 2.93
  29  0.368  0.451  0.419-   6 2.76  34 2.77  21 2.78  22 2.80   9 2.81  20 2.81  17 2.83  19 2.88
                            18 2.89
  30  0.456  0.540  0.221-  76 2.51  57 2.56  22 2.64  34 2.68  51 2.72  37 2.72  35 2.73  80 2.74
                            71 2.76  38 2.79  70 2.79  68 2.85
  31  0.619  0.700  0.421-  51 2.68  18 2.69  65 2.72  19 2.72  33 2.75  12 2.75  15 2.76  16 2.79
                            11 2.82
  32  0.941  0.791  0.218-  64 2.57  69 2.60   1 2.67   3 2.69   7 2.70   2 2.76  56 2.78  40 2.87
                            50 2.87  79 2.91  68 3.02  38 3.04
  33  0.780  0.622  0.318-  56 2.60  37 2.62  50 2.62  65 2.69  77 2.73  31 2.75  51 2.75   1 2.75
                            16 2.77   4 2.80  11 2.82   3 2.85
  34  0.289  0.621  0.318-  38 2.67  30 2.68  68 2.74  18 2.74  58 2.75  29 2.77  51 2.77  22 2.79
                             2 2.81  20 2.82   6 2.86   3 2.86
  35  0.377  0.709  0.122-  53 2.48  75 2.55  59 2.60  47 2.62  60 2.68  30 2.73  80 2.74  38 2.75
                            57 2.85  76 2.87  28 2.87  64 2.87
  36  0.198  0.277  0.223-  73 2.54  63 2.54   4 2.68   5 2.68  25 2.70   6 2.71  61 2.76  42 2.81
                            68 2.83  50 2.84  39 2.91  71 2.97
  37  0.694  0.548  0.222-  72 2.55  60 2.56  57 2.60  33 2.62  56 2.63  80 2.66  51 2.69  77 2.70
                            30 2.72  50 2.75  70 2.82  42 2.88
  38  0.211  0.792  0.224-  64 2.58  58 2.59  61 2.62  28 2.63   2 2.65  34 2.67  80 2.70  35 2.75
                            30 2.79  79 2.85  68 3.02  32 3.04
  39  0.456  0.016  0.221-  47 2.49  55 2.60  80 2.62  63 2.64  65 2.65  61 2.65   5 2.69  56 2.69
                            23 2.75  40 2.78  36 2.91  71 3.11
  40  0.686  0.047  0.215-  46 2.52  69 2.55  55 2.59  23 2.70  71 2.71  41 2.74  39 2.78   1 2.79
                            70 2.86  32 2.87  56 2.93  79 2.99
  41  0.785  0.121  0.313-  70 2.55  79 2.58  40 2.74  13 2.77   8 2.78  21 2.80  22 2.80  26 2.82
                             2 2.83  23 2.84  77 2.87   1 2.87
  42  0.943  0.286  0.222-  49 2.49  72 2.55  70 2.65  26 2.67  79 2.67  73 2.68  77 2.70   4 2.70
                            50 2.78  36 2.81  37 2.88  61 3.01
  43  0.787  0.882  0.049-  55 2.41  69 2.50   7 2.54  44 2.64  24 2.70  66 2.72  45 2.88  67 2.95

  44  0.036  0.851  0.047-  45 2.41  69 2.53  64 2.55  28 2.59  43 2.64  75 2.68  59 3.07  27 3.11

  45  0.048  0.630  0.044-  44 2.41  75 2.46  64 2.49  25 2.58   7 2.59  54 2.82  43 2.88
  46  0.621  0.226  0.132-  70 2.50  62 2.51  57 2.51  40 2.52  24 2.53  66 2.58  76 2.58  71 2.59
                            49 2.65  69 2.81  63 2.90
  47  0.371  0.944  0.131-  59 2.38  52 2.40  39 2.49  67 2.54  61 2.56  35 2.62  80 2.62  60 2.68
                            73 2.76  55 2.77  28 2.79
  48  0.994  0.372  0.045-  72 2.33  78 2.48  74 2.51  25 2.53  27 2.54  73 2.62
  49  0.863  0.212  0.131-  78 2.43  42 2.49  66 2.56  70 2.57  27 2.59  79 2.61  72 2.63  69 2.64
                            46 2.65  57 2.68  28 2.84  73 2.86
  50  0.946  0.532  0.224-   3 2.60   4 2.61  33 2.62  72 2.64   7 2.65  37 2.75  25 2.75  56 2.78
                            42 2.78  36 2.84  32 2.87  68 2.92
  51  0.537  0.619  0.323-  18 2.60  80 2.64  19 2.65  65 2.67  31 2.68  37 2.69  77 2.69  22 2.70
[...]
   0.126E+02 -.252E+02 -.128E+04   -.128E+02 0.245E+02 0.128E+04   0.191E+00 0.696E+00 0.230E+01   -.169E-01 -.279E-01 0.105E-02
   -.376E+02 0.384E-01 -.136E+04   0.368E+02 0.592E+00 0.135E+04   0.790E+00 -.589E+00 0.157E+01   -.926E-02 -.210E-01 0.273E-01
   0.932E+00 -.813E+02 -.137E+04   -.158E+01 0.801E+02 0.137E+04   0.614E+00 0.118E+01 0.175E+01   0.247E-01 0.165E-01 -.144E-01
   0.509E+02 0.290E+01 -.140E+04   -.507E+02 -.291E+01 0.140E+04   -.266E+00 0.343E-01 0.167E+01   0.627E-02 -.273E-01 0.293E-02
   -.121E+03 -.380E+01 0.153E+04   0.120E+03 0.447E+01 -.154E+04   0.997E+00 -.731E+00 0.678E+00   -.718E-03 0.419E-01 -.129E-01
   -.129E+01 0.337E+01 -.265E+04   0.160E+01 -.361E+01 0.264E+04   -.298E+00 0.216E+00 0.165E+01   -.283E-01 0.304E-01 0.926E-03
   -.140E+02 0.749E+01 -.266E+04   0.138E+02 -.684E+01 0.266E+04   0.212E+00 -.620E+00 0.151E+01   -.218E-01 -.284E-01 -.722E-02
   0.396E+02 -.643E+01 -.268E+04   -.392E+02 0.608E+01 0.267E+04   -.369E+00 0.292E+00 0.225E+01   0.238E-01 0.386E-01 0.298E-01
   -.407E+02 0.292E+00 -.269E+04   0.414E+02 -.425E+00 0.269E+04   -.717E+00 0.111E+00 0.129E+01   -.983E-02 -.127E-01 -.366E-01
   0.857E+01 -.442E+02 -.271E+04   -.901E+01 0.440E+02 0.271E+04   0.457E+00 0.255E+00 0.208E+01   0.218E-01 -.975E-03 -.916E-02
   -.407E+01 0.507E+02 -.265E+04   0.370E+01 -.509E+02 0.265E+04   0.392E+00 0.109E+00 0.905E+00   -.477E-02 0.688E-01 -.427E-03
   0.121E+01 -.125E+02 -.268E+04   -.777E+00 0.123E+02 0.268E+04   -.434E+00 0.263E+00 0.178E+01   0.408E-02 0.227E-01 0.376E-02
   -.431E+02 -.336E+02 -.269E+04   0.431E+02 0.328E+02 0.268E+04   -.826E-01 0.726E+00 0.159E+01   -.131E-01 0.155E-01 -.886E-02
   -.403E+02 -.541E+01 -.266E+04   0.399E+02 0.556E+01 0.266E+04   0.464E+00 -.134E+00 0.138E+01   -.414E-01 -.276E-01 -.545E-02
   0.220E+01 -.259E+02 -.269E+04   -.189E+01 0.254E+02 0.268E+04   -.334E+00 0.500E+00 0.172E+01   0.137E-01 0.988E-03 -.184E-01
   0.611E+02 0.132E+02 -.269E+04   -.601E+02 -.129E+02 0.269E+04   -.110E+01 -.274E+00 0.209E+01   0.432E-01 -.183E-01 0.879E-02
   0.363E+02 0.193E+02 -.271E+04   -.364E+02 -.182E+02 0.271E+04   0.802E-01 -.109E+01 0.169E+01   0.204E-01 -.292E-01 -.323E-02
   0.831E+01 -.743E+01 -.266E+04   -.846E+01 0.731E+01 0.266E+04   0.165E+00 0.156E+00 0.145E+01   -.110E-01 -.349E-01 0.203E-01
   0.216E+01 0.172E+02 -.267E+04   -.235E+01 -.171E+02 0.267E+04   0.170E+00 -.844E-01 0.200E+01   -.133E-01 0.106E-01 -.535E-03
   0.440E+02 0.313E+01 -.143E+04   -.424E+02 -.230E+01 0.143E+04   -.155E+01 -.843E+00 0.129E+01   -.400E-02 -.758E-02 0.130E-01
   -.635E+01 0.124E+02 -.135E+04   0.612E+01 -.122E+02 0.135E+04   0.209E+00 -.253E+00 0.112E+01   -.128E-01 0.403E-02 0.610E-02
   0.818E+02 0.605E+02 0.270E+04   -.816E+02 -.606E+02 -.270E+04   -.300E+00 0.867E-01 -.262E+01   -.104E-01 -.130E-01 0.160E-01
   0.527E+02 -.336E+02 0.159E+04   -.533E+02 0.335E+02 -.160E+04   0.636E+00 0.158E+00 0.142E+01   0.147E-01 -.227E-01 -.354E-01
   -.125E+02 -.193E+02 -.136E+04   0.124E+02 0.190E+02 0.136E+04   0.115E+00 0.271E+00 0.177E+01   -.541E-04 0.515E-01 -.104E-01
   -.787E+02 0.856E+02 0.283E+04   0.794E+02 -.843E+02 -.283E+04   -.634E+00 -.134E+01 -.298E+01   0.234E-01 -.446E-02 -.590E-02
   -.146E+02 0.273E+02 0.149E+04   0.143E+02 -.272E+02 -.149E+04   0.311E+00 -.861E-01 -.343E+00   0.173E-01 0.352E-02 -.153E-01
   0.181E+02 0.370E+01 -.269E+04   -.186E+02 -.359E+01 0.268E+04   0.441E+00 -.439E-01 0.185E+01   0.182E-01 -.490E-01 -.142E-01
   0.924E+01 -.764E+02 0.416E+01   -.889E+01 0.757E+02 -.477E+01   -.398E+00 0.635E+00 0.630E+00   -.788E-02 0.245E-02 0.208E-01
   -.308E+02 0.173E+02 -.272E+04   0.301E+02 -.170E+02 0.272E+04   0.662E+00 -.299E+00 0.203E+01   0.323E-02 -.161E-01 0.378E-02
   0.227E+02 0.305E+02 0.977E+02   -.234E+02 -.312E+02 -.978E+02   0.776E+00 0.752E+00 0.142E+00   -.279E-01 0.159E-01 -.257E-01
   -.806E+02 0.283E+02 -.136E+04   0.797E+02 -.281E+02 0.136E+04   0.996E+00 -.122E+00 0.221E+01   -.353E-01 -.761E-02 0.175E-01
   0.459E+02 -.127E+02 -.138E+04   -.449E+02 0.133E+02 0.138E+04   -.108E+01 -.616E+00 0.133E+01   0.107E-01 -.440E-01 -.183E-01
   0.410E+02 -.778E+02 0.159E+04   -.396E+02 0.777E+02 -.159E+04   -.139E+01 -.210E-01 0.134E+01   -.130E-01 0.412E-01 0.439E-02
   0.422E+02 -.314E+02 0.238E+01   -.425E+02 0.314E+02 -.297E+01   0.375E+00 0.760E-01 0.599E+00   0.159E-01 -.300E-01 -.300E-02
   -.493E+02 -.959E+00 0.230E+01   0.497E+02 0.221E+01 -.308E+01   -.421E+00 -.137E+01 0.743E+00   0.475E-02 0.226E-01 0.527E-01
   0.514E+02 -.233E+01 0.275E+02   -.506E+02 0.351E+01 -.272E+02   -.922E+00 -.120E+01 -.266E+00   0.200E-01 0.492E-02 -.355E-01
   -.308E+02 -.596E+02 0.902E+02   0.298E+02 0.580E+02 -.915E+02   0.104E+01 0.164E+01 0.144E+01   0.902E-02 -.178E-01 -.162E-01
   0.131E+02 0.760E+02 0.138E+03   -.135E+02 -.751E+02 -.139E+03   0.440E+00 -.860E+00 0.164E+01   -.366E-01 -.114E-01 -.235E-01
   0.175E+02 0.667E+02 -.134E+04   -.170E+02 -.662E+02 0.134E+04   -.411E+00 -.453E+00 0.139E+01   -.158E-01 0.316E-01 -.287E-02
   -.103E+03 -.664E+00 0.233E+02   0.102E+03 0.504E+00 -.246E+02   0.845E+00 0.119E+00 0.137E+01   -.330E-03 -.919E-02 0.245E-01
   -.812E+00 0.745E+02 0.220E+04   0.198E+01 -.740E+02 -.220E+04   -.121E+01 -.471E+00 -.363E+01   -.938E-02 0.100E-01 0.936E-02
   -.189E+02 -.163E+02 0.222E+04   0.172E+02 0.145E+02 -.222E+04   0.175E+01 0.196E+01 -.305E+01   -.648E-02 0.322E-02 -.444E-02
   0.122E+03 0.274E+02 0.225E+04   -.120E+03 -.261E+02 -.224E+04   -.200E+01 -.134E+01 -.399E+01   -.132E-02 -.294E-02 -.523E-02
   0.417E+02 0.106E+03 0.112E+04   -.411E+02 -.106E+03 -.112E+04   -.593E+00 -.250E+00 -.635E+00   -.329E-01 -.354E-01 -.290E-02
   0.943E+01 -.400E+02 0.114E+04   -.929E+01 0.397E+02 -.114E+04   -.205E+00 0.170E+00 -.508E+00   0.123E-01 0.140E-01 0.518E-02
   -.212E+03 0.620E+01 0.225E+04   0.209E+03 -.641E+01 -.224E+04   0.269E+01 0.173E+00 -.345E+01   0.233E-01 -.128E-01 -.827E-02
   -.616E+02 0.682E+02 0.113E+04   0.614E+02 -.671E+02 -.112E+04   0.343E+00 -.108E+01 -.684E+00   0.942E-02 -.258E-01 -.475E-02
   -.526E+02 -.918E+01 0.328E+02   0.520E+02 0.911E+01 -.322E+02   0.566E+00 0.121E-01 -.674E+00   -.669E-02 0.424E-02 0.394E-02
   0.222E+02 0.126E+02 -.114E+04   -.222E+02 -.129E+02 0.114E+04   -.590E-01 0.183E+00 -.226E+00   0.329E-01 -.211E-01 -.212E-02
   -.289E+02 -.104E+03 0.220E+04   0.281E+02 0.102E+03 -.220E+04   0.720E+00 0.260E+01 -.313E+01   0.398E-02 0.286E-02 0.338E-02
   0.105E+03 -.140E+03 0.252E+04   -.104E+03 0.139E+03 -.252E+04   -.126E+01 0.104E+01 -.310E+01   -.744E-02 0.284E-01 -.311E-01
   0.201E+03 0.809E+02 0.252E+04   -.200E+03 -.796E+02 -.252E+04   -.115E+01 -.138E+01 -.302E+01   -.117E-01 -.155E-01 -.180E-02
   -.505E+02 -.583E+02 0.131E+04   0.503E+02 0.577E+02 -.131E+04   0.211E+00 0.656E+00 -.554E+00   0.124E-02 0.126E-01 0.914E-02
   -.100E+03 -.375E+00 0.399E+02   0.997E+02 0.121E+00 -.401E+02   0.300E+00 0.260E+00 0.135E+00   -.195E-01 0.382E-01 -.632E-02
   -.216E+01 -.459E+02 0.122E+04   0.240E+01 0.453E+02 -.122E+04   -.252E+00 0.782E+00 -.440E+00   -.141E-01 -.129E-01 0.115E-01
   0.532E+02 0.262E+01 -.125E+04   -.531E+02 -.269E+01 0.125E+04   -.280E+00 0.109E+00 0.373E+00   0.438E-01 0.863E-02 -.256E-01
   0.710E+02 0.478E+02 0.255E+04   -.703E+02 -.460E+02 -.254E+04   -.720E+00 -.188E+01 -.407E+01   0.389E-02 0.190E-01 -.241E-03
   -.588E+01 -.348E+02 0.127E+04   0.604E+01 0.350E+02 -.127E+04   -.231E+00 -.365E+00 -.405E+00   0.210E-01 0.596E-01 0.283E-01
[...]
   0.122E+03 -.516E+02 0.292E+02   -.122E+03 0.510E+02 -.286E+02   -.504E-01 0.785E+00 -.723E+00   0.112E-01 -.247E-01 -.123E-01
   0.394E+02 0.113E+03 0.157E+04   -.391E+02 -.112E+03 -.157E+04   -.267E+00 -.687E+00 -.131E+01   -.319E-01 -.619E-02 -.201E-01
   -.172E+02 0.386E+02 -.263E+02   0.177E+02 -.389E+02 0.262E+02   -.565E+00 0.456E+00 0.284E-01   -.215E-02 -.101E-01 0.434E-01
   0.467E+02 0.723E+02 -.348E+02   -.462E+02 -.717E+02 0.348E+02   -.449E+00 -.612E+00 -.829E-01   -.127E-01 -.231E-01 -.139E-02
   -.149E+03 -.614E+01 0.134E+04   0.148E+03 0.606E+01 -.134E+04   0.769E+00 0.125E+00 -.939E+00   0.387E-01 -.139E-01 -.164E-01
   -.211E+02 -.117E+02 0.146E+04   0.215E+02 0.116E+02 -.146E+04   -.486E+00 0.250E+00 -.763E+00   0.220E-01 -.110E-01 -.171E-01
   -.204E+03 -.115E+03 0.285E+04   0.204E+03 0.114E+03 -.285E+04   0.527E+00 0.134E+01 -.260E+01   0.382E-01 0.730E-02 -.143E-01
   -.195E+02 -.126E+03 0.282E+04   0.177E+02 0.126E+03 -.282E+04   0.195E+01 0.237E+00 -.165E+01   -.215E-01 -.410E-02 -.666E-02
   0.618E+02 -.392E+02 0.140E+04   -.609E+02 0.390E+02 -.140E+04   -.828E+00 0.318E+00 -.589E+00   -.409E-01 -.231E-01 -.983E-02
   -.510E+02 0.182E+02 -.142E+04   0.507E+02 -.179E+02 0.142E+04   0.396E+00 -.358E+00 0.198E+00   0.635E-02 0.698E-02 0.237E-01
   -.597E+02 0.503E+02 0.281E+04   0.600E+02 -.496E+02 -.281E+04   -.304E+00 -.625E+00 -.131E+01   0.327E-01 -.304E-01 -.341E-01
   -.111E+02 0.571E+02 0.178E+02   0.114E+02 -.567E+02 -.175E+02   -.344E+00 -.416E+00 -.297E+00   0.204E-02 0.986E-02 -.182E-01
   0.397E+02 0.852E+01 0.770E+01   -.395E+02 -.834E+01 -.757E+01   -.355E+00 -.287E+00 -.276E+00   0.339E-01 0.256E-01 -.102E-01
   0.621E+00 0.315E+01 -.317E+03   -.686E+00 -.315E+01 0.318E+03   0.770E-01 -.214E-01 -.138E+01   -.240E-02 -.316E-03 -.283E-02
   -.924E+00 0.779E+00 0.483E+01   -.480E-12 -.447E-12 0.870E-11   0.918E+00 -.675E+00 -.446E+01   0.108E-01 -.661E-01 -.363E+00

 POSITION                                       TOTAL-FORCE (eV/Angst)
     13.58993      8.45845      6.92620         0.000630      0.005199      0.008713
      5.28541      8.45803      6.93051        -0.015359      0.003040     -0.016304
      3.86049      5.98726      6.87626         0.000535     -0.007920      0.003291
      2.39089      3.60596      7.01604        -0.022692      0.024585      0.013458
      3.84799      1.03670      7.00319         0.002071     -0.002949      0.001008
      5.28228      3.57450      6.97471         0.000738     -0.009118      0.008754
     13.51950      6.69208      2.75694        -0.005556     -0.016275      0.007911
     15.09713      9.25096      9.16240        -0.012231     -0.001582      0.016346
      3.86610      4.44064      9.22557        -0.003509      0.007584      0.002915
      6.70370      9.23070      9.17892         0.011352     -0.022322     -0.010095
     12.32943      4.42328      9.29620        -0.019107     -0.017155      0.021688
      9.46285      9.20919      9.20568         0.026216      0.014521      0.014685
     10.86908      1.96388      9.19072         0.006724     -0.045123     -0.017012
      2.49587      1.94996      9.24331         0.004379      0.000722     -0.008538
     12.26399      9.21714      9.19369        -0.012488     -0.001272      0.003078
     13.68199      6.84792      9.22537         0.011443      0.002270      0.009786
      5.27870      1.92590      9.23411        -0.003806     -0.000178      0.006093
      8.13167      6.84991      9.19240         0.003436      0.007697      0.012639
      9.47905      4.46647      9.27683         0.011415      0.002594     -0.012543
      5.25045      6.82266      9.20283         0.003847      0.007831      0.006282
      8.06781      1.96372      9.17091        -0.014130      0.023515     -0.016524
      8.19295      3.65531      6.99635         0.024325      0.007294     -0.008765
      6.64321      1.18204      6.95629         0.000339      0.002624     -0.004702
      6.78185      1.16816      1.10976        -0.017169      0.008696     -0.004893
      3.74327      4.26289      2.71491         0.021387      0.002856      0.014078
      1.07403      1.12029      6.95498         0.020885     -0.007151     -0.014354
      1.01575      1.28649      0.81183         0.012497     -0.005633      0.008552
      6.67142      9.31568      2.85544         0.005865      0.013112     -0.027108
      6.65762      4.39918      9.22782        -0.016757      0.023722      0.011773
      8.14285      5.24496      4.86976         0.000322     -0.017546      0.034581
     10.85516      6.86152      9.25200         0.008889     -0.007326     -0.025271
     14.99686      7.68362      4.79411         0.000187      0.012647     -0.011315
     12.23076      6.05649      7.00154         0.020700     -0.007162     -0.000652
      6.72913      6.03340      6.99201         0.011926     -0.007744     -0.010636
      8.20780      6.89173      2.69128        -0.015905      0.010855     -0.009628
      3.77766      2.69345      4.90572        -0.029294      0.016309     -0.047829
     10.86552      5.33036      4.88657        -0.015143     -0.032755     -0.000220
      6.80891      7.69639      4.91949         0.006475     -0.016740     -0.000705
      5.20720      0.16029      4.85410         0.008755      0.001024     -0.003060
      7.96508      0.45571      4.72390         0.008222     -0.015355     -0.032855
      9.48529      1.18388      6.89531         0.008471      0.004665     -0.007195
     12.19222      2.77766      4.87496         0.002121      0.004680      0.037380
     13.78001      8.57392      1.07376        -0.006280     -0.024764     -0.010258
      5.17612      8.26819      1.02395         0.023656      0.012196      0.002115
      4.07688      6.12594      0.96722         0.011707      0.003592      0.010945
      8.23477      2.19285      2.91186         0.003368     -0.002875      0.009697
      9.46232      9.17873      2.88867        -0.018763      0.007728      0.001195
     13.23829      3.61532      0.98546         0.004101     -0.008149      0.005258
     10.87798      2.06279      2.87872        -0.007833      0.003109      0.003937
     13.60649      5.17210      4.92826        -0.015464     -0.015447      0.019257
      9.49725      6.02137      7.11137        -0.003429      0.023160     -0.007003
      3.91652      1.06390      1.10530         0.012132      0.010193      0.034888
      9.69052      5.79723      1.02825        -0.008875     -0.006301      0.003749
      5.55996      3.72993      1.09992        -0.006561     -0.041536     -0.009815
     12.22782      8.97667      2.86865        -0.007876      0.013077      0.010667
     12.22062      7.58099      4.89646         0.000497      0.012528     -0.009261
      9.50033      4.35926      2.89266        -0.001056     -0.000279     -0.008764
      8.10177      8.42721      7.03451        -0.017977      0.010892     -0.004322
      8.20297      8.78072      0.90411         0.008986      0.010400     -0.003799
     10.87946      6.90186      2.86164        -0.033583      0.004542      0.011682
[...]
     10.84088      8.41789      0.89812        -0.018653      0.010833     -0.006550
      5.29878      5.08233      4.87221         0.016075      0.020532     -0.031734
     15.21969      9.46320      2.91158         0.008099      0.002765      0.011255
      9.54798      2.83243      4.93973         0.013348      0.006770      0.029756
      6.74099      2.86414      4.91726         0.037588      0.005895     -0.004248
     12.12718      4.37157      2.88927        -0.000530     -0.012856     -0.005484
      2.50652      1.86558      2.87455        -0.013955      0.006705     -0.001314
     12.02738      5.81407      0.92547        -0.016644      0.000029      0.000956
      6.52756      5.95530      1.01982        -0.003354     -0.040173      0.001117
      6.84854      4.37406      2.90086        -0.019448     -0.006170      0.010536
     10.85925      3.70358      7.06506        -0.005282     -0.004841     -0.025488
     10.75754      3.55271      0.95995        -0.002509      0.000774      0.004921
     10.94499      0.41654      4.90182         0.012506      0.027486      0.021611
      9.50574      7.61774      4.99769        -0.003442      0.000066      0.007778
     10.90784      3.55569     10.09315         0.009686     -0.019045      0.017178
    total drift:                                0.004753      0.037110      0.010415

  FREE ENERGIE OF THE ION-ELECTRON SYSTEM (eV)
  free  energy   TOTEN  =      -507.85002400 eV

  energy  without entropy=     -507.85964401  energy(sigma->0) =     -507.85323067

 d Force = 0.1671460E-02[ 0.118E-02, 0.216E-02]  d Energy = 0.1795198E-02-0.124E-03
 d Force =-0.5718432E+01[-0.573E+01,-0.570E+01]  d Ewald  =-0.5718432E+01-0.437E-06

 Conjugate gradient step on ions:
 trial-energy change:   -0.001795  1 .order   -0.001671   -0.002163   -0.001180
  (g-gl).g = 0.730E-03      g.g   = 0.169E-02  gl.gl    = 0.224E-02
 g(Force)  = 0.169E-02   g(Stress)= 0.000E+00 ortho     =-0.324E-03
 gamma     =   0.32667
 trial     =   1.36658
 opt step  =   2.12181  (harmonic =   3.00773) maximal distance =0.00524977
 next E    =  -507.850371   (d E  =  -0.00214)

 reached required accuracy - stopping structural energy minimisation