 vasp.5.4.4.18Apr17-6-g9f103f2a35 (build Oct 25 2019 11:13:22) complex

 executed on             LinuxIFC date 2022.02.12  01:14:48

 INCAR:
 POTCAR:    PAW_PBE Pt 04Feb2005
 POTCAR:    PAW_PBE Fe 06Sep2000
 POTCAR:    PAW_PBE Co 02Aug2007
 POTCAR:    PAW_PBE Ni 02Aug2007
 POTCAR:    PAW_PBE H 15Jun2001
 POTCAR:    PAW_PBE Pt 04Feb2005
   VRHFIN =Pt: s1d9

   TITEL  = PAW_PBE Pt 04Feb2005
   POMASS =  195.080; ZVAL   =   10.000    mass and valenz
   ENMAX  =  230.283; ENMIN  =  172.712 eV

 POTCAR:    PAW_PBE Fe 06Sep2000
   VRHFIN =Fe:  d7 s1

   TITEL  = PAW_PBE Fe 06Sep2000
   POMASS =   55.847; ZVAL   =    8.000    mass and valenz
   ENMAX  =  267.882; ENMIN  =  200.911 eV

 POTCAR:    PAW_PBE Co 02Aug2007
   VRHFIN =Co: d8 s1

   TITEL  = PAW_PBE Co 02Aug2007
   POMASS =   58.933; ZVAL   =    9.000    mass and valenz
   ENMAX  =  267.968; ENMIN  =  200.976 eV

 POTCAR:    PAW_PBE Ni 02Aug2007
   VRHFIN =Ni:

   TITEL  = PAW_PBE Ni 02Aug2007
   POMASS =   58.690; ZVAL   =   10.000    mass and valenz
   ENMAX  =  269.532; ENMIN  =  202.149 eV

 POTCAR:    PAW_PBE H 15Jun2001
   VRHFIN =H: ultrasoft test

   TITEL  = PAW_PBE H 15Jun2001
   POMASS =    1.000; ZVAL   =    1.000    mass and valenz
   ENMAX  =  250.000; ENMIN  =  200.000 eV

 Optimization of the real space projectors (new method)

 maximal supplied QI-value         = 14.36
 optimisation between [QCUT,QGAM] = [ 11.92, 23.98] = [ 39.79,161.09] Ry
 Optimized for a Real-space Cutoff    1.49 Angstroem

   l    n(q)    QCUT    max X(q) W(low)/X(q) W(high)/X(q)  e(spline)
   2     10    11.920    66.195    0.79E-04    0.18E-03    0.24E-06
   2     10    11.920    64.643    0.81E-04    0.19E-03    0.24E-06
   0     11    11.920    95.520    0.28E-04    0.54E-04    0.18E-06
   0     11    11.920    63.403    0.27E-04    0.52E-04    0.17E-06
   1     10    11.920    19.961    0.18E-04    0.11E-03    0.23E-06
   1     10    11.920    13.289    0.25E-04    0.87E-04    0.19E-06
 Optimization of the real space projectors (new method)

[...]

   l    n(q)    QCUT    max X(q) W(low)/X(q) W(high)/X(q)  e(spline)
   2      9    11.864    60.317    0.21E-03    0.51E-03    0.25E-06
   2      9    11.864    55.921    0.21E-03    0.51E-03    0.26E-06
   0      9    11.864    51.690    0.22E-03    0.30E-04    0.17E-06
   0      9    11.864    30.015    0.20E-03    0.28E-04    0.15E-06
   1      9    11.864    18.849    0.76E-04    0.33E-03    0.17E-06
   1      9    11.864    14.624    0.60E-04    0.28E-03    0.15E-06
 Optimization of the real space projectors (new method)

 maximal supplied QI-value         = 34.20
 optimisation between [QCUT,QGAM] = [ 11.97, 23.94] = [ 40.13,160.53] Ry
 Optimized for a Real-space Cutoff    1.18 Angstroem

   l    n(q)    QCUT    max X(q) W(low)/X(q) W(high)/X(q)  e(spline)
   0      8    11.971    19.460    0.15E-03    0.31E-03    0.25E-06
   0      8    11.971    12.209    0.13E-03    0.29E-03    0.25E-06
   1      8    11.971     4.655    0.22E-03    0.24E-03    0.21E-06
  PAW_PBE Pt 04Feb2005                  :
  PAW_PBE Fe 06Sep2000                  :
  PAW_PBE Co 02Aug2007                  :
  PAW_PBE Ni 02Aug2007                  :
  PAW_PBE H 15Jun2001                   :

 POSCAR: 11.26
  positions in direct lattice
  velocities in cartesian coordinates
 exchange correlation table for  LEXCH =        8
   RHO(1)=    0.500       N(1)  =     2000
   RHO(2)=  100.500       N(2)  =     4000

 ion  position               nearest neighbor table
   1  0.783  0.870  0.304-  52 2.53  59 2.56  28 2.70  19 2.74   2 2.76  61 2.77   4 2.79  29 2.79
                            60 2.81  33 2.81  11 2.86  12 2.86
   2  0.029  0.871  0.301-  79 2.51  77 2.53   1 2.76  30 2.77  33 2.80   4 2.80  28 2.81  60 2.85
                             6 2.86  16 2.95  22 2.95
   3  0.281  0.360  0.311-  64 2.53  68 2.61  31 2.64   5 2.73  43 2.74  13 2.77  39 2.78  25 2.79
                            30 2.79  19 2.84  33 2.85  18 2.92
   4  0.866  0.958  0.406-  60 2.60  17 2.75   9 2.76  11 2.78   1 2.79   2 2.80  12 2.83  16 2.87
                             6 2.87
   5  0.111  0.457  0.410-  81 2.15  39 2.62  33 2.69  12 2.73   3 2.73  16 2.73   7 2.78  10 2.79
                            25 2.88  13 2.89
   6  0.125  0.952  0.405-  55 2.68  22 2.73  14 2.80  10 2.81   9 2.83   8 2.83   2 2.86   4 2.87
                            16 2.90
   7  0.869  0.447  0.411-  39 2.59  75 2.66  29 2.73   9 2.74  15 2.75   5 2.78  10 2.80  27 2.85
                            12 2.89
   8  0.375  0.954  0.417-  55 2.51  43 2.60  61 2.69  13 2.76  11 2.77  27 2.77  10 2.82   6 2.83
                            14 2.88
   9  0.871  0.202  0.406-  75 2.58  60 2.65   7 2.74  17 2.76   4 2.76  22 2.79  15 2.82   6 2.83
                            10 2.84
  10  0.123  0.203  0.411-  81 1.52  43 2.63  39 2.64  22 2.74  13 2.78   5 2.79   7 2.80   6 2.81
                             8 2.82   9 2.84
  11  0.625  0.947  0.413-  61 2.64  19 2.72  12 2.75  27 2.76   8 2.77   4 2.78  13 2.85   1 2.86
                            17 2.88
  12  0.871  0.703  0.411-  29 2.68  33 2.71  16 2.73   5 2.73  11 2.75  27 2.82   4 2.83   1 2.86
                             7 2.89
  13  0.371  0.202  0.415-  81 1.96  43 2.64   8 2.76  19 2.77   3 2.77  10 2.78  25 2.79  17 2.85
                            11 2.85   5 2.89
  14  0.372  0.700  0.404-  44 2.52  55 2.59  15 2.77  25 2.80   6 2.80  27 2.81  30 2.84  16 2.88
                             8 2.88
  15  0.620  0.455  0.408-  75 2.62  44 2.62   7 2.75  14 2.77  18 2.77  17 2.79  27 2.80  25 2.81
                             9 2.82
  16  0.117  0.698  0.411-  33 2.71  30 2.72  12 2.73   5 2.73  25 2.82   4 2.87  14 2.88   6 2.90
                             2 2.95
  17  0.624  0.205  0.411-  60 2.61   4 2.75  19 2.76   9 2.76  18 2.76  15 2.79  25 2.79  13 2.85
                            11 2.88
  18  0.539  0.365  0.307-  67 2.51  68 2.60  26 2.68  60 2.69  25 2.76  17 2.76  15 2.77  75 2.79
                            19 2.85   3 2.92  30 2.94  44 3.01
  19  0.538  0.112  0.313-  68 2.49  80 2.53  59 2.55  43 2.69  61 2.70  11 2.72  60 2.74   1 2.74
                            17 2.76  13 2.77   3 2.84  18 2.85
  20  0.538  0.117  0.053-  47 2.51  37 2.56  51 2.64  63 2.67  50 2.71  62 2.73  34 2.74  46 2.79
                            45 2.87
  21  0.106  0.420  0.118-  40 2.50  36 2.51  50 2.54  70 2.60  47 2.66  42 2.66  64 2.70  69 2.71
                            31 2.79  53 3.03
  22  0.049  0.123  0.306-  77 2.51  65 2.52  58 2.54  39 2.69   6 2.73  10 2.74  43 2.76   9 2.79
                            75 2.86  55 2.92   2 2.95  60 3.07  31 3.27
  23  0.025  0.110  0.043-  40 2.54  41 2.55  70 2.56  35 2.67  62 2.71  24 2.74  56 2.77  76 2.83
                            45 2.93
  24  0.117  0.952  0.146-  79 2.49  35 2.51  70 2.62  77 2.62  58 2.62  56 2.64  48 2.66  73 2.70
                            66 2.72  23 2.74  41 2.84  38 2.93
  25  0.372  0.450  0.409-  18 2.76  30 2.78   3 2.79  17 2.79  13 2.79  14 2.80  15 2.81  16 2.82
                             5 2.88
  26  0.451  0.562  0.222-  73 2.52  74 2.53  54 2.55  79 2.59  30 2.62  44 2.62  32 2.67  18 2.68
                            78 2.68  67 2.98  48 2.99
  27  0.620  0.704  0.413-  44 2.55  61 2.65  11 2.76   8 2.77  29 2.79  15 2.80  14 2.81  12 2.82
                             7 2.85
  28  0.949  0.756  0.207-  48 2.55  53 2.56  66 2.63  42 2.65  33 2.65   1 2.70  64 2.70   2 2.81
                            52 2.85  36 2.90  59 3.15
  29  0.797  0.616  0.313-  42 2.58  52 2.59  32 2.62  39 2.67  12 2.68  33 2.68   7 2.73  44 2.79
                             1 2.79  27 2.79  75 2.85  61 2.89
  30  0.266  0.616  0.306-  79 2.51  33 2.58  26 2.62  64 2.70  16 2.72   2 2.77  25 2.78   3 2.79
                            14 2.84  18 2.94  44 3.19  55 3.29
  31  0.191  0.261  0.224-  70 2.48  58 2.52  47 2.57  39 2.61  43 2.61   3 2.64  65 2.68  64 2.74
                            21 2.79  80 2.81  42 2.83  68 3.00  22 3.27
  32  0.700  0.539  0.222-  69 2.53  54 2.60  44 2.62  29 2.62  75 2.63  57 2.63  65 2.66  26 2.67
                            52 2.68  42 2.70  67 2.73  78 2.76
  33  0.034  0.620  0.311-  64 2.55  30 2.58  28 2.65  29 2.68   5 2.69  16 2.71  12 2.71  42 2.73
                             2 2.80   1 2.81  39 2.82   3 2.85
  34  0.791  0.885  0.059-  51 2.33  66 2.39  53 2.60  62 2.68  35 2.73  20 2.74  36 2.75  63 2.89

  35  0.043  0.865  0.057-  36 2.40  24 2.51  66 2.52  23 2.67  34 2.73  48 2.84  72 2.85  56 2.85
                            62 3.00
  36  0.042  0.658  0.084-  48 2.40  35 2.40  53 2.47  21 2.51  72 2.75  34 2.75  28 2.90
  37  0.624  0.211  0.138-  59 2.38  62 2.40  67 2.45  46 2.46  68 2.48  74 2.55  20 2.56  66 2.66
                            41 2.68  54 2.71  47 2.99  51 3.04
  38  0.377  0.954  0.136-  63 2.36  45 2.39  56 2.40  58 2.42  80 2.45  73 2.50  78 2.54  57 2.61
                            47 2.77  70 2.82  51 2.87  24 2.93
  39  0.028  0.372  0.317-   7 2.59  65 2.61  31 2.61   5 2.62  42 2.64  10 2.64  29 2.67  22 2.69
                            75 2.74   3 2.78  33 2.82  43 3.01
  40  0.983  0.354  0.043-  69 2.31  76 2.42  21 2.50  23 2.54  70 2.62  71 2.63  45 3.12
  41  0.866  0.206  0.135-  77 2.42  76 2.43  67 2.44  62 2.46  65 2.52  23 2.55  69 2.55  66 2.57
                            70 2.65  37 2.68  24 2.84  54 2.87
  42  0.948  0.521  0.217-  53 2.52  69 2.54  64 2.55  65 2.57  29 2.58  39 2.64  28 2.65  21 2.66
                            32 2.70  33 2.73  31 2.83  52 2.97
  43  0.300  0.108  0.320-  58 2.48  55 2.49   8 2.60  31 2.61  80 2.61  10 2.63  13 2.64  61 2.65
                            19 2.69   3 2.74  22 2.76  39 3.01
  44  0.541  0.631  0.318-  14 2.52  78 2.55  27 2.55  32 2.62  15 2.62  26 2.62  55 2.64  61 2.67
                            29 2.79  75 2.86  18 3.01  30 3.19
  45  0.285  0.111  0.053-  38 2.39  70 2.47  47 2.48  56 2.53  63 2.71  20 2.87  23 2.93  40 3.12

  46  0.535  0.367  0.050-  54 2.40  50 2.43  37 2.46  74 2.47  76 2.54  62 2.67  72 2.72  20 2.79
                            49 2.82
  47  0.359  0.209  0.135-  50 2.40  68 2.41  45 2.48  20 2.51  31 2.57  80 2.60  21 2.66  74 2.74
                            38 2.77  70 2.92  37 2.99
  48  0.180  0.691  0.158-  79 2.40  36 2.40  72 2.41  64 2.41  73 2.49  28 2.55  24 2.66  74 2.70
                            35 2.84  26 2.99
  49  0.521  0.625  0.052-  54 2.35  73 2.38  71 2.44  57 2.44  72 2.53  56 2.78  46 2.82  76 2.90
                            63 2.95
  50  0.315  0.374  0.056-  74 2.35  47 2.40  46 2.43  21 2.54  72 2.65  20 2.71
  51  0.642  0.932  0.141-  34 2.33  52 2.34  63 2.45  59 2.53  53 2.55  80 2.56  20 2.64  57 2.67
                            66 2.78  38 2.87  37 3.04
  52  0.683  0.786  0.223-  51 2.34  78 2.41  57 2.48  61 2.52   1 2.53  53 2.55  29 2.59  80 2.65
                            32 2.68  28 2.85  42 2.97  59 3.12
  53  0.830  0.681  0.129-  57 2.36  71 2.40  36 2.47  42 2.52  52 2.55  51 2.55  28 2.56  69 2.59
                            34 2.60  21 3.03
[...]
   0.116E+02 -.536E+02 -.131E+04   -.130E+02 0.535E+02 0.131E+04   0.146E+01 0.140E+00 0.202E+01   -.150E-02 -.109E-01 0.393E-03
   -.339E+02 0.444E+02 -.262E+04   0.339E+02 -.433E+02 0.262E+04   -.178E-01 -.103E+01 0.174E+01   -.659E-02 -.561E-03 0.365E-01
   -.321E+02 -.150E+02 -.263E+04   0.312E+02 0.169E+02 0.263E+04   0.947E+00 -.195E+01 0.270E+01   -.101E-01 -.935E-02 0.813E-02
   0.570E+02 0.168E+02 -.259E+04   -.565E+02 -.173E+02 0.258E+04   -.536E+00 0.469E+00 0.190E+01   0.193E-01 -.957E-02 0.236E-01
   -.289E+02 -.162E+02 -.270E+04   0.284E+02 0.155E+02 0.270E+04   0.563E+00 0.750E+00 0.275E+01   -.462E-02 -.326E-02 -.201E-02
   0.350E+02 -.941E+01 -.279E+04   -.348E+02 0.926E+01 0.278E+04   -.155E+00 0.181E+00 0.357E+01   -.121E-01 -.104E-01 0.286E-02
   -.138E+02 0.441E+02 -.266E+04   0.134E+02 -.440E+02 0.266E+04   0.405E+00 -.141E+00 0.224E+01   0.794E-02 0.241E-01 0.127E-01
   0.287E+02 -.885E+00 -.267E+04   -.284E+02 0.107E+01 0.267E+04   -.177E+00 -.157E+00 0.179E+01   -.147E-01 -.740E-04 0.289E-02
   -.555E+02 0.412E+00 -.271E+04   0.550E+02 -.104E+01 0.271E+04   0.483E+00 0.611E+00 0.198E+01   -.473E-02 0.547E-02 0.214E-01
   -.317E+02 -.186E+01 -.265E+04   0.322E+02 0.154E+01 0.265E+04   -.493E+00 0.338E+00 0.203E+01   -.508E-02 -.248E-01 0.226E-01
   -.243E+02 -.497E+02 -.270E+04   0.240E+02 0.494E+02 0.270E+04   0.301E+00 0.310E+00 0.126E+01   -.259E-01 0.186E-01 0.105E-01
   0.680E+02 0.384E+02 -.263E+04   -.676E+02 -.381E+02 0.263E+04   -.433E+00 -.332E+00 0.253E+01   0.156E-01 -.660E-03 0.174E-01
   0.421E+02 -.735E+01 -.267E+04   -.415E+02 0.809E+01 0.267E+04   -.478E+00 -.746E+00 0.248E+01   -.367E-02 0.341E-02 0.656E-02
   -.150E+02 -.135E+02 -.262E+04   0.145E+02 0.130E+02 0.262E+04   0.465E+00 0.559E+00 0.208E+01   0.896E-02 -.120E-01 0.205E-01
   0.427E+01 -.160E+02 -.270E+04   -.402E+01 0.159E+02 0.270E+04   -.238E+00 0.126E+00 0.239E+01   -.168E-01 0.160E-01 0.120E-01
   0.746E+02 -.837E+02 -.127E+04   -.736E+02 0.831E+02 0.127E+04   -.101E+01 0.670E+00 0.199E+01   0.139E-01 0.968E-02 0.979E-02
   -.795E+01 -.351E+02 -.138E+04   0.725E+01 0.345E+02 0.138E+04   0.742E+00 0.657E+00 0.262E+01   -.182E-01 0.301E-01 0.264E-01
   0.513E+02 0.207E+02 0.274E+04   -.512E+02 -.209E+02 -.274E+04   -.131E+00 0.667E-01 -.275E+01   0.992E-02 0.124E-01 -.107E-01
   -.961E+02 -.109E+03 0.185E+04   0.959E+02 0.109E+03 -.185E+04   0.231E+00 -.245E+00 0.134E+01   0.104E-01 -.101E-02 -.833E-02
   -.672E+01 0.387E+02 -.127E+04   0.757E+01 -.377E+02 0.127E+04   -.895E+00 -.954E+00 0.201E+01   0.193E-01 0.185E-01 0.111E-02
   -.436E+02 0.102E+03 0.286E+04   0.438E+02 -.101E+03 -.286E+04   -.171E+00 -.883E+00 -.236E+01   -.127E-01 0.126E-02 -.768E-02
   0.869E+02 0.239E+02 0.133E+04   -.871E+02 -.248E+02 -.133E+04   0.167E+00 0.876E+00 -.393E+00   0.214E-02 -.821E-03 -.161E-01
   0.194E+02 -.271E+02 -.263E+04   -.189E+02 0.268E+02 0.263E+04   -.550E+00 0.229E+00 0.182E+01   0.128E-01 -.446E-02 0.164E-01
   0.100E+03 0.879E+02 -.432E+01   -.100E+03 -.876E+02 0.386E+01   -.362E+00 -.408E+00 0.183E+00   -.261E-02 -.920E-02 -.464E-03
   -.148E+02 0.390E+02 -.271E+04   0.146E+02 -.386E+02 0.271E+04   0.254E+00 -.336E+00 0.278E+01   -.229E-02 -.718E-02 0.226E-01
   -.493E+02 0.111E+02 0.370E+03   0.493E+02 -.130E+02 -.371E+03   -.104E+00 0.192E+01 0.358E+00   0.243E-02 -.146E-01 -.160E-01
   -.733E+02 0.615E+00 -.132E+04   0.744E+02 -.131E+01 0.132E+04   -.101E+01 0.710E+00 0.255E+01   -.511E-02 -.140E-01 0.971E-02
   0.329E+02 0.272E+02 -.122E+04   -.338E+02 -.267E+02 0.122E+04   0.984E+00 -.369E+00 0.187E+01   0.223E-01 -.141E-01 -.115E-01
   -.451E+02 -.984E+02 0.560E+02   0.447E+02 0.979E+02 -.561E+02   0.407E+00 0.764E+00 0.160E+00   0.189E-02 0.811E-02 0.402E-02
   -.288E+02 -.225E+02 0.315E+02   0.293E+02 0.224E+02 -.317E+02   -.246E+00 0.839E-01 0.163E+00   -.204E-02 -.144E-01 0.598E-02
   0.724E+00 -.412E+01 -.996E+03   -.517E+00 0.404E+01 0.995E+03   -.196E+00 0.152E+00 0.400E+00   -.166E-02 -.157E-01 0.592E-02
   -.366E+02 0.128E+03 0.221E+04   0.380E+02 -.127E+03 -.221E+04   -.133E+01 -.128E+01 -.380E+01   0.696E-02 0.919E-02 -.109E-01
   0.576E+02 0.102E+03 0.219E+04   -.586E+02 -.102E+03 -.218E+04   0.104E+01 -.430E-01 -.352E+01   -.309E-02 0.477E-02 -.840E-02
   0.459E+02 0.446E+02 0.193E+04   -.455E+02 -.432E+02 -.193E+04   -.507E+00 -.133E+01 -.192E+01   0.384E-02 -.443E-02 -.741E-02
   0.780E+02 0.402E+02 0.118E+04   -.774E+02 -.399E+02 -.118E+04   -.680E+00 -.292E+00 -.313E+00   0.541E-02 0.139E-01 -.236E-01
   -.208E+02 -.118E+03 0.123E+04   0.211E+02 0.117E+03 -.123E+04   -.319E+00 0.458E-01 -.148E+00   -.290E-02 0.217E-02 -.689E-02
   -.675E+02 -.303E+02 -.110E+04   0.674E+02 0.304E+02 0.110E+04   0.213E+00 -.120E+00 0.100E+00   -.770E-02 -.239E-02 0.102E-01
   -.245E+03 -.489E+02 0.234E+04   0.243E+03 0.482E+02 -.234E+04   0.241E+01 0.742E+00 -.456E+01   0.519E-03 -.355E-02 -.459E-02
   -.221E+02 0.632E+02 0.120E+04   0.214E+02 -.632E+02 -.120E+04   0.740E+00 -.129E+00 -.485E+00   -.818E-02 0.604E-02 -.161E-01
   -.107E+03 -.413E+02 0.122E+03   0.107E+03 0.414E+02 -.122E+03   0.282E+00 -.151E+00 -.175E+00   -.408E-02 -.712E-02 -.116E-02
   0.912E+01 -.101E+03 -.117E+04   -.905E+01 0.101E+03 0.117E+04   -.545E-01 0.430E+00 0.541E+00   -.562E-02 0.109E-01 0.126E-01
   0.354E+02 0.724E+02 -.114E+04   -.352E+02 -.717E+02 0.114E+04   -.171E+00 -.777E+00 -.446E+00   -.580E-02 -.126E-01 0.865E-02
   -.437E+02 -.108E+03 0.224E+04   0.441E+02 0.105E+03 -.224E+04   -.371E+00 0.264E+01 -.418E+01   0.129E-02 0.547E-02 -.674E-02
   0.836E+02 0.142E+02 0.229E+04   -.834E+02 -.143E+02 -.228E+04   -.220E+00 0.103E+00 -.336E+01   -.514E-02 -.143E-01 -.118E-02
   0.329E+02 -.159E+02 0.123E+04   -.332E+02 0.159E+02 -.123E+04   0.325E+00 -.372E-01 0.302E+00   0.197E-02 0.115E-01 -.122E-01
   0.154E+03 0.138E+01 0.903E+03   -.154E+03 -.134E+01 -.904E+03   0.635E+00 -.510E-01 0.110E+01   0.269E-02 -.920E-02 -.795E-02
   0.507E+02 -.409E+02 0.260E+04   -.509E+02 0.410E+02 -.259E+04   0.217E+00 -.126E+00 -.291E+01   -.539E-02 -.581E-02 -.415E-03
   0.190E+03 -.512E+02 0.250E+04   -.188E+03 0.508E+02 -.250E+04   -.178E+01 0.453E+00 -.373E+01   0.319E-02 -.914E-04 -.316E-02
   -.710E+02 -.550E+02 0.129E+04   0.706E+02 0.544E+02 -.129E+04   0.438E+00 0.651E+00 -.122E+00   -.336E-02 -.316E-02 -.173E-01
   -.164E+03 0.296E+02 0.368E+02   0.164E+03 -.294E+02 -.366E+02   0.320E+00 -.266E+00 -.191E+00   -.586E-02 -.180E-01 -.123E-01
   -.220E+03 -.562E+01 0.150E+04   0.220E+03 0.658E+01 -.150E+04   -.146E+00 -.101E+01 0.933E-01   0.188E-02 -.392E-02 -.444E-02
   0.456E+02 0.819E+01 0.134E+04   -.456E+02 -.862E+01 -.134E+04   0.364E-01 0.483E+00 -.219E+00   -.390E-02 -.166E-01 0.750E-02
   0.121E+03 0.198E+02 -.135E+04   -.120E+03 -.197E+02 0.135E+04   -.950E+00 -.135E+00 0.312E+00   -.858E-02 0.120E-02 0.137E-01
   0.668E+02 -.236E+02 0.256E+04   -.659E+02 0.242E+02 -.256E+04   -.908E+00 -.574E+00 -.281E+01   -.682E-02 0.830E-02 -.572E-02
   -.630E+02 -.707E+01 0.139E+04   0.631E+02 0.753E+01 -.139E+04   -.103E+00 -.491E+00 0.294E-02   0.399E-02 -.103E-02 0.843E-02
   0.826E+02 -.119E+03 0.630E+01   -.823E+02 0.119E+03 -.573E+01   -.423E+00 0.907E-01 -.684E+00   -.722E-03 0.627E-03 0.600E-02
   0.270E+02 0.102E+03 0.966E+02   -.270E+02 -.102E+03 -.967E+02   -.392E-01 -.310E+00 0.196E-01   -.291E-02 0.137E-01 -.168E-01
   -.525E+01 0.501E+02 -.126E+04   0.521E+01 -.500E+02 0.126E+04   0.699E-01 -.162E+00 0.129E+00   0.815E-02 0.310E-01 0.128E-01
[...]
   0.620E+02 -.849E+02 0.978E+02   -.613E+02 0.846E+02 -.975E+02   -.709E+00 0.207E+00 -.146E+00   -.719E-02 0.249E-01 -.622E-02
   -.147E+03 -.475E+02 0.150E+04   0.147E+03 0.479E+02 -.150E+04   0.301E+00 -.276E+00 -.816E+00   -.303E-02 -.496E-02 0.427E-03
   -.912E+02 0.440E-01 0.153E+04   0.917E+02 -.403E+00 -.153E+04   -.477E+00 0.319E+00 -.672E+00   0.755E-03 0.389E-02 -.922E-02
   -.229E+03 -.130E+03 0.291E+04   0.228E+03 0.129E+03 -.291E+04   0.141E+01 0.103E+01 -.353E+01   0.121E-01 -.651E-02 -.450E-02
   0.213E+03 -.339E+02 0.271E+04   -.213E+03 0.336E+02 -.271E+04   -.585E-01 0.305E+00 -.159E+01   -.153E-01 -.106E-01 -.146E-02
   0.106E+03 0.753E+01 0.149E+04   -.106E+03 -.764E+01 -.149E+04   -.247E+00 0.151E+00 0.638E-01   -.803E-02 -.206E-03 0.472E-02
   0.143E+03 -.323E+02 0.130E+04   -.143E+03 0.321E+02 -.130E+04   -.483E+00 0.239E+00 -.436E+00   -.398E-02 -.386E-02 -.956E-02
   -.566E+01 -.404E+02 -.140E+04   0.544E+01 0.401E+02 0.140E+04   0.261E+00 0.309E+00 0.293E+00   0.233E-02 0.869E-02 0.647E-02
   0.241E+02 0.220E+02 0.287E+04   -.246E+02 -.217E+02 -.287E+04   0.482E+00 -.290E+00 -.849E+00   -.837E-02 -.229E-01 -.399E-02
   -.622E+02 0.168E+03 -.103E+02   0.621E+02 -.168E+03 0.105E+02   0.903E-01 -.207E-01 -.428E+00   0.155E-01 0.175E-01 -.118E-01
   -.246E+02 0.563E+02 -.142E+02   0.246E+02 -.554E+02 0.144E+02   0.102E+00 -.805E+00 -.135E+00   -.821E-02 -.807E-02 -.617E-02
   0.208E+03 0.313E+02 -.175E+03   -.208E+03 -.308E+02 0.175E+03   0.890E-01 -.523E+00 -.495E+00   0.996E-02 -.889E-02 0.288E-02
   -.585E+02 -.916E+02 0.123E+03   0.587E+02 0.913E+02 -.124E+03   -.891E-02 0.356E+00 0.160E+00   -.133E-01 0.847E-02 -.106E-01
   0.108E+01 -.986E+01 -.315E+03   -.112E+01 0.105E+02 0.317E+03   0.594E-01 -.574E+00 -.139E+01   0.162E-02 0.113E-03 -.357E-03
   -.180E+01 0.829E+00 -.345E+01   0.246E-12 -.457E-12 0.134E-10   0.187E+01 -.805E+00 0.341E+01   -.560E-01 0.906E-02 0.359E-01

 POSITION                                       TOTAL-FORCE (eV/Angst)
     13.66920      8.47125      6.69253         0.008660     -0.023707     -0.000948
      5.21132      8.45902      6.58863         0.001058      0.004334     -0.001789
      5.15051      3.49892      6.85461         0.004035      0.003339     -0.001999
     15.13338      9.30197      8.92747        -0.000879     -0.001185      0.010881
      3.80636      4.48846      9.04539         0.003097     -0.000552      0.005211
      6.71820      9.19917      8.84160         0.022968     -0.000178      0.012216
     12.22942      4.35267      9.05096         0.014816     -0.003999      0.000199
      9.54473      9.21864      9.15672         0.003431      0.005115     -0.008570
     10.89998      1.94781      8.92281         0.019665      0.009315     -0.006624
      2.46448      1.93903      9.07590         0.029805      0.010151     -0.003735
     12.32902      9.21436      9.09553         0.006841     -0.005065     -0.005218
     13.74511      6.86257      9.04302         0.006057     -0.005530     -0.003926
      5.32304      1.93556      9.18201         0.015290     -0.009395     -0.004367
      8.06307      6.81816      8.90708        -0.014640      0.002536     -0.002962
      9.49556      4.42513      8.97651         0.004628      0.006433     -0.005972
      5.24737      6.83694      8.96097        -0.011613     -0.000061      0.003736
      8.12616      1.97973      9.04653         0.016606     -0.002894     -0.016496
      8.08856      3.54045      6.75986        -0.007491      0.008848     -0.005685
      6.64985      1.09262      6.89334         0.014652     -0.006196      0.001671
      6.68830      1.13624      1.16869         0.011615     -0.015228     -0.032876
      3.54481      4.07903      2.60632         0.018815     -0.009776     -0.044436
      1.24860      1.20985      6.73355        -0.010168     -0.000217      0.017644
      0.89178      1.06685      0.94626        -0.011876     -0.002054     -0.009433
      6.65662      9.25676      3.21225         0.007896      0.004231     -0.044249
      6.70748      4.39938      8.99672         0.003214      0.005900      0.003954
      8.21162      5.46055      4.88522        -0.204005     -0.043281     -0.222404
     10.92201      6.83574      9.07059        -0.018127      0.001069      0.007739
     14.89052      7.35140      4.54429        -0.017183      0.020334      0.023155
     12.41669      5.98231      6.87482        -0.007194     -0.003891      0.004497
      6.44413      5.96162      6.72290         0.008424      0.006795     -0.012543
      3.61025      2.53567      4.92929        -0.110993      0.188640      0.004527
     10.87699      5.23710      4.87771         0.216553     -0.028594     -0.051502
      3.86185      6.04114      6.84241         0.003372      0.000386      0.012475
     13.83953      8.59728      1.29834         0.012209      0.011127      0.013788
      5.33586      8.40288      1.25445         0.006929     -0.013895      0.043402
      4.16277      6.39081      1.85096         0.015098     -0.017819      0.013018
      8.19107      2.05273      3.03386        -0.012436     -0.009438     -0.022904
      9.58169      9.27602      2.99468         0.026197      0.004111      0.028177
      2.40944      3.61263      6.99914        -0.000911      0.005891     -0.012753
     13.01773      3.43953      0.94254        -0.031452      0.016513     -0.001734
     10.87071      1.99839      2.96738         0.031588      0.004269     -0.016161
     13.56890      5.06817      4.77058         0.025743     -0.006680      0.013954
      3.97903      1.05064      7.05681        -0.000095     -0.006940     -0.002639
      9.60152      6.13662      6.99786         0.004127     -0.009504      0.004285
      3.81646      1.07543      1.16136        -0.012870     -0.017888      0.014013
      8.06104      3.56771      1.10023        -0.007288     -0.012534      0.005576
      5.20370      2.03419      2.97809        -0.010882     -0.047420      0.076308
      5.89506      6.72021      3.47528        -0.021201     -0.013271     -0.034358
      9.35391      6.06988      1.14808         0.009637     -0.031389      0.023871
      5.63380      3.63292      1.23723         0.042720      0.069702     -0.001454
     12.43866      9.06023      3.09611        -0.004931     -0.006634     -0.037323
     12.07766      7.63668      4.91324         0.018713     -0.040004      0.011300
     13.13008      6.61689      2.83040        -0.044775      0.009863     -0.022403
      9.41148      4.47169      2.86934         0.026320     -0.022374      0.007891
      8.50625      8.51334      7.00730         0.007849      0.006633     -0.003462
      8.18243      8.58957      1.16315        -0.015708      0.017710     -0.018790
     10.79405      6.97057      2.90238        -0.011136      0.010497      0.034863
      2.82111      0.14512      5.04740        -0.168626     -0.055593      0.013057
      8.14725      0.55026      4.88481         0.000766     -0.006735      0.025630
      9.38805      1.20062      6.88692        -0.002510      0.018626     -0.008349
[...]
      9.60048      2.82018      4.87865        -0.039137      0.040222      0.054138
      6.60502      2.54502      4.87077        -0.043657     -0.023801      0.087524
     12.08196      4.24602      2.88896         0.007570      0.002530     -0.044308
      2.28916      1.82528      2.94996         0.002028     -0.034781      0.037481
     11.76886      5.74999      1.05362         0.003240     -0.010436     -0.009497
      6.84033      5.98705      1.38644        -0.013962      0.007935      0.010992
      8.30437      7.12497      3.00063         0.000792      0.035147      0.024330
      6.85459      4.22009      3.15394        -0.052988     -0.030542     -0.003753
     10.87733      3.57193      6.91253        -0.000921      0.001772     -0.003057
     10.60151      3.45495      1.03917        -0.000503     -0.006004     -0.023036
     10.73179      0.68889      4.99664        -0.027331     -0.003012     -0.084105
      9.67006      7.71157      4.99333         0.042962      0.117290      0.084501
      7.17143      7.81748      5.18228         0.011210     -0.025078     -0.003617
      5.29940      0.29561      4.91544         0.139766     -0.052995     -0.035988
      3.86721      2.59150      9.99197         0.019968      0.025115     -0.031330
    total drift:                                0.017285      0.033159      0.001137

  FREE ENERGIE OF THE ION-ELECTRON SYSTEM (eV)
  free  energy   TOTEN  =      -538.51684450 eV

  energy  without entropy=     -538.52940382  energy(sigma->0) =     -538.52103094

 d Force = 0.2063819E-02[ 0.971E-03, 0.316E-02]  d Energy = 0.2009057E-02 0.548E-04
 d Force =-0.8269299E+01[-0.828E+01,-0.826E+01]  d Ewald  =-0.8269295E+01-0.371E-05

 Conjugate gradient step on ions:
 trial-energy change:   -0.002009  1 .order   -0.002064   -0.003156   -0.000971
  (g-gl).g = 0.147E-02      g.g   = 0.161E-02  gl.gl    = 0.428E-02
 g(Force)  = 0.161E-02   g(Stress)= 0.000E+00 ortho     = 0.156E-03
 gamma     =   0.34458
 trial     =   1.89471
 opt step  =   3.00025  (harmonic =   2.73700) maximal distance =0.01367080
 next E    =  -538.517117   (d E  =  -0.00228)

 reached required accuracy - stopping structural energy minimisation