 vasp.5.4.4.18Apr17-6-g9f103f2a35 (build Nov 30 2020 22:55:02) complex

 executed on             LinuxIFC date 2022.09.16  21:57:42

 INCAR:
 POTCAR:    PAW_PBE Pt 04Feb2005
 POTCAR:    PAW_PBE Fe 06Sep2000
 POTCAR:    PAW_PBE Co 02Aug2007
 POTCAR:    PAW_PBE Cu 22Jun2005
 POTCAR:    PAW_PBE Ni 02Aug2007
 POTCAR:    PAW_PBE C 08Apr2002

 POTCAR:    PAW_PBE Pt 04Feb2005
   VRHFIN =Pt: s1d9

   TITEL  = PAW_PBE Pt 04Feb2005
   POMASS =  195.080; ZVAL   =   10.000    mass and valenz
   ENMAX  =  230.283; ENMIN  =  172.712 eV

 POTCAR:    PAW_PBE Fe 06Sep2000
   VRHFIN =Fe:  d7 s1

   TITEL  = PAW_PBE Fe 06Sep2000
   POMASS =   55.847; ZVAL   =    8.000    mass and valenz
   ENMAX  =  267.882; ENMIN  =  200.911 eV

 POTCAR:    PAW_PBE Co 02Aug2007
   VRHFIN =Co: d8 s1

   TITEL  = PAW_PBE Co 02Aug2007
   POMASS =   58.933; ZVAL   =    9.000    mass and valenz
   ENMAX  =  267.968; ENMIN  =  200.976 eV

 POTCAR:    PAW_PBE Cu 22Jun2005
   VRHFIN =Cu: d10 p1

   TITEL  = PAW_PBE Cu 22Jun2005
   POMASS =   63.546; ZVAL   =   11.000    mass and valenz
   ENMAX  =  295.446; ENMIN  =  221.585 eV

 POTCAR:    PAW_PBE Ni 02Aug2007
   VRHFIN =Ni:

   TITEL  = PAW_PBE Ni 02Aug2007
   POMASS =   58.690; ZVAL   =   10.000    mass and valenz
   ENMAX  =  269.532; ENMIN  =  202.149 eV

 POTCAR:    PAW_PBE C 08Apr2002
   VRHFIN =C: s2p2

   TITEL  = PAW_PBE C 08Apr2002
   POMASS =   12.011; ZVAL   =    4.000    mass and valenz
   ENMAX  =  400.000; ENMIN  =  300.000 eV

 Optimization of the real space projectors (new method)

 maximal supplied QI-value         = 14.36
 optimisation between [QCUT,QGAM] = [ 11.92, 23.98] = [ 39.79,161.09] Ry
 Optimized for a Real-space Cutoff    1.49 Angstroem

   l    n(q)    QCUT    max X(q) W(low)/X(q) W(high)/X(q)  e(spline)
   2     10    11.920    66.195    0.79E-04    0.18E-03    0.24E-06
   2     10    11.920    64.643    0.81E-04    0.19E-03    0.24E-06
   0     11    11.920    95.520    0.28E-04    0.54E-04    0.18E-06
   0     11    11.920    63.403    0.27E-04    0.52E-04    0.17E-06
   1     10    11.920    19.961    0.18E-04    0.11E-03    0.23E-06
   1     10    11.920    13.289    0.25E-04    0.87E-04    0.19E-06
 Optimization of the real space projectors (new method)

[...]

   l    n(q)    QCUT    max X(q) W(low)/X(q) W(high)/X(q)  e(spline)
   2      9    11.864    60.317    0.21E-03    0.51E-03    0.25E-06
   2      9    11.864    55.921    0.21E-03    0.51E-03    0.26E-06
   0      9    11.864    51.690    0.22E-03    0.30E-04    0.17E-06
   0      9    11.864    30.015    0.20E-03    0.28E-04    0.15E-06
   1      9    11.864    18.849    0.76E-04    0.33E-03    0.17E-06
   1      9    11.864    14.624    0.60E-04    0.28E-03    0.15E-06
 Optimization of the real space projectors (new method)

 maximal supplied QI-value         = 25.13
 optimisation between [QCUT,QGAM] = [ 11.81, 23.88] = [ 39.08,159.64] Ry
 Optimized for a Real-space Cutoff    1.18 Angstroem

   l    n(q)    QCUT    max X(q) W(low)/X(q) W(high)/X(q)  e(spline)
   0      8    11.813   115.676    0.10E-03    0.16E-03    0.35E-06
   0      8    11.813    87.132    0.10E-03    0.16E-03    0.35E-06
   1      8    11.813     4.429    0.16E-03    0.13E-04    0.22E-06
   1      8    11.813     2.733    0.13E-03    0.10E-04    0.18E-06
  PAW_PBE Pt 04Feb2005                  :
  PAW_PBE Fe 06Sep2000                  :
  PAW_PBE Co 02Aug2007                  :
  PAW_PBE Cu 22Jun2005                  :
  PAW_PBE Ni 02Aug2007                  :
  PAW_PBE C 08Apr2002                   :

 POSCAR: Pt   Fe   Co   Cu   Ni   C
  positions in cartesian coordinates
 exchange correlation table for  LEXCH =        8
   RHO(1)=    0.500       N(1)  =     2000
   RHO(2)=  100.500       N(2)  =     4000

 ion  position               nearest neighbor table
   1  0.787  0.879  0.317-  49 2.61  28 2.61  19 2.63  59 2.64  33 2.65  61 2.66  29 2.67  60 2.69
                             2 2.73  11 2.78   4 2.78  12 2.86
   2  0.043  0.885  0.317-  79 2.56  77 2.61  60 2.62  30 2.64  52 2.65  28 2.69  22 2.69  33 2.69
                             1 2.73   4 2.79   6 2.84  16 2.92
   3  0.277  0.382  0.320-  39 2.54  64 2.57  33 2.58  31 2.63  43 2.71  19 2.71  30 2.72  68 2.73
                            13 2.77   5 2.80  18 2.83  25 2.84
   4  0.872  0.962  0.422-  17 2.62  11 2.62   6 2.63  12 2.64   9 2.65  16 2.67   1 2.78  60 2.79
                             2 2.79
   5  0.122  0.464  0.430-  16 2.60  10 2.60  12 2.62   7 2.64  25 2.65  13 2.68  33 2.75  39 2.77
                             3 2.80
   6  0.124  0.956  0.429-  81 1.88  16 2.61   4 2.63  14 2.65   8 2.71   9 2.72  10 2.75   2 2.84
                            52 2.93  22 3.01
   7  0.873  0.462  0.426-  15 2.61  10 2.63  12 2.64  27 2.64   5 2.64   9 2.64  39 2.68  75 2.76
                            29 2.77
   8  0.379  0.958  0.420-  27 2.59  43 2.60  11 2.61  14 2.63  13 2.65  61 2.70  52 2.70   6 2.71
                            10 2.72  81 2.75
   9  0.869  0.214  0.420-  15 2.59  17 2.60   7 2.64   4 2.65  75 2.67  60 2.71   6 2.72  10 2.73
                            22 2.82
  10  0.125  0.216  0.434-  81 1.89   5 2.60  13 2.63   7 2.63   8 2.72   9 2.73   6 2.75  39 2.86
                            43 2.92  22 2.98
  11  0.625  0.960  0.424-   8 2.61   4 2.62  12 2.63  13 2.63  27 2.64  17 2.64   1 2.78  19 2.83
                            61 2.84
  12  0.874  0.711  0.427-   5 2.62  11 2.63  16 2.63   7 2.64   4 2.64  27 2.65  33 2.69  29 2.83
                             1 2.86
  13  0.376  0.210  0.423-  10 2.63  17 2.63  11 2.63  25 2.65   8 2.65   5 2.68  43 2.74   3 2.77
                            19 2.80
  14  0.378  0.709  0.423-  27 2.60  15 2.61  25 2.63   8 2.63   6 2.65  44 2.67  16 2.68  30 2.75
                            52 2.78
  15  0.626  0.462  0.423-   9 2.59   7 2.61  14 2.61  27 2.62  25 2.66  17 2.66  44 2.71  75 2.73
                            18 2.76
  16  0.124  0.709  0.428-   5 2.60   6 2.61  25 2.63  12 2.63   4 2.67  14 2.68  33 2.69  30 2.85
                             2 2.92
  17  0.625  0.210  0.422-   9 2.60   4 2.62  13 2.63  11 2.64  25 2.65  15 2.66  18 2.77  60 2.79
                            19 2.86
  18  0.548  0.376  0.317-  67 2.56  60 2.59  75 2.61  44 2.65  68 2.65  26 2.66  30 2.71  19 2.72
                            15 2.76  17 2.77   3 2.83  25 2.87
  19  0.534  0.125  0.315-  80 2.55  68 2.57  43 2.57  59 2.60   1 2.63  61 2.64   3 2.71  18 2.72
                            60 2.76  13 2.80  11 2.83  17 2.86
  20  0.547  0.124  0.040-  37 2.55  57 2.56  48 2.58  62 2.64  63 2.68  47 2.68  45 2.68  56 2.70
                            34 2.71
  21  0.121  0.460  0.128-  40 2.52  36 2.53  47 2.53  42 2.60  69 2.61  64 2.62  70 2.64  50 2.64
                            58 2.67  31 2.70  57 2.71  74 2.72
  22  0.045  0.138  0.316-  65 2.54  55 2.55  43 2.55  39 2.56  75 2.60  77 2.61   2 2.69  60 2.70
                            52 2.72   9 2.82  10 2.98   6 3.01  31 3.39
  23  0.042  0.130  0.033-  70 2.58  40 2.60  41 2.61  45 2.62  62 2.64  76 2.64  24 2.69  35 2.73
                            53 2.78
  24  0.130  0.958  0.132-  79 2.51  77 2.54  35 2.57  53 2.57  55 2.58  70 2.62  38 2.64  58 2.64
                            73 2.65  23 2.69  66 2.70  41 2.72
  25  0.374  0.461  0.426-  16 2.63  14 2.63  13 2.65  17 2.65   5 2.65  15 2.66  30 2.83   3 2.84
                            18 2.87
  26  0.455  0.546  0.219-  73 2.50  74 2.54  51 2.56  79 2.61  64 2.63  30 2.65  18 2.66  68 2.67
                            78 2.67  32 2.68  67 2.72  44 2.74
  27  0.623  0.711  0.424-   8 2.59  14 2.60  15 2.62   7 2.64  11 2.64  12 2.65  44 2.70  29 2.79
                            61 2.79
  28  0.956  0.790  0.221-  58 2.57  66 2.57  50 2.58  42 2.59  49 2.61   1 2.61  64 2.63   2 2.69
                            59 2.70  33 2.72  79 2.76  77 2.77
  29  0.793  0.623  0.319-  39 2.54  42 2.56  75 2.58  32 2.61  44 2.65  33 2.65   1 2.67  61 2.67
                            49 2.68   7 2.77  27 2.79  12 2.83
  30  0.290  0.632  0.318-  79 2.56  64 2.60  52 2.61  44 2.62   2 2.64  33 2.65  26 2.65  18 2.71
                             3 2.72  14 2.75  25 2.83  16 2.85
  31  0.203  0.281  0.225-  70 2.52  55 2.56  65 2.57  43 2.60  57 2.60   3 2.63  39 2.67  80 2.70
                            21 2.70  42 2.71  68 2.75  64 2.79  22 3.39
  32  0.706  0.549  0.221-  54 2.53  69 2.56  51 2.58  49 2.59  42 2.60  29 2.61  78 2.62  65 2.63
                            26 2.68  75 2.68  44 2.70  67 2.70
  33  0.040  0.632  0.326-   3 2.58  39 2.64   1 2.65  30 2.65  29 2.65  12 2.69  16 2.69   2 2.69
                            64 2.71  28 2.72  42 2.74   5 2.75
  34  0.797  0.862  0.042-  50 2.38  66 2.51  48 2.53  36 2.55  71 2.56  63 2.61  20 2.71  35 2.76
                            62 2.76
  35  0.056  0.866  0.038-  58 2.54  72 2.55  36 2.56  24 2.57  66 2.62  53 2.65  23 2.73  62 2.73
                            34 2.76
  36  0.046  0.628  0.037-  21 2.53  34 2.55  35 2.56  58 2.58  50 2.61  47 2.63  72 2.64  40 2.69
                            71 2.72
  37  0.627  0.222  0.129-  51 2.51  74 2.51  67 2.52  56 2.53  41 2.55  20 2.55  68 2.56  59 2.56
                            62 2.59  66 2.66  57 2.73  48 2.89
  38  0.382  0.955  0.130-  53 2.47  80 2.48  45 2.49  78 2.53  48 2.54  73 2.55  63 2.55  54 2.56
                            55 2.59  57 2.62  24 2.64  70 2.67
  39  0.035  0.384  0.324-  29 2.54   3 2.54  22 2.56  75 2.58  33 2.64  42 2.66  31 2.67   7 2.68
                            65 2.76   5 2.77  43 2.79  10 2.86
  40  0.031  0.382  0.038-  69 2.44  21 2.52  71 2.53  76 2.56  70 2.57  23 2.60  36 2.69  45 2.78
                            47 2.78
  41  0.872  0.215  0.128-  76 2.45  65 2.52  77 2.53  67 2.54  37 2.55  69 2.57  62 2.57  51 2.59
                            23 2.61  70 2.65  66 2.66  24 2.72
  42  0.955  0.545  0.224-  50 2.56  29 2.56  28 2.59  21 2.60  32 2.60  69 2.61  49 2.63  65 2.64
                            64 2.65  39 2.66  31 2.71  33 2.74
  43  0.296  0.116  0.322-  52 2.54  55 2.55  22 2.55  61 2.56  19 2.57  31 2.60   8 2.60  80 2.67
                             3 2.71  13 2.74  39 2.79  10 2.92
  44  0.539  0.631  0.322-  61 2.56  52 2.57  30 2.62  78 2.63  29 2.65  18 2.65  75 2.67  14 2.67
                            32 2.70  27 2.70  15 2.71  26 2.74
  45  0.295  0.119  0.039-  70 2.49  38 2.49  57 2.57  53 2.60  23 2.62  63 2.64  20 2.68  47 2.75
                            40 2.78
  46  0.548  0.625  0.044-  51 2.38  73 2.39  54 2.41  71 2.56  53 2.56  63 2.58  76 2.59  56 2.62
                            72 2.64
  47  0.296  0.379  0.039-  74 2.41  21 2.53  57 2.61  72 2.61  56 2.62  36 2.63  20 2.68  45 2.75
                            40 2.78
  48  0.625  0.950  0.132-  49 2.40  80 2.48  54 2.48  34 2.53  38 2.54  59 2.55  50 2.56  63 2.57
                            20 2.58  57 2.65  66 2.68  37 2.89
  49  0.706  0.794  0.220-  48 2.40  50 2.48  54 2.49  80 2.53  32 2.59  28 2.61   1 2.61  78 2.61
                            61 2.62  42 2.63  29 2.68  59 2.69
[...]
     12.969068  7.879772  0.925674            0           0           0
      5.163396  7.917194  0.830298            0           0           0
      3.807011  5.745024  0.813805            0           0           0
      7.798522  2.032451  2.832513            0           0           0
      9.077547  8.733730  2.857427            0           0           0
      2.398851  3.513622  7.136605            0           0           0
      2.344093  3.490514  0.825101            0           0           0
     10.348141  1.969830  2.822490            0           0           0
     12.960353  4.985870  4.925592            0           0           0
      3.739935  1.065120  7.079926            0           0           0
      9.024130  5.766272  7.077322            0           0           0
      3.748243  1.091821  0.867003            0           0           0
      9.091210  5.718673  0.960427            0           0           0
      5.124479  3.470454  0.855627            0           0           0
     11.620923  8.687580  2.905895            0           0           0
     11.653130  7.264496  4.842290            0           0           0
     12.867560  6.452796  2.833790            0           0           0
      9.042010  4.207796  2.796278            0           0           0
      7.767055  8.007523  6.984215            0           0           0
      7.813155  7.939223  0.886525            0           0           0
     10.391439  6.535663  2.821980            0           0           0
      2.513474  0.258257  5.000827            0           0           0
      7.742638  3.484538  0.761574            0           0           0
      5.078354  1.877603  2.917008            0           0           0
      5.160365  6.447147  2.899226            0           0           0
      7.708921  0.459858  4.847993            0           0           0
      9.067458  1.194981  6.965136            0           0           0
[...]
      9.073503  2.652522  4.913605            0           0           0
      6.371693  2.665576  4.858272            0           0           0
     11.658911  4.174860  2.814827            0           0           0
      2.440982  1.892366  2.832794            0           0           0
     11.649530  5.686214  0.885461            0           0           0
      6.447433  5.719494  0.925972            0           0           0
      7.829267  6.506514  2.836212            0           0           0
      6.419224  4.130068  2.782896            0           0           0
     10.382056  3.463691  7.041290            0           0           0
     10.344097  3.450125  0.868038            0           0           0
     10.370626  0.484098  4.871515            0           0           0
      9.040790  7.290173  4.936995            0           0           0
      6.462653  7.295032  4.940739            0           0           0
      5.042471  0.276335  4.884059            0           0           0
      1.781669  0.718072 10.779483     0.091700    0.095248    0.991221

   2 f  =   17.296277 THz   108.675714 2PiTHz  576.941683 cm-1    71.531678 meV
             X         Y         Z           dx          dy          dz
     12.951028  8.041697  6.971422            0           0           0
      5.120106  8.089548  6.975810            0           0           0
      4.941539  3.489392  7.037773            0           0           0
     14.288661  8.796811  9.293810            0           0           0
      3.736717  4.241811  9.454199            0           0           0
      6.357432  8.742855  9.448275            0           0           0
     11.658414  4.224772  9.364968            0           0           0
      9.055698  8.757674  9.237524            0           0           0
     10.304162  1.959992  9.248117            0           0           0
      2.459040  1.976140  9.542685            0           0           0
     11.666863  8.781446  9.319781            0           0           0
     12.982718  6.502719  9.386254            0           0           0
      5.076820  1.921360  9.316755            0           0           0
      7.731294  6.482709  9.305932            0           0           0
      9.046064  4.222449  9.298754            0           0           0
      5.055688  6.483001  9.415711            0           0           0
      7.707783  1.922917  9.292459            0           0           0
      7.770870  3.438658  6.973989            0           0           0
      6.303659  1.145297  6.926001            0           0           0
      6.428579  1.129740  0.878720            0           0           0
      3.705484  4.208436  2.816869            0           0           0
      1.202726  1.260724  6.941861            0           0           0
      1.135691  1.190800  0.725566            0           0           0
      6.436066  8.760995  2.900314            0           0           0
      6.387449  4.220086  9.367919            0           0           0
      7.681351  4.990728  4.814740            0           0           0
     10.332273  6.503521  9.326289            0           0           0
     14.264242  7.225928  4.862987            0           0           0
     11.667776  5.701228  7.015582            0           0           0
      6.400932  5.779573  7.000858            0           0           0
      3.621194  2.565893  4.960228            0           0           0
     10.360912  5.024302  4.856517            0           0           0
      3.754650  5.777811  7.168988            0           0           0
     12.969068  7.879772  0.925674            0           0           0
      5.163396  7.917194  0.830298            0           0           0
      3.807011  5.745024  0.813805            0           0           0
      7.798522  2.032451  2.832513            0           0           0
      9.077547  8.733730  2.857427            0           0           0
      2.398851  3.513622  7.136605            0           0           0
      2.344093  3.490514  0.825101            0           0           0
     10.348141  1.969830  2.822490            0           0           0
     12.960353  4.985870  4.925592            0           0           0
      3.739935  1.065120  7.079926            0           0           0
      9.024130  5.766272  7.077322            0           0           0
      3.748243  1.091821  0.867003            0           0           0
      9.091210  5.718673  0.960427            0           0           0
      5.124479  3.470454  0.855627            0           0           0
     11.620923  8.687580  2.905895            0           0           0
     11.653130  7.264496  4.842290            0           0           0
     12.867560  6.452796  2.833790            0           0           0
      9.042010  4.207796  2.796278            0           0           0
      7.767055  8.007523  6.984215            0           0           0
      7.813155  7.939223  0.886525            0           0           0
     10.391439  6.535663  2.821980            0           0           0
      2.513474  0.258257  5.000827            0           0           0
      7.742638  3.484538  0.761574            0           0           0
      5.078354  1.877603  2.917008            0           0           0
      5.160365  6.447147  2.899226            0           0           0
      7.708921  0.459858  4.847993            0           0           0
      9.067458  1.194981  6.965136            0           0           0
[...]
      9.073503  2.652522  4.913605            0           0           0
      6.371693  2.665576  4.858272            0           0           0
     11.658911  4.174860  2.814827            0           0           0
      2.440982  1.892366  2.832794            0           0           0
     11.649530  5.686214  0.885461            0           0           0
      6.447433  5.719494  0.925972            0           0           0
      7.829267  6.506514  2.836212            0           0           0
      6.419224  4.130068  2.782896            0           0           0
     10.382056  3.463691  7.041290            0           0           0
     10.344097  3.450125  0.868038            0           0           0
     10.370626  0.484098  4.871515            0           0           0
      9.040790  7.290173  4.936995            0           0           0
      6.462653  7.295032  4.940739            0           0           0
      5.042471  0.276335  4.884059            0           0           0
      1.781669  0.718072 10.779483    -0.497832   -0.857705    0.128474

   3 f/i=    5.568681 THz    34.989052 2PiTHz  185.751186 cm-1    23.030220 meV
             X         Y         Z           dx          dy          dz
     12.951028  8.041697  6.971422            0           0           0
      5.120106  8.089548  6.975810            0           0           0
      4.941539  3.489392  7.037773            0           0           0
     14.288661  8.796811  9.293810            0           0           0
      3.736717  4.241811  9.454199            0           0           0
      6.357432  8.742855  9.448275            0           0           0
     11.658414  4.224772  9.364968            0           0           0
      9.055698  8.757674  9.237524            0           0           0
     10.304162  1.959992  9.248117            0           0           0
      2.459040  1.976140  9.542685            0           0           0
     11.666863  8.781446  9.319781            0           0           0
     12.982718  6.502719  9.386254            0           0           0
      5.076820  1.921360  9.316755            0           0           0
      7.731294  6.482709  9.305932            0           0           0
      9.046064  4.222449  9.298754            0           0           0
      5.055688  6.483001  9.415711            0           0           0
      7.707783  1.922917  9.292459            0           0           0
      7.770870  3.438658  6.973989            0           0           0
      6.303659  1.145297  6.926001            0           0           0
      6.428579  1.129740  0.878720            0           0           0
      3.705484  4.208436  2.816869            0           0           0
      1.202726  1.260724  6.941861            0           0           0
      1.135691  1.190800  0.725566            0           0           0
      6.436066  8.760995  2.900314            0           0           0
      6.387449  4.220086  9.367919            0           0           0
      7.681351  4.990728  4.814740            0           0           0
     10.332273  6.503521  9.326289            0           0           0
     14.264242  7.225928  4.862987            0           0           0
     11.667776  5.701228  7.015582            0           0           0
      6.400932  5.779573  7.000858            0           0           0
      3.621194  2.565893  4.960228            0           0           0
     10.360912  5.024302  4.856517            0           0           0
      3.754650  5.777811  7.168988            0           0           0
     12.969068  7.879772  0.925674            0           0           0
      5.163396  7.917194  0.830298            0           0           0
      3.807011  5.745024  0.813805            0           0           0
      7.798522  2.032451  2.832513            0           0           0
      9.077547  8.733730  2.857427            0           0           0
      2.398851  3.513622  7.136605            0           0           0
      2.344093  3.490514  0.825101            0           0           0
     10.348141  1.969830  2.822490            0           0           0
     12.960353  4.985870  4.925592            0           0           0
      3.739935  1.065120  7.079926            0           0           0
      9.024130  5.766272  7.077322            0           0           0
      3.748243  1.091821  0.867003            0           0           0
      9.091210  5.718673  0.960427            0           0           0
      5.124479  3.470454  0.855627            0           0           0
     11.620923  8.687580  2.905895            0           0           0
     11.653130  7.264496  4.842290            0           0           0
     12.867560  6.452796  2.833790            0           0           0
      9.042010  4.207796  2.796278            0           0           0
      7.767055  8.007523  6.984215            0           0           0
      7.813155  7.939223  0.886525            0           0           0
     10.391439  6.535663  2.821980            0           0           0
      2.513474  0.258257  5.000827            0           0           0
      7.742638  3.484538  0.761574            0           0           0
      5.078354  1.877603  2.917008            0           0           0
      5.160365  6.447147  2.899226            0           0           0
      7.708921  0.459858  4.847993            0           0           0
      9.067458  1.194981  6.965136            0           0           0
[...]
      9.073503  2.652522  4.913605            0           0           0
      6.371693  2.665576  4.858272            0           0           0
     11.658911  4.174860  2.814827            0           0           0
      2.440982  1.892366  2.832794            0           0           0
     11.649530  5.686214  0.885461            0           0           0
      6.447433  5.719494  0.925972            0           0           0
      7.829267  6.506514  2.836212            0           0           0
      6.419224  4.130068  2.782896            0           0           0
     10.382056  3.463691  7.041290            0           0           0
     10.344097  3.450125  0.868038            0           0           0
     10.370626  0.484098  4.871515            0           0           0
      9.040790  7.290173  4.936995            0           0           0
      6.462653  7.295032  4.940739            0           0           0
      5.042471  0.276335  4.884059            0           0           0
      1.781669  0.718072 10.779483     0.862412   -0.505243   -0.031234

 Finite differences POTIM=  1.500000000000000E-002
  LATTYP: Found a hexagonal cell.
 ALAT       =    10.5600004196
 C/A-ratio  =     2.0833332505

  Lattice vectors:

 A1 = (   5.2800002098,  -9.1452286274,   0.0000000000)
 A2 = ( -10.5600004196,   0.0000000000,   0.0000000000)
 A3 = (   0.0000000000,   0.0000000000, -22.0000000000)

Analysis of symmetry for initial positions (statically):
 Subroutine PRICEL returns:
 Original cell was already a primitive cell.

[...]

The static configuration has the point symmetry C_1 .

Analysis of symmetry for dynamics (positions and initial velocities):
 Subroutine PRICEL returns:
 Original cell was already a primitive cell.

[...]

The dynamic configuration has the point symmetry C_1 .

Analysis of constrained symmetry for selective dynamics:
 Subroutine PRICEL returns:
 Original cell was already a primitive cell.

[...]

The constrained configuration has the point symmetry C_1 .

Analysis of structural, dynamic, and magnetic symmetry:
 Subroutine PRICEL returns:
 Original cell was already a primitive cell.

 Routine SETGRP: Setting up the symmetry group for a
 hexagonal supercell.

 Subroutine GETGRP returns: Found  1 space group operations
 (whereof  1 operations were pure point group operations)
 out of a pool of 24 trial point group operations.

The magnetic configuration has the point symmetry C_1 .

 Subroutine INISYM returns: Found  1 space group operations
 (whereof  1 operations are pure point group operations),
 and found     1 'primitive' translations

 KPOINTS: mesh auto

Automatic generation of k-mesh.
Space group operators:
 irot       det(A)        alpha          n_x          n_y          n_z        tau_x        tau_y        tau_z
    1     1.000000     0.000001     1.000000     0.000000     0.000000     0.000000     0.000000     0.000000

 Subroutine IBZKPT returns following result:

 Found      4 irreducible k-points:

 Following reciprocal coordinates:
            Coordinates               Weight
  0.000000  0.000000  0.000000      1.000000
  0.500000  0.000000  0.000000      1.000000
  0.000000  0.500000  0.000000      1.000000
  0.500000  0.500000  0.000000      1.000000

 Following cartesian coordinates:
            Coordinates               Weight
  0.000000  0.000000  0.000000      1.000000
  0.047348 -0.027337  0.000000      1.000000
  0.000000  0.054673  0.000000      1.000000
  0.047348  0.027337  0.000000      1.000000

 TETIRR: Found     12 inequivalent tetrahedra from       24
 BZINTS: Fermi energy:  2.039320;781.000000 electrons
         Band energy:-709.449055;  BLOECHL correction: -0.075602