 vasp.5.4.4.18Apr17-6-g9f103f2a35 (build Nov 06 2019 15:09:28) complex

 executed on             LinuxIFC date 2022.03.05  12:31:51

 INCAR:
 POTCAR:    PAW_PBE Pt 04Feb2005
 POTCAR:    PAW_PBE Fe 06Sep2000
 POTCAR:    PAW_PBE Co 02Aug2007
 POTCAR:    PAW_PBE Cu 22Jun2005
 POTCAR:    PAW_PBE Ni 02Aug2007
 POTCAR:    PAW_PBE O 08Apr2002
 POTCAR:    PAW_PBE Pt 04Feb2005
   VRHFIN =Pt: s1d9

   TITEL  = PAW_PBE Pt 04Feb2005
   POMASS =  195.080; ZVAL   =   10.000    mass and valenz
   ENMAX  =  230.283; ENMIN  =  172.712 eV

 POTCAR:    PAW_PBE Fe 06Sep2000
   VRHFIN =Fe:  d7 s1

   TITEL  = PAW_PBE Fe 06Sep2000
   POMASS =   55.847; ZVAL   =    8.000    mass and valenz
   ENMAX  =  267.882; ENMIN  =  200.911 eV

 POTCAR:    PAW_PBE Co 02Aug2007
   VRHFIN =Co: d8 s1

   TITEL  = PAW_PBE Co 02Aug2007
   POMASS =   58.933; ZVAL   =    9.000    mass and valenz
   ENMAX  =  267.968; ENMIN  =  200.976 eV

 POTCAR:    PAW_PBE Cu 22Jun2005
   VRHFIN =Cu: d10 p1

   TITEL  = PAW_PBE Cu 22Jun2005
   POMASS =   63.546; ZVAL   =   11.000    mass and valenz
   ENMAX  =  295.446; ENMIN  =  221.585 eV

 POTCAR:    PAW_PBE Ni 02Aug2007
   VRHFIN =Ni:

   TITEL  = PAW_PBE Ni 02Aug2007
   POMASS =   58.690; ZVAL   =   10.000    mass and valenz
   ENMAX  =  269.532; ENMIN  =  202.149 eV

 POTCAR:    PAW_PBE O 08Apr2002
   VRHFIN =O: s2p4

   TITEL  = PAW_PBE O 08Apr2002
   POMASS =   16.000; ZVAL   =    6.000    mass and valenz
   ENMAX  =  400.000; ENMIN  =  300.000 eV

 Optimization of the real space projectors (new method)

 maximal supplied QI-value         = 14.36
 optimisation between [QCUT,QGAM] = [ 11.92, 23.98] = [ 39.79,161.09] Ry
 Optimized for a Real-space Cutoff    1.49 Angstroem

   l    n(q)    QCUT    max X(q) W(low)/X(q) W(high)/X(q)  e(spline)
   2     10    11.920    66.195    0.79E-04    0.18E-03    0.24E-06
   2     10    11.920    64.643    0.81E-04    0.19E-03    0.24E-06
   0     11    11.920    95.520    0.28E-04    0.54E-04    0.18E-06
   0     11    11.920    63.403    0.27E-04    0.52E-04    0.17E-06
   1     10    11.920    19.961    0.18E-04    0.11E-03    0.23E-06
   1     10    11.920    13.289    0.25E-04    0.87E-04    0.19E-06
 Optimization of the real space projectors (new method)

[...]

   l    n(q)    QCUT    max X(q) W(low)/X(q) W(high)/X(q)  e(spline)
   2      9    11.864    60.317    0.21E-03    0.51E-03    0.25E-06
   2      9    11.864    55.921    0.21E-03    0.51E-03    0.26E-06
   0      9    11.864    51.690    0.22E-03    0.30E-04    0.17E-06
   0      9    11.864    30.015    0.20E-03    0.28E-04    0.15E-06
   1      9    11.864    18.849    0.76E-04    0.33E-03    0.17E-06
   1      9    11.864    14.624    0.60E-04    0.28E-03    0.15E-06
 Optimization of the real space projectors (new method)

 maximal supplied QI-value         = 24.76
 optimisation between [QCUT,QGAM] = [ 11.88, 24.01] = [ 39.54,161.47] Ry
 Optimized for a Real-space Cutoff    1.18 Angstroem

   l    n(q)    QCUT    max X(q) W(low)/X(q) W(high)/X(q)  e(spline)
   0      8    11.883    20.381    0.86E-04    0.11E-03    0.31E-06
   0      8    11.883    15.268    0.94E-04    0.12E-03    0.33E-06
   1      8    11.883     5.964    0.19E-03    0.18E-04    0.33E-06
   1      8    11.883     5.382    0.17E-03    0.20E-04    0.29E-06
  PAW_PBE Pt 04Feb2005                  :
  PAW_PBE Fe 06Sep2000                  :
  PAW_PBE Co 02Aug2007                  :
  PAW_PBE Cu 22Jun2005                  :
  PAW_PBE Ni 02Aug2007                  :
  PAW_PBE O 08Apr2002                   :

 POSCAR: Pt   Fe   Co   Cu   Ni   O
  positions in direct lattice
 exchange correlation table for  LEXCH =        8
   RHO(1)=    0.500       N(1)  =     2000
   RHO(2)=  100.500       N(2)  =     4000

 VTST: version 3.2, (02/03/18)

 CHAIN: initializing optimizer

 OPT: Using VASP QUASI-newton optimizer
 CHAIN: Read ICHAIN            0
 CHAIN: Running the NEB
 NEB:          SPRING     -5.000000
 NEB:          LCLIMB      T
 NEB:     LTANGENTOLD      F
 NEB:           LDNEB      F
 NEB:        LDNEBORG      F
 NEB:        LNEBCELL      F
 NEB:          EFIRST      0.000000
 NEB:           ELAST      0.000000

 POSCAR: Pt   Fe   Co   Cu   Ni   O
  positions in direct lattice

 POSCAR: Pt   Fe   Co   Cu   Ni   O
  positions in direct lattice

 ion  position               nearest neighbor table
   1  0.786  0.878  0.319-  19 2.62  49 2.64  61 2.64  29 2.66  33 2.66  28 2.66  60 2.68  59 2.69
                             2 2.73  11 2.75   4 2.80  12 2.82
   2  0.042  0.882  0.315-  79 2.54  77 2.59  60 2.62  28 2.64  30 2.65  52 2.66  33 2.68  22 2.69
                             1 2.73   6 2.76   4 2.81  16 2.90
   3  0.281  0.377  0.322-  39 2.56  33 2.61  64 2.64  31 2.66  19 2.68  43 2.69  30 2.73  68 2.75
                            13 2.75   5 2.77  18 2.82  25 2.83
   4  0.877  0.963  0.423-   6 2.61   9 2.62  16 2.63  11 2.64  17 2.66  12 2.67  60 2.78   1 2.80
                             2 2.81
   5  0.119  0.465  0.428-  12 2.58   7 2.61  16 2.63  13 2.64  10 2.65  25 2.69  33 2.72  39 2.75
                             3 2.77
   6  0.125  0.961  0.421-   8 2.61   4 2.61  14 2.64  16 2.64  10 2.65   9 2.65   2 2.76  52 2.77
                            22 2.85
   7  0.874  0.461  0.426-  15 2.61   5 2.61   9 2.62  10 2.63  12 2.64  27 2.65  39 2.69  75 2.77
                            29 2.79
   8  0.372  0.959  0.419-  43 2.59  14 2.59   6 2.61  27 2.64  10 2.65  52 2.66  13 2.70  11 2.71
                            61 2.71
   9  0.874  0.212  0.420-  17 2.60   4 2.62   7 2.62  10 2.64  15 2.64   6 2.65  75 2.68  60 2.72
                            22 2.80
  10  0.123  0.213  0.421-  13 2.62   7 2.63   9 2.64   6 2.65   5 2.65  39 2.65   8 2.65  43 2.72
                            22 2.76
  11  0.629  0.958  0.426-  81 1.94  12 2.61  27 2.64   4 2.64   8 2.71  17 2.71  13 2.74   1 2.75
                            19 2.88  61 2.89
  12  0.875  0.710  0.427-   5 2.58  11 2.61  16 2.63   7 2.64  27 2.66   4 2.67  33 2.69   1 2.82
                            29 2.84
  13  0.370  0.216  0.428-  81 1.93  10 2.62   5 2.64  25 2.66   8 2.70  17 2.71  11 2.74   3 2.75
                            43 2.85  19 2.91
  14  0.375  0.713  0.423-   8 2.59  27 2.61  25 2.61  15 2.64   6 2.64  16 2.66  44 2.70  52 2.75
                            30 2.77
  15  0.626  0.464  0.423-  27 2.60   7 2.61  17 2.62  14 2.64   9 2.64  25 2.65  44 2.69  75 2.73
                            18 2.75
  16  0.124  0.712  0.427-  25 2.61   5 2.63   4 2.63  12 2.63   6 2.64  14 2.66  33 2.69  30 2.84
                             2 2.90
  17  0.626  0.216  0.428-  81 2.49   9 2.60  15 2.62  25 2.66   4 2.66  13 2.71  11 2.71  18 2.81
                            60 2.87  19 3.01
  18  0.550  0.373  0.319-  60 2.57  67 2.58  75 2.60  44 2.65  68 2.68  26 2.70  19 2.72  30 2.72
                            15 2.75  17 2.81   3 2.82  25 2.87
  19  0.535  0.124  0.315-  80 2.55  43 2.57  68 2.57  59 2.59   1 2.62  61 2.63   3 2.68  18 2.72
                            60 2.74  11 2.88  13 2.91  17 3.01
  20  0.547  0.124  0.040-  37 2.55  57 2.56  48 2.58  62 2.64  63 2.68  47 2.68  45 2.68  56 2.70
                            34 2.71
  21  0.121  0.460  0.128-  40 2.52  36 2.53  47 2.53  42 2.60  69 2.61  64 2.62  70 2.64  50 2.64
                            58 2.67  31 2.70  57 2.71  74 2.72
  22  0.043  0.136  0.314-  65 2.51  55 2.53  77 2.56  43 2.58  39 2.58  75 2.61  60 2.69   2 2.69
                            52 2.73  10 2.76   9 2.80   6 2.85  31 3.39
  23  0.042  0.130  0.033-  70 2.58  40 2.60  41 2.61  45 2.62  62 2.64  76 2.64  24 2.69  35 2.73
                            53 2.78
  24  0.130  0.958  0.132-  79 2.51  77 2.54  35 2.57  53 2.57  55 2.58  70 2.62  38 2.64  58 2.64
                            73 2.65  23 2.69  66 2.70  41 2.72
  25  0.373  0.466  0.426-  16 2.61  14 2.61  15 2.65  13 2.66  17 2.66   5 2.69  30 2.82   3 2.83
                            18 2.87
  26  0.455  0.546  0.219-  73 2.50  74 2.54  51 2.56  79 2.61  64 2.63  30 2.64  68 2.67  78 2.67
                            32 2.68  18 2.70  67 2.72  44 2.74
  27  0.623  0.711  0.423-  15 2.60  14 2.61   8 2.64  11 2.64   7 2.65  12 2.66  44 2.69  61 2.75
                            29 2.77
  28  0.956  0.790  0.221-  58 2.57  66 2.57  50 2.58  42 2.59  49 2.61  64 2.63   2 2.64   1 2.66
                            59 2.70  33 2.72  79 2.76  77 2.77
  29  0.794  0.622  0.319-  39 2.53  42 2.55  75 2.57  32 2.61  44 2.65  33 2.65   1 2.66  61 2.68
                            49 2.68  27 2.77   7 2.79  12 2.84
  30  0.291  0.630  0.318-  79 2.56  64 2.59  52 2.62  44 2.63  26 2.64   2 2.65  33 2.65  18 2.72
                             3 2.73  14 2.77  25 2.82  16 2.84
  31  0.203  0.281  0.225-  70 2.52  55 2.56  65 2.57  43 2.59  57 2.60  39 2.65   3 2.66  80 2.70
                            21 2.70  42 2.71  68 2.75  64 2.79  22 3.39
  32  0.706  0.549  0.221-  54 2.53  69 2.56  51 2.58  49 2.59  42 2.60  29 2.61  78 2.62  65 2.63
                            75 2.68  26 2.68  44 2.69  67 2.70
  33  0.041  0.630  0.325-   3 2.61  39 2.63  29 2.65  30 2.65   1 2.66   2 2.68  12 2.69  16 2.69
                            64 2.70   5 2.72  28 2.72  42 2.72
  34  0.797  0.862  0.042-  50 2.38  66 2.51  48 2.53  36 2.55  71 2.56  63 2.61  20 2.71  35 2.76
                            62 2.76
  35  0.056  0.866  0.038-  58 2.54  72 2.55  36 2.56  24 2.57  66 2.62  53 2.65  23 2.73  62 2.73
                            34 2.76
  36  0.046  0.628  0.037-  21 2.53  34 2.55  35 2.56  58 2.58  50 2.61  47 2.63  72 2.64  40 2.69
                            71 2.72
  37  0.627  0.222  0.129-  51 2.51  74 2.51  67 2.52  56 2.53  41 2.55  20 2.55  68 2.56  59 2.56
                            62 2.59  66 2.66  57 2.73  48 2.89
  38  0.382  0.955  0.130-  53 2.47  80 2.48  45 2.49  78 2.53  48 2.54  73 2.55  63 2.55  54 2.56
                            55 2.59  57 2.62  24 2.64  70 2.67
  39  0.036  0.384  0.324-  29 2.53   3 2.56  22 2.58  75 2.59  33 2.63  42 2.65  10 2.65  31 2.65
                             7 2.69  65 2.74   5 2.75  43 2.81
  40  0.031  0.382  0.038-  69 2.44  21 2.52  71 2.53  76 2.56  70 2.57  23 2.60  36 2.69  45 2.78
                            47 2.78
  41  0.872  0.215  0.128-  76 2.45  65 2.52  77 2.53  67 2.54  37 2.55  69 2.57  62 2.57  51 2.59
                            23 2.61  70 2.65  66 2.66  24 2.72
  42  0.955  0.545  0.224-  29 2.55  50 2.56  28 2.59  21 2.60  32 2.60  69 2.61  49 2.63  65 2.64
                            39 2.65  64 2.65  31 2.71  33 2.72
  43  0.297  0.114  0.320-  55 2.51  52 2.53  61 2.55  19 2.57  22 2.58  31 2.59   8 2.59  80 2.64
                             3 2.69  10 2.72  39 2.81  13 2.85
  44  0.541  0.629  0.322-  61 2.56  52 2.58  30 2.63  78 2.63  29 2.65  75 2.65  18 2.65  32 2.69
                            27 2.69  15 2.69  14 2.70  26 2.74
  45  0.295  0.119  0.039-  70 2.49  38 2.49  57 2.57  53 2.60  23 2.62  63 2.64  20 2.68  47 2.75
                            40 2.78
  46  0.548  0.625  0.044-  51 2.38  73 2.39  54 2.41  71 2.56  53 2.56  63 2.58  76 2.59  56 2.62
                            72 2.64
[...]
   -.227E+02 -.216E+02 0.287E+02   0.234E+02 0.222E+02 -.295E+02   -.786E+00 -.712E+00 0.666E+00   -.446E-01 -.150E-02 0.759E-01
   0.144E+02 0.165E+02 -.123E+04   -.146E+02 -.169E+02 0.123E+04   0.147E+00 0.405E+00 0.531E+00   0.379E-01 0.180E-01 0.791E-01
   -.600E+02 -.260E+01 0.244E+04   0.603E+02 0.135E+01 -.244E+04   -.432E+00 0.132E+01 -.271E+01   0.509E-01 -.261E-01 -.531E-01
   0.307E+02 -.138E+02 0.248E+04   -.306E+02 0.125E+02 -.247E+04   -.466E-01 0.139E+01 -.234E+01   -.135E-01 -.398E-01 -.224E-01
   0.227E+02 -.399E+01 0.248E+04   -.229E+02 0.455E+01 -.247E+04   0.199E+00 -.549E+00 -.293E+01   0.596E-01 -.489E-01 -.252E-01
   0.735E+01 0.518E+02 0.130E+04   -.643E+01 -.511E+02 -.130E+04   -.926E+00 -.727E+00 -.107E+00   -.399E-01 0.105E-01 -.213E-01
   0.335E+02 -.545E+02 0.129E+04   -.334E+02 0.542E+02 -.129E+04   -.112E+00 0.242E+00 -.408E+00   -.265E-01 0.865E-02 -.573E-01
   -.552E+02 -.252E+02 -.121E+04   0.553E+02 0.254E+02 0.121E+04   -.931E-01 -.266E+00 0.846E+00   -.153E-01 -.121E-01 0.927E-01
   -.936E+02 0.204E+02 0.248E+04   0.932E+02 -.201E+02 -.248E+04   0.260E+00 -.237E+00 -.263E+01   0.105E+00 -.114E-01 -.473E-01
   -.332E+02 0.464E+02 0.131E+04   0.324E+02 -.459E+02 -.131E+04   0.799E+00 -.541E+00 -.403E+00   0.293E-01 -.567E-01 0.329E-02
   -.471E+02 0.101E+01 -.265E+02   0.470E+02 -.632E+00 0.265E+02   0.107E+00 -.412E+00 -.131E+00   0.270E-01 -.507E-02 0.144E-01
   0.162E+02 -.867E+02 -.121E+04   -.162E+02 0.865E+02 0.121E+04   0.494E-02 0.179E+00 0.114E+01   0.854E-02 0.438E-02 0.117E+00
   0.156E+02 0.327E+02 -.121E+04   -.157E+02 -.327E+02 0.121E+04   0.105E+00 -.355E-01 0.466E+00   -.175E-01 -.197E-02 0.557E-01
   0.145E+02 -.468E+02 0.246E+04   -.152E+02 0.460E+02 -.245E+04   0.678E+00 0.676E+00 -.273E+01   0.230E-01 0.872E-01 -.531E-01
   0.456E+01 -.195E+02 0.276E+04   -.459E+01 0.197E+02 -.276E+04   0.760E-01 -.205E+00 -.234E+01   -.357E-01 0.180E-01 -.501E-01
   0.119E+03 0.289E+02 0.280E+04   -.120E+03 -.282E+02 -.279E+04   0.437E+00 -.707E+00 -.236E+01   -.292E-01 0.138E-01 -.371E-01
   -.376E+02 -.277E+02 0.144E+04   0.371E+02 0.266E+02 -.144E+04   0.452E+00 0.110E+01 -.443E+00   0.133E-01 -.156E-02 -.464E-01
   -.665E+02 0.659E+02 0.422E+02   0.666E+02 -.657E+02 -.431E+02   -.764E-01 -.208E+00 0.877E+00   0.274E-02 -.433E-02 0.510E-01
   -.895E+02 0.188E+02 0.142E+04   0.890E+02 -.183E+02 -.142E+04   0.503E+00 -.502E+00 -.111E+00   0.735E-01 -.138E-01 -.661E-01
   -.201E+02 0.981E+01 0.140E+04   0.204E+02 -.101E+02 -.140E+04   -.136E+00 0.277E+00 -.992E-01   -.525E-01 0.302E-01 0.113E-01
   0.530E+02 0.948E+01 -.137E+04   -.527E+02 -.965E+01 0.137E+04   -.259E+00 0.262E+00 0.149E+01   -.417E-01 -.386E-01 0.840E-01
   0.531E+02 -.806E+02 0.277E+04   -.528E+02 0.804E+02 -.277E+04   -.327E+00 0.202E+00 -.244E+01   -.434E-01 0.212E-01 -.349E-01
   -.143E+02 0.210E+01 0.139E+04   0.144E+02 -.189E+01 -.139E+04   -.107E+00 -.246E+00 -.431E+00   -.123E-01 0.241E-02 -.878E-02
   0.207E+02 -.675E+02 0.632E+01   -.199E+02 0.670E+02 -.615E+01   -.742E+00 0.612E+00 -.336E+00   -.656E-01 -.518E-01 0.394E-01
   0.312E+02 0.339E+02 0.345E+04   -.311E+02 -.332E+02 -.344E+04   0.102E+00 -.844E+00 -.357E+01   -.166E+00 0.873E-02 -.866E-01
   0.624E+02 0.677E+01 0.176E+04   -.625E+02 -.756E+01 -.176E+04   0.159E+00 0.684E+00 -.147E+00   -.398E-01 0.128E+00 -.145E+00
   0.103E+03 -.307E+02 0.173E+04   -.103E+03 0.307E+02 -.173E+04   -.260E+00 0.292E-01 0.246E+00   0.272E-01 -.223E-01 -.427E-01
   0.133E+02 0.753E+02 0.105E+03   -.139E+02 -.752E+02 -.106E+03   0.484E+00 -.158E+00 0.847E+00   0.750E-01 0.772E-02 0.989E-01
   0.602E+01 0.548E+02 -.167E+04   -.588E+01 -.544E+02 0.167E+04   -.179E+00 -.452E+00 0.145E+01   0.244E-01 0.160E-02 0.928E-01
[...]
   0.597E+02 -.428E+02 0.221E+02   -.591E+02 0.424E+02 -.226E+02   -.646E+00 0.351E+00 0.529E+00   -.857E-02 0.652E-01 0.477E-01
   -.741E+02 0.986E+00 0.157E+04   0.736E+02 -.854E+00 -.157E+04   0.403E+00 -.625E-01 -.767E-01   0.704E-01 -.727E-02 -.520E-01
   -.129E+02 0.188E+02 0.163E+04   0.132E+02 -.190E+02 -.163E+04   -.369E+00 0.201E+00 -.452E+00   0.469E-01 0.266E-01 -.106E+00
   -.101E+03 -.427E+01 0.309E+04   0.101E+03 0.434E+01 -.309E+04   -.533E+00 -.292E-01 -.133E+01   0.788E-01 -.201E-02 -.626E-01
   0.706E+02 -.523E+02 0.309E+04   -.708E+02 0.529E+02 -.309E+04   0.336E+00 -.496E+00 -.864E+00   -.116E+00 -.587E-01 -.160E-01
   0.158E+02 -.396E+02 0.156E+04   -.153E+02 0.394E+02 -.156E+04   -.419E+00 0.250E+00 -.552E-02   -.974E-01 -.390E-02 0.361E-01
   0.521E+02 0.225E+01 0.160E+04   -.515E+02 -.229E+01 -.160E+04   -.483E+00 0.444E-01 -.108E+00   -.118E+00 0.368E-01 -.864E-01
   -.391E+02 -.701E+02 -.152E+04   0.391E+02 0.702E+02 0.152E+04   0.861E-01 -.696E-01 0.869E+00   -.137E-01 -.299E-01 0.906E-01
   -.540E+02 0.296E+02 0.307E+04   0.544E+02 -.290E+02 -.307E+04   -.386E+00 -.560E+00 -.194E+01   0.444E-01 -.258E-01 -.935E-01
   -.438E+02 0.743E+02 0.970E+02   0.442E+02 -.740E+02 -.972E+02   -.375E+00 -.343E+00 0.790E-01   -.208E-01 -.493E-01 0.603E-01
   0.772E+00 0.633E+02 0.240E+02   -.779E+00 -.625E+02 -.243E+02   0.830E-01 -.803E+00 -.581E-02   -.661E-01 -.663E-01 0.470E-01
   0.495E+02 0.752E+01 -.906E+01   -.491E+02 -.684E+01 0.893E+01   -.389E+00 -.660E+00 -.256E-02   -.392E-01 -.459E-01 0.263E-01
   0.212E+02 -.510E+02 0.617E+02   -.215E+02 0.505E+02 -.620E+02   0.274E+00 0.456E+00 0.148E+00   0.215E-01 0.152E-01 0.576E-01
   -.543E+01 -.198E+01 -.199E+04   0.912E+01 0.340E+01 0.202E+04   -.364E+01 -.141E+01 -.303E+02   -.506E-01 -.239E-01 -.193E-01
   0.194E+01 0.460E+00 0.208E+02   0.647E-12 0.591E-12 -.455E-12   -.200E+01 -.526E+00 -.220E+02   0.771E-01 0.515E-01 0.119E+01

 POSITION                                       TOTAL-FORCE (eV/Angst)
     12.93606      8.03235      7.03647         0.003098      0.000306      0.001141
      5.10192      8.06913      6.94291         0.001646      0.001307      0.000476
      4.95188      3.44219      7.09672         0.001625     -0.000371      0.001012
     14.36246      8.81140      9.32066         0.006705      0.004628      0.001146
      3.72620      4.25952      9.42770         0.005589      0.004161     -0.002667
      6.40987      8.80532      9.27837         0.005404      0.003087     -0.001883
     11.66813      4.22005      9.37117         0.010291      0.003041      0.001425
      9.01293      8.77696      9.16696         0.003557     -0.001029     -0.004288
     10.36648      1.95047      9.25903         0.008168      0.005357      0.000560
      2.44975      1.94851      9.25210         0.003010      0.003021      0.004997
     11.71179      8.77334      9.43291         0.009645     -0.000939     -0.002180
     13.00635      6.50627      9.39129         0.010887      0.000933     -0.004521
      5.07062      1.98737      9.45833         0.005950      0.003584     -0.001587
      7.73379      6.52477      9.32126         0.007182      0.001176     -0.000444
      9.05933      4.24514      9.30567         0.004985      0.003937     -0.001499
      5.08288      6.52086      9.39297         0.005186      0.005380      0.001477
      7.75916      1.96917      9.27815         0.004389      0.004623     -0.006307
      7.77010      3.42429      6.98527        -0.000102     -0.000177     -0.000027
      6.29452      1.12520      6.92911         0.001559     -0.000554     -0.000497
      6.42858      1.12974      0.87872        -0.024807     -0.011951     -0.001590
      3.70548      4.20844      2.81687         0.008306      0.038281     -0.009494
      1.17030      1.24992      6.90591         0.003112      0.002392      0.001874
      1.13569      1.19080      0.72557        -0.000536      0.024222     -0.003532
      6.43607      8.76100      2.90031        -0.007972     -0.027406     -0.006442
      6.41922      4.27069      9.38750         0.007520      0.001978      0.004220
      7.68135      4.99073      4.81474        -0.015769     -0.091473      0.045662
     10.34350      6.51789      9.28922         0.005754      0.001920      0.003036
     14.26424      7.22593      4.86299        -0.043154     -0.011760      0.018364
     11.67317      5.69218      7.01061         0.001923      0.001031     -0.000303
      6.39691      5.75986      6.99517         0.003083     -0.000121      0.000752
      3.62119      2.56589      4.96023         0.168037      0.148973      0.095454
     10.36091      5.02430      4.85652        -0.023634     -0.016266     -0.082875
      3.75595      5.76633      7.16589         0.004665      0.000546      0.001340
     12.96907      7.87977      0.92567        -0.005773      0.014904      0.005037
      5.16340      7.91719      0.83030         0.003994      0.024196      0.023238
      3.80701      5.74502      0.81381         0.004219     -0.010543     -0.013484
      7.79852      2.03245      2.83251        -0.020817     -0.008004     -0.000320
      9.07755      8.73373      2.85743         0.003949      0.010786      0.006615
      2.39810      3.51705      7.11957         0.002170      0.003196      0.001423
      2.34409      3.49051      0.82510         0.009438      0.008251     -0.023274
     10.34814      1.96983      2.82249        -0.024547      0.007006      0.006312
     12.96035      4.98587      4.92559         0.040462     -0.009780     -0.037495
      3.74115      1.05183      7.03354         0.000902      0.003981     -0.000361
      9.02669      5.75468      7.07243         0.004007     -0.002122      0.000398
      3.74824      1.09182      0.86700        -0.006316      0.003326     -0.008131
      9.09121      5.71867      0.96043        -0.007230      0.019377     -0.017885
      5.12448      3.47045      0.85563        -0.005734      0.028891     -0.005581
     11.62092      8.68758      2.90590         0.002144     -0.003465      0.010341
     11.65313      7.26450      4.84229         0.017908      0.020030      0.012052
     12.86756      6.45280      2.83379         0.020192     -0.009455      0.019162
      9.04201      4.20780      2.79628         0.011184      0.019652     -0.021666
      7.76008      7.99023      6.98083         0.002776      0.003434     -0.002152
      7.81315      7.93922      0.88653        -0.007138      0.007012      0.014451
     10.39144      6.53566      2.82198         0.011324     -0.015655      0.017182
      2.51347      0.25826      5.00083         0.014877     -0.010469     -0.030294
      7.74264      3.48454      0.76157         0.000951     -0.009149      0.004681
      5.07835      1.87760      2.91701         0.007061     -0.016731     -0.014952
      5.16037      6.44715      2.89923        -0.000039      0.005057     -0.038179
      7.70892      0.45986      4.84799        -0.005318     -0.050627      0.098632
      9.05000      1.18130      6.97478        -0.000050     -0.001185      0.007832
[...]
      9.07350      2.65252      4.91360        -0.005552     -0.032477     -0.002274
      6.37169      2.66558      4.85827        -0.047177      0.013720      0.084827
     11.65891      4.17486      2.81483        -0.018177     -0.000042     -0.021873
      2.44098      1.89237      2.83279        -0.010838      0.022040      0.000115
     11.64953      5.68621      0.88546         0.006198      0.031789      0.000183
      6.44743      5.71949      0.92597        -0.001578      0.013209      0.012316
      7.82927      6.50651      2.83621        -0.017969      0.024984     -0.034795
      6.41922      4.13007      2.78290        -0.023231     -0.000017      0.002879
     10.37311      3.47114      7.04034         0.001385      0.001903     -0.006203
     10.34410      3.45013      0.86804         0.000244     -0.023075     -0.023316
     10.37063      0.48410      4.87151        -0.022040     -0.015068     -0.017645
      9.04079      7.29017      4.93700        -0.014240     -0.022047     -0.049844
      6.46265      7.29503      4.94074        -0.011138      0.002235     -0.034234
      5.04247      0.27633      4.88406        -0.016391     -0.002245     -0.022452
      6.03203      0.96900     10.86991        -0.008028     -0.010688      0.004893
    total drift:                                0.010778     -0.014538     -0.004375

  FREE ENERGIE OF THE ION-ELECTRON SYSTEM (eV)
  free  energy   TOTEN  =      -512.71761034 eV

  energy  without entropy=     -512.74828502  energy(sigma->0) =     -512.72783523

 d Force = 0.8913002E-04[ 0.550E-04, 0.123E-03]  d Energy = 0.1222882E-04 0.769E-04
 d Force = 0.1594499E+02[ 0.159E+02, 0.159E+02]  d Ewald  = 0.1594498E+02 0.172E-05

 NEB: the previous image is higher in energy: F
 NEB: the next image is higher in energy    : F
 NEB: image is at an extrema
 NEB: diff energy (min, max):     0.095395  512.717610

 NEB: Tangent
      0.01353      0.01721      0.04362
      0.00057      0.00869      0.00559
     -0.01598     -0.00811      0.03430
      0.02511      0.01478      0.05087
      0.02547      0.00422      0.02993
      0.02967      0.01345      0.01961
      0.01073      0.01522      0.04347
      0.01811     -0.00710     -0.04499
      0.04172      0.00814      0.07710
      0.02510      0.01282     -0.00055
      0.04238      0.03186      0.11934
      0.02802      0.00890      0.01818
      0.06875      0.02010      0.07266
      0.00878     -0.00041      0.02877
     -0.00498     -0.01322      0.00937
      0.04132      0.01780     -0.00569
      0.00765     -0.04223     -0.48840
     -0.01794      0.04029     -0.09940
     -0.03049     -0.01483      0.00465
      0.00000      0.00000      0.00000
      0.00000      0.00000      0.00000
     -0.00504      0.00675      0.00741
      0.00000      0.00000      0.00000
      0.00000      0.00000      0.00000
      0.04069     -0.02198      0.03384
      0.00000      0.00000      0.00000
      0.01005     -0.00728     -0.00421
      0.00000      0.00000      0.00000
      0.00248      0.00782      0.01222
     -0.00648      0.00507      0.00959
      0.00000      0.00000      0.00000
      0.00000      0.00000      0.00000
      0.00001      0.00827      0.02441
      0.00000      0.00000      0.00000
      0.00000      0.00000      0.00000
      0.00000      0.00000      0.00000
      0.00000      0.00000      0.00000
      0.00000      0.00000      0.00000
     -0.00889      0.00875      0.01520
      0.00000      0.00000      0.00000
      0.00000      0.00000      0.00000
      0.00000      0.00000      0.00000
     -0.00798      0.00458     -0.02218
     -0.00108      0.01577      0.00267
      0.00000      0.00000      0.00000
      0.00000      0.00000      0.00000
      0.00000      0.00000      0.00000
      0.00000      0.00000      0.00000
      0.00000      0.00000      0.00000
      0.00000      0.00000      0.00000
      0.00000      0.00000      0.00000
     -0.00070     -0.00576      0.00251
      0.00000      0.00000      0.00000
      0.00000      0.00000      0.00000
      0.00000      0.00000      0.00000
      0.00000      0.00000      0.00000
      0.00000      0.00000      0.00000
      0.00000      0.00000      0.00000
      0.00000      0.00000      0.00000
      0.01810      0.01422     -0.02362
[...]
      0.00000      0.00000      0.00000
      0.00000      0.00000      0.00000
      0.00000      0.00000      0.00000
      0.00000      0.00000      0.00000
      0.00000      0.00000      0.00000
      0.00000      0.00000      0.00000
      0.00000      0.00000      0.00000
      0.00000      0.00000      0.00000
     -0.00293      0.00450      0.03152
      0.00000      0.00000      0.00000
      0.00000      0.00000      0.00000
      0.00000      0.00000      0.00000
      0.00000      0.00000      0.00000
      0.00000      0.00000      0.00000
     -0.69423     -0.37368      0.24758

 NEB: forces: par spring, perp REAL, dneb     0.656301    0.036148    0.000000
 NEB: distance to prev, next image, angle between     0.449326    0.580586  145.388011
 NEB: projections on to tangent (spring, REAL)     0.656301    0.016409

 stress matrix after NEB project (eV)
    -29.57979     -0.08134      0.87046
     -0.08134    -30.02315     -0.36619
      0.87046     -0.36619     -0.84786
  FORCES: max atom, RMS     0.015187    0.004411
  FORCE total and by dimension    0.039698    0.014755
  Stress total and by dimension   42.176639   30.023148
 Quasi-Newton relaxation of ions (Broydens 2nd method)
  g(Force)  = 0.139E-03   g(Stress)= 0.000E+00

 retain information from N=  2 steps
 eigenvalues of (default step * inverse Hessian matrix)
  average eigenvalue of G=   5.2531
 eigenvalue spectrum of G is  5.2531  5.2531

 reached required accuracy - stopping structural energy minimisation