 vasp.5.4.4.18Apr17-6-g9f103f2a35 (build Oct 25 2019 11:13:22) complex

 executed on             LinuxIFC date 2022.02.11  22:03:44

 INCAR:
 POTCAR:    PAW_PBE Pt 04Feb2005
 POTCAR:    PAW_PBE Fe 06Sep2000
 POTCAR:    PAW_PBE Co 02Aug2007
 POTCAR:    PAW_PBE Ni 02Aug2007
 POTCAR:    PAW_PBE H 15Jun2001
 POTCAR:    PAW_PBE Pt 04Feb2005
   VRHFIN =Pt: s1d9

   TITEL  = PAW_PBE Pt 04Feb2005
   POMASS =  195.080; ZVAL   =   10.000    mass and valenz
   ENMAX  =  230.283; ENMIN  =  172.712 eV

 POTCAR:    PAW_PBE Fe 06Sep2000
   VRHFIN =Fe:  d7 s1

   TITEL  = PAW_PBE Fe 06Sep2000
   POMASS =   55.847; ZVAL   =    8.000    mass and valenz
   ENMAX  =  267.882; ENMIN  =  200.911 eV

 POTCAR:    PAW_PBE Co 02Aug2007
   VRHFIN =Co: d8 s1

   TITEL  = PAW_PBE Co 02Aug2007
   POMASS =   58.933; ZVAL   =    9.000    mass and valenz
   ENMAX  =  267.968; ENMIN  =  200.976 eV

 POTCAR:    PAW_PBE Ni 02Aug2007
   VRHFIN =Ni:

   TITEL  = PAW_PBE Ni 02Aug2007
   POMASS =   58.690; ZVAL   =   10.000    mass and valenz
   ENMAX  =  269.532; ENMIN  =  202.149 eV

 POTCAR:    PAW_PBE H 15Jun2001
   VRHFIN =H: ultrasoft test

   TITEL  = PAW_PBE H 15Jun2001
   POMASS =    1.000; ZVAL   =    1.000    mass and valenz
   ENMAX  =  250.000; ENMIN  =  200.000 eV

 Optimization of the real space projectors (new method)

 maximal supplied QI-value         = 14.36
 optimisation between [QCUT,QGAM] = [ 11.92, 23.98] = [ 39.79,161.09] Ry
 Optimized for a Real-space Cutoff    1.49 Angstroem

   l    n(q)    QCUT    max X(q) W(low)/X(q) W(high)/X(q)  e(spline)
   2     10    11.920    66.195    0.79E-04    0.18E-03    0.24E-06
   2     10    11.920    64.643    0.81E-04    0.19E-03    0.24E-06
   0     11    11.920    95.520    0.28E-04    0.54E-04    0.18E-06
   0     11    11.920    63.403    0.27E-04    0.52E-04    0.17E-06
   1     10    11.920    19.961    0.18E-04    0.11E-03    0.23E-06
   1     10    11.920    13.289    0.25E-04    0.87E-04    0.19E-06
 Optimization of the real space projectors (new method)

[...]

   l    n(q)    QCUT    max X(q) W(low)/X(q) W(high)/X(q)  e(spline)
   2      9    11.864    60.317    0.21E-03    0.51E-03    0.25E-06
   2      9    11.864    55.921    0.21E-03    0.51E-03    0.26E-06
   0      9    11.864    51.690    0.22E-03    0.30E-04    0.17E-06
   0      9    11.864    30.015    0.20E-03    0.28E-04    0.15E-06
   1      9    11.864    18.849    0.76E-04    0.33E-03    0.17E-06
   1      9    11.864    14.624    0.60E-04    0.28E-03    0.15E-06
 Optimization of the real space projectors (new method)

 maximal supplied QI-value         = 34.20
 optimisation between [QCUT,QGAM] = [ 11.97, 23.94] = [ 40.13,160.53] Ry
 Optimized for a Real-space Cutoff    1.18 Angstroem

   l    n(q)    QCUT    max X(q) W(low)/X(q) W(high)/X(q)  e(spline)
   0      8    11.971    19.460    0.15E-03    0.31E-03    0.25E-06
   0      8    11.971    12.209    0.13E-03    0.29E-03    0.25E-06
   1      8    11.971     4.655    0.22E-03    0.24E-03    0.21E-06
  PAW_PBE Pt 04Feb2005                  :
  PAW_PBE Fe 06Sep2000                  :
  PAW_PBE Co 02Aug2007                  :
  PAW_PBE Ni 02Aug2007                  :
  PAW_PBE H 15Jun2001                   :

 POSCAR: 11.26
  positions in direct lattice
  velocities in cartesian coordinates
 exchange correlation table for  LEXCH =        8
   RHO(1)=    0.500       N(1)  =     2000
   RHO(2)=  100.500       N(2)  =     4000

 ion  position               nearest neighbor table
   1  0.783  0.870  0.304-  52 2.53  59 2.56  28 2.70  19 2.74   2 2.76  61 2.77   4 2.79  29 2.79
                            60 2.81  33 2.81  11 2.86  12 2.86
   2  0.029  0.871  0.301-  79 2.51  77 2.53   1 2.76  30 2.77  33 2.80   4 2.80  28 2.81  60 2.85
                             6 2.86  16 2.95  22 2.95
   3  0.281  0.360  0.311-  64 2.53  68 2.61  31 2.64   5 2.73  43 2.74  13 2.77  39 2.78  25 2.79
                            30 2.79  19 2.84  33 2.85  18 2.92
   4  0.866  0.958  0.406-  81 1.95  60 2.60  17 2.75   9 2.76  11 2.78   1 2.79   2 2.80  12 2.83
                            16 2.87   6 2.87
   5  0.111  0.457  0.410-  39 2.62  33 2.69  12 2.73   3 2.73  16 2.73   7 2.78  10 2.79  25 2.88
                            13 2.89
   6  0.125  0.952  0.405-  55 2.68  22 2.73  14 2.80  10 2.81   9 2.83   8 2.83   2 2.86   4 2.87
                            16 2.90
   7  0.869  0.447  0.411-  39 2.59  75 2.66  29 2.73   9 2.74  15 2.75   5 2.78  10 2.80  27 2.85
                            12 2.89
   8  0.375  0.954  0.417-  55 2.51  43 2.60  61 2.69  13 2.76  11 2.77  27 2.77  10 2.82   6 2.83
                            14 2.88
   9  0.871  0.202  0.406-  75 2.58  60 2.65   7 2.74  17 2.76   4 2.76  22 2.79  15 2.82   6 2.83
                            10 2.84
  10  0.123  0.203  0.411-  43 2.63  39 2.64  22 2.74  13 2.78   5 2.79   7 2.80   6 2.81   8 2.82
                             9 2.84
  11  0.625  0.947  0.413-  81 1.77  61 2.64  19 2.72  12 2.75  27 2.76   8 2.77   4 2.78  13 2.85
                             1 2.86  17 2.88
  12  0.871  0.703  0.411-  81 1.86  29 2.68  33 2.71  16 2.73   5 2.73  11 2.75  27 2.82   4 2.83
                             1 2.86   7 2.89
  13  0.371  0.202  0.415-  43 2.64   8 2.76  19 2.77   3 2.77  10 2.78  25 2.79  17 2.85  11 2.85
                             5 2.89
  14  0.372  0.700  0.404-  44 2.52  55 2.59  15 2.77  25 2.80   6 2.80  27 2.81  30 2.84  16 2.88
                             8 2.88
  15  0.620  0.455  0.408-  75 2.62  44 2.62   7 2.75  14 2.77  18 2.77  17 2.79  27 2.80  25 2.81
                             9 2.82
  16  0.117  0.698  0.411-  33 2.71  30 2.72  12 2.73   5 2.73  25 2.82   4 2.87  14 2.88   6 2.90
                             2 2.95
  17  0.624  0.205  0.411-  60 2.61   4 2.75  19 2.76   9 2.76  18 2.76  15 2.79  25 2.79  13 2.85
                            11 2.88
  18  0.539  0.365  0.307-  67 2.51  68 2.60  26 2.68  60 2.69  25 2.76  17 2.76  15 2.77  75 2.79
                            19 2.85   3 2.92  30 2.94  44 3.01
  19  0.538  0.112  0.313-  68 2.49  80 2.53  59 2.55  43 2.69  61 2.70  11 2.72  60 2.74   1 2.74
                            17 2.76  13 2.77   3 2.84  18 2.85
  20  0.538  0.117  0.053-  47 2.51  37 2.56  51 2.64  63 2.67  50 2.71  62 2.73  34 2.74  46 2.79
                            45 2.87
  21  0.106  0.420  0.118-  40 2.50  36 2.51  50 2.54  70 2.60  47 2.66  42 2.66  64 2.70  69 2.71
                            31 2.79  53 3.03
  22  0.049  0.123  0.306-  77 2.51  65 2.52  58 2.54  39 2.69   6 2.73  10 2.74  43 2.76   9 2.79
                            75 2.86  55 2.92   2 2.95  60 3.07  31 3.27
  23  0.025  0.110  0.043-  40 2.54  41 2.55  70 2.56  35 2.67  62 2.71  24 2.74  56 2.77  76 2.83
                            45 2.93
  24  0.117  0.952  0.146-  79 2.49  35 2.51  70 2.62  77 2.62  58 2.62  56 2.64  48 2.66  73 2.70
                            66 2.72  23 2.74  41 2.84  38 2.93
  25  0.372  0.450  0.409-  18 2.76  30 2.78   3 2.79  17 2.79  13 2.79  14 2.80  15 2.81  16 2.82
                             5 2.88
  26  0.451  0.562  0.222-  73 2.52  74 2.53  54 2.55  79 2.59  30 2.62  44 2.62  32 2.67  18 2.68
                            78 2.68  67 2.98  48 2.99
  27  0.620  0.704  0.413-  44 2.55  61 2.65  11 2.76   8 2.77  29 2.79  15 2.80  14 2.81  12 2.82
                             7 2.85
  28  0.949  0.756  0.207-  48 2.55  53 2.56  66 2.63  42 2.65  33 2.65   1 2.70  64 2.70   2 2.81
                            52 2.85  36 2.90  59 3.15
  29  0.797  0.616  0.313-  42 2.58  52 2.59  32 2.62  39 2.67  12 2.68  33 2.68   7 2.73  44 2.79
                             1 2.79  27 2.79  75 2.85  61 2.89
  30  0.266  0.616  0.306-  79 2.51  33 2.58  26 2.62  64 2.70  16 2.72   2 2.77  25 2.78   3 2.79
                            14 2.84  18 2.94  44 3.19  55 3.29
  31  0.191  0.261  0.224-  70 2.48  58 2.52  47 2.57  39 2.61  43 2.61   3 2.64  65 2.68  64 2.74
                            21 2.79  80 2.81  42 2.83  68 3.00  22 3.27
  32  0.700  0.539  0.222-  69 2.53  54 2.60  44 2.62  29 2.62  75 2.63  57 2.63  65 2.66  26 2.67
                            52 2.68  42 2.70  67 2.73  78 2.76
  33  0.034  0.620  0.311-  64 2.55  30 2.58  28 2.65  29 2.68   5 2.69  16 2.71  12 2.71  42 2.73
                             2 2.80   1 2.81  39 2.82   3 2.85
  34  0.791  0.885  0.059-  51 2.33  66 2.39  53 2.60  62 2.68  35 2.73  20 2.74  36 2.75  63 2.89

  35  0.043  0.865  0.057-  36 2.40  24 2.51  66 2.52  23 2.67  34 2.73  48 2.84  72 2.85  56 2.85
                            62 3.00
  36  0.042  0.658  0.084-  48 2.40  35 2.40  53 2.47  21 2.51  72 2.75  34 2.75  28 2.90
  37  0.624  0.211  0.138-  59 2.38  62 2.40  67 2.45  46 2.46  68 2.48  74 2.55  20 2.56  66 2.66
                            41 2.68  54 2.71  47 2.99  51 3.04
  38  0.377  0.954  0.136-  63 2.36  45 2.39  56 2.40  58 2.42  80 2.45  73 2.50  78 2.54  57 2.61
                            47 2.77  70 2.82  51 2.87  24 2.93
  39  0.028  0.372  0.317-   7 2.59  65 2.61  31 2.61   5 2.62  42 2.64  10 2.64  29 2.67  22 2.69
                            75 2.74   3 2.78  33 2.82  43 3.01
  40  0.983  0.354  0.043-  69 2.31  76 2.42  21 2.50  23 2.54  70 2.62  71 2.63  45 3.12
  41  0.866  0.206  0.135-  77 2.42  76 2.43  67 2.44  62 2.46  65 2.52  23 2.55  69 2.55  66 2.57
                            70 2.65  37 2.68  24 2.84  54 2.87
  42  0.948  0.521  0.217-  53 2.52  69 2.54  64 2.55  65 2.57  29 2.58  39 2.64  28 2.65  21 2.66
                            32 2.70  33 2.73  31 2.83  52 2.97
  43  0.300  0.108  0.320-  58 2.48  55 2.49   8 2.60  31 2.61  80 2.61  10 2.63  13 2.64  61 2.65
                            19 2.69   3 2.74  22 2.76  39 3.01
  44  0.541  0.631  0.318-  14 2.52  78 2.55  27 2.55  32 2.62  15 2.62  26 2.62  55 2.64  61 2.67
                            29 2.79  75 2.86  18 3.01  30 3.19
  45  0.285  0.111  0.053-  38 2.39  70 2.47  47 2.48  56 2.53  63 2.71  20 2.87  23 2.93  40 3.12

  46  0.535  0.367  0.050-  54 2.40  50 2.43  37 2.46  74 2.47  76 2.54  62 2.67  72 2.72  20 2.79
                            49 2.82
  47  0.359  0.209  0.135-  50 2.40  68 2.41  45 2.48  20 2.51  31 2.57  80 2.60  21 2.66  74 2.74
                            38 2.77  70 2.92  37 2.99
  48  0.180  0.691  0.158-  79 2.40  36 2.40  72 2.41  64 2.41  73 2.49  28 2.55  24 2.66  74 2.70
                            35 2.84  26 2.99
  49  0.521  0.625  0.052-  54 2.35  73 2.38  71 2.44  57 2.44  72 2.53  56 2.78  46 2.82  76 2.90
                            63 2.95
  50  0.315  0.374  0.056-  74 2.35  47 2.40  46 2.43  21 2.54  72 2.65  20 2.71
  51  0.642  0.932  0.141-  34 2.33  52 2.34  63 2.45  59 2.53  53 2.55  80 2.56  20 2.64  57 2.67
                            66 2.78  38 2.87  37 3.04
  52  0.683  0.786  0.223-  51 2.34  78 2.41  57 2.48  61 2.52   1 2.53  53 2.55  29 2.59  80 2.65
                            32 2.68  28 2.85  42 2.97  59 3.12
  53  0.830  0.681  0.129-  57 2.36  71 2.40  36 2.47  42 2.52  52 2.55  51 2.55  28 2.56  69 2.59
                            34 2.60  21 3.03
[...]

 FORCES acting on ions
    electron-ion (+dipol)            ewald-force                    non-local-force                 convergence-correction
   -.783E+02 0.622E+02 -.121E+04   0.778E+02 -.620E+02 0.121E+04   0.390E+00 -.231E+00 0.267E+01   0.899E-01 0.460E-01 -.741E-03
   0.347E+02 0.634E+02 -.112E+04   -.349E+02 -.633E+02 0.112E+04   0.286E+00 -.118E+00 0.196E+01   -.441E-01 0.217E-01 -.268E-01
   0.112E+02 -.585E+02 -.129E+04   -.124E+02 0.584E+02 0.129E+04   0.134E+01 0.189E+00 0.202E+01   -.598E-01 -.349E-01 -.374E-01
   -.361E+02 0.367E+02 -.261E+04   0.368E+02 -.356E+02 0.261E+04   -.828E+00 -.121E+01 0.134E+01   0.101E-01 0.355E-01 -.362E-01
   -.322E+02 -.115E+02 -.263E+04   0.314E+02 0.121E+02 0.263E+04   0.827E+00 -.598E+00 0.240E+01   -.169E-01 -.654E-02 -.223E-01
   0.505E+02 0.141E+02 -.259E+04   -.500E+02 -.146E+02 0.258E+04   -.418E+00 0.468E+00 0.187E+01   -.580E-01 0.469E-01 0.115E-01
   -.218E+02 -.858E+01 -.270E+04   0.216E+02 0.784E+01 0.270E+04   0.126E+00 0.752E+00 0.265E+01   0.558E-01 -.398E-01 0.892E-02
   0.394E+02 -.637E+01 -.279E+04   -.392E+02 0.661E+01 0.278E+04   -.153E+00 -.321E+00 0.341E+01   -.793E-02 0.736E-01 0.476E-01
   -.201E+02 0.427E+02 -.266E+04   0.197E+02 -.424E+02 0.266E+04   0.444E+00 -.257E+00 0.228E+01   -.144E-01 -.510E-01 -.205E-01
   0.217E+02 -.645E+01 -.268E+04   -.211E+02 0.672E+01 0.268E+04   -.659E+00 -.270E+00 0.269E+01   -.450E-02 0.654E-02 -.342E-01
   -.442E+02 -.435E+01 -.270E+04   0.433E+02 0.416E+01 0.270E+04   0.939E+00 0.129E+00 0.127E+01   0.367E-01 0.280E-01 0.196E-01
   -.351E+02 0.238E+01 -.265E+04   0.355E+02 -.351E+01 0.265E+04   -.344E+00 0.117E+01 0.154E+01   0.379E-01 0.513E-02 0.135E-02
   -.125E+02 -.595E+02 -.271E+04   0.120E+02 0.591E+02 0.271E+04   0.529E+00 0.453E+00 0.224E+01   -.284E-01 -.126E-01 -.946E-02
   0.732E+02 0.400E+02 -.263E+04   -.725E+02 -.396E+02 0.263E+04   -.712E+00 -.423E+00 0.253E+01   -.567E-01 0.920E-02 0.701E-01
   0.453E+02 -.714E+01 -.267E+04   -.448E+02 0.778E+01 0.267E+04   -.520E+00 -.581E+00 0.247E+01   -.413E-02 -.652E-01 0.520E-01
   -.104E+02 -.137E+02 -.261E+04   0.103E+02 0.129E+02 0.261E+04   0.133E+00 0.719E+00 0.226E+01   -.443E-01 0.270E-01 0.774E-02
   0.110E+02 -.129E+02 -.270E+04   -.106E+02 0.132E+02 0.269E+04   -.473E+00 -.281E+00 0.254E+01   0.387E-01 -.539E-01 -.221E-01
   0.732E+02 -.804E+02 -.127E+04   -.722E+02 0.799E+02 0.127E+04   -.103E+01 0.597E+00 0.195E+01   0.121E-01 -.921E-01 -.698E-01
   -.121E+02 -.266E+02 -.139E+04   0.116E+02 0.257E+02 0.138E+04   0.408E+00 0.921E+00 0.277E+01   0.426E-01 0.249E-01 -.109E-01
   0.510E+02 0.209E+02 0.274E+04   -.509E+02 -.211E+02 -.274E+04   -.944E-01 0.620E-01 -.272E+01   -.342E-01 0.112E+00 -.682E-01
   -.960E+02 -.110E+03 0.185E+04   0.958E+02 0.110E+03 -.185E+04   0.204E+00 -.207E+00 0.133E+01   0.417E-01 -.507E-01 -.153E+00
   -.258E+01 0.412E+02 -.127E+04   0.325E+01 -.404E+02 0.127E+04   -.676E+00 -.839E+00 0.224E+01   -.894E-02 0.605E-01 -.280E-01
   -.434E+02 0.102E+03 0.286E+04   0.435E+02 -.102E+03 -.286E+04   -.197E+00 -.868E+00 -.237E+01   0.379E-01 0.393E-01 -.195E-01
   0.877E+02 0.240E+02 0.133E+04   -.879E+02 -.249E+02 -.133E+04   0.147E+00 0.878E+00 -.403E+00   0.164E-01 0.789E-02 -.121E+00
   0.756E+01 -.292E+02 -.263E+04   -.755E+01 0.288E+02 0.263E+04   0.150E-01 0.400E+00 0.174E+01   -.261E-01 -.206E-01 0.142E-01
   0.101E+03 0.881E+02 -.239E+01   -.101E+03 -.877E+02 0.216E+01   -.348E+00 -.394E+00 0.113E+00   -.522E-01 -.654E-01 -.179E+00
   -.179E+02 0.340E+02 -.271E+04   0.172E+02 -.338E+02 0.271E+04   0.670E+00 -.178E+00 0.290E+01   0.387E-01 0.793E-02 0.763E-01
   -.472E+02 0.959E+01 0.368E+03   0.473E+02 -.116E+02 -.369E+03   -.168E+00 0.200E+01 0.473E+00   0.453E-01 -.201E-01 -.635E-01
   -.775E+02 -.388E+01 -.132E+04   0.785E+02 0.336E+01 0.132E+04   -.108E+01 0.570E+00 0.246E+01   0.999E-01 -.615E-01 -.244E-01
   0.342E+02 0.262E+02 -.122E+04   -.351E+02 -.257E+02 0.122E+04   0.962E+00 -.474E+00 0.187E+01   -.637E-01 0.347E-02 -.599E-01
   -.442E+02 -.987E+02 0.610E+02   0.438E+02 0.981E+02 -.610E+02   0.387E+00 0.762E+00 0.890E-02   -.522E-01 0.265E-01 -.812E-01
   -.297E+02 -.228E+02 0.334E+02   0.301E+02 0.228E+02 -.335E+02   -.188E+00 0.633E-01 0.171E+00   0.181E-01 -.144E+00 -.137E+00
   0.244E+01 -.755E+01 -.100E+04   -.229E+01 0.761E+01 0.100E+04   -.127E+00 -.902E-02 0.429E+00   -.249E-01 0.309E-02 -.167E-01
   -.367E+02 0.128E+03 0.221E+04   0.380E+02 -.127E+03 -.221E+04   -.130E+01 -.127E+01 -.385E+01   0.137E-01 -.411E-02 -.826E-01
   0.578E+02 0.102E+03 0.219E+04   -.588E+02 -.102E+03 -.218E+04   0.103E+01 -.590E-01 -.353E+01   0.142E-01 -.281E-01 -.484E-01
   0.461E+02 0.443E+02 0.193E+04   -.456E+02 -.428E+02 -.193E+04   -.499E+00 -.134E+01 -.189E+01   0.378E-01 -.561E-01 -.777E-01
   0.776E+02 0.408E+02 0.118E+04   -.770E+02 -.406E+02 -.118E+04   -.656E+00 -.257E+00 -.317E+00   -.569E-02 0.761E-01 -.928E-01
   -.212E+02 -.117E+03 0.123E+04   0.215E+02 0.117E+03 -.123E+04   -.303E+00 0.432E-01 -.136E+00   -.497E-01 0.653E-01 -.146E+00
   -.666E+02 -.344E+02 -.109E+04   0.664E+02 0.344E+02 0.109E+04   0.249E+00 -.115E+00 0.541E-01   0.290E-01 -.192E-01 -.430E-01
   -.245E+03 -.490E+02 0.234E+04   0.243E+03 0.483E+02 -.234E+04   0.238E+01 0.758E+00 -.456E+01   0.179E-01 -.106E-01 0.716E-03
   -.215E+02 0.635E+02 0.120E+04   0.208E+02 -.635E+02 -.120E+04   0.720E+00 -.141E+00 -.494E+00   0.192E-01 0.609E-01 -.716E-01
   -.107E+03 -.450E+02 0.122E+03   0.107E+03 0.452E+02 -.122E+03   0.276E+00 -.135E+00 -.163E+00   0.135E-01 -.696E-01 -.626E-01
   0.537E+01 -.953E+02 -.116E+04   -.539E+01 0.949E+02 0.116E+04   0.359E-01 0.385E+00 0.419E+00   -.101E-01 0.751E-01 -.102E-01
   0.369E+02 0.708E+02 -.114E+04   -.368E+02 -.701E+02 0.114E+04   -.186E+00 -.730E+00 -.490E+00   -.122E-01 -.547E-01 -.246E-01
   -.438E+02 -.108E+03 0.224E+04   0.442E+02 0.105E+03 -.224E+04   -.365E+00 0.263E+01 -.424E+01   0.314E-02 0.574E-01 -.357E-01
   0.835E+02 0.144E+02 0.229E+04   -.833E+02 -.145E+02 -.228E+04   -.211E+00 0.769E-01 -.333E+01   -.732E-01 0.204E-01 -.446E-02
   0.323E+02 -.154E+02 0.123E+04   -.326E+02 0.153E+02 -.123E+04   0.338E+00 -.593E-01 0.321E+00   -.798E-02 0.849E-01 -.161E+00
   0.154E+03 0.929E+00 0.903E+03   -.155E+03 -.852E+00 -.904E+03   0.665E+00 -.695E-01 0.107E+01   0.214E-01 -.248E-01 -.115E+00
   0.507E+02 -.409E+02 0.260E+04   -.508E+02 0.411E+02 -.259E+04   0.215E+00 -.141E+00 -.287E+01   -.595E-01 -.610E-01 -.615E-01
   0.190E+03 -.512E+02 0.250E+04   -.188E+03 0.508E+02 -.250E+04   -.181E+01 0.456E+00 -.373E+01   0.132E-01 0.135E-01 -.513E-01
   -.718E+02 -.548E+02 0.129E+04   0.714E+02 0.541E+02 -.129E+04   0.425E+00 0.668E+00 -.125E+00   0.347E-01 0.732E-01 -.145E+00
   -.167E+03 0.265E+02 0.351E+02   0.167E+03 -.264E+02 -.349E+02   0.345E+00 -.181E+00 -.182E+00   0.788E-01 -.115E-01 -.349E-01
   -.220E+03 -.636E+01 0.150E+04   0.220E+03 0.741E+01 -.150E+04   -.163E+00 -.102E+01 0.687E-01   0.813E-01 -.762E-01 -.131E+00
   0.456E+02 0.857E+01 0.134E+04   -.456E+02 -.896E+01 -.134E+04   0.247E-01 0.470E+00 -.209E+00   -.436E-01 -.643E-01 -.117E+00
   0.121E+03 0.210E+02 -.136E+04   -.120E+03 -.209E+02 0.136E+04   -.926E+00 -.138E+00 0.330E+00   -.369E-01 0.631E-01 -.141E-01
   0.668E+02 -.236E+02 0.256E+04   -.659E+02 0.242E+02 -.256E+04   -.913E+00 -.545E+00 -.278E+01   -.765E-02 0.354E-02 -.427E-01
   -.635E+02 -.740E+01 0.139E+04   0.636E+02 0.791E+01 -.139E+04   -.932E-01 -.483E+00 -.539E-02   -.417E-01 -.554E-01 -.169E+00
   0.846E+02 -.117E+03 0.850E+01   -.844E+02 0.117E+03 -.789E+01   -.444E+00 0.111E+00 -.688E+00   -.380E-01 0.941E-01 -.931E-01
   0.263E+02 0.105E+03 0.935E+02   -.264E+02 -.105E+03 -.935E+02   -.599E-01 -.386E+00 -.160E-01   0.514E-01 0.712E-01 -.186E-01
   -.494E+01 0.518E+02 -.126E+04   0.489E+01 -.518E+02 0.126E+04   0.106E+00 -.129E-01 0.123E+00   -.246E-02 -.277E-01 -.205E-01
[...]
   0.569E+02 -.814E+02 0.995E+02   -.563E+02 0.812E+02 -.991E+02   -.652E+00 0.149E+00 -.175E+00   0.312E-01 0.225E-01 -.123E+00
   -.147E+03 -.478E+02 0.150E+04   0.146E+03 0.482E+02 -.150E+04   0.323E+00 -.262E+00 -.839E+00   0.151E-01 -.881E-01 -.108E+00
   -.906E+02 0.351E+00 0.153E+04   0.910E+02 -.772E+00 -.153E+04   -.477E+00 0.328E+00 -.671E+00   0.121E-02 0.587E-01 -.117E+00
   -.230E+03 -.130E+03 0.291E+04   0.228E+03 0.129E+03 -.291E+04   0.144E+01 0.999E+00 -.351E+01   0.929E-02 -.800E-01 -.884E-01
   0.213E+03 -.340E+02 0.271E+04   -.213E+03 0.338E+02 -.271E+04   -.682E-01 0.308E+00 -.159E+01   -.225E-01 -.998E-01 -.499E-01
   0.106E+03 0.745E+01 0.149E+04   -.106E+03 -.748E+01 -.149E+04   -.242E+00 0.130E+00 0.617E-01   -.960E-01 -.481E-01 -.151E+00
   0.142E+03 -.323E+02 0.130E+04   -.142E+03 0.321E+02 -.130E+04   -.484E+00 0.228E+00 -.400E+00   -.844E-02 -.253E-01 -.229E+00
   -.289E+01 -.356E+02 -.140E+04   0.266E+01 0.355E+02 0.140E+04   0.239E+00 0.244E+00 0.260E+00   0.354E-01 -.905E-01 -.722E-01
   0.242E+02 0.221E+02 0.287E+04   -.247E+02 -.219E+02 -.287E+04   0.541E+00 -.304E+00 -.829E+00   -.663E-02 0.196E-01 -.121E-01
   -.598E+02 0.168E+03 -.117E+02   0.599E+02 -.168E+03 0.121E+02   0.549E-01 -.238E-01 -.493E+00   -.228E-01 0.524E-01 -.154E-01
   -.257E+02 0.551E+02 -.143E+02   0.258E+02 -.543E+02 0.145E+02   0.826E-01 -.801E+00 -.104E+00   -.766E-01 0.338E-03 -.128E+00
   0.209E+03 0.302E+02 -.175E+03   -.209E+03 -.297E+02 0.175E+03   0.635E-01 -.478E+00 -.473E+00   -.888E-01 -.201E-01 -.133E+00
   -.630E+02 -.880E+02 0.122E+03   0.631E+02 0.874E+02 -.122E+03   -.773E-04 0.386E+00 0.160E+00   -.762E-02 0.114E+00 -.590E-01
   -.740E+01 -.633E-01 -.313E+03   0.766E+01 0.126E+00 0.314E+03   -.236E+00 -.391E-01 -.131E+01   0.287E-02 0.164E-02 0.317E-02
   -.557E+00 -.105E+01 0.117E+01   0.168E-12 0.212E-13 -.398E-11   0.696E+00 0.104E+01 0.352E+01   -.124E+00 0.291E-01 -.466E+01

 POSITION                                       TOTAL-FORCE (eV/Angst)
     13.67538      8.46084      6.71127        -0.002784     -0.012092      0.001720
      5.20710      8.45874      6.58613        -0.000912      0.009695      0.025640
      5.17178      3.49244      6.83412         0.014816      0.036184     -0.009426
     15.17775      9.29946      8.96911         0.004920     -0.006022     -0.003048
      3.83298      4.43861      9.01928        -0.009870      0.010152      0.003926
      6.72134      9.20790      8.84360         0.020414     -0.001629      0.008033
     12.26412      4.34761      9.05367         0.006164     -0.013380      0.015112
      9.53337      9.26333      9.15594         0.001026     -0.011764     -0.017199
     10.91369      1.95585      8.92151        -0.000788      0.000016     -0.020776
      2.52133      1.97096      9.03402        -0.008336     -0.001197      0.001755
     12.28280      9.26009      9.14429         0.014451     -0.016178     -0.004650
     13.72309      6.78470      9.10205         0.025151      0.008122     -0.016531
      5.28405      1.95862      9.13567         0.006847     -0.005935      0.009555
      8.07642      6.82448      8.90538        -0.024843     -0.004919      0.000745
      9.50708      4.42058      8.97666        -0.004123     -0.000971      0.003106
      5.26823      6.82096      8.96683        -0.001233     -0.017038     -0.010585
      8.14334      2.00238      9.04226        -0.002493      0.008189     -0.010429
      8.09835      3.54525      6.76289        -0.000649      0.013495     -0.018832
      6.66454      1.08509      6.89533        -0.009727     -0.004525      0.000204
      6.68830      1.13624      1.16869         0.008991     -0.018637     -0.024988
      3.54481      4.07903      2.60632         0.001071     -0.002357     -0.036849
      1.24647      1.21268      6.73710        -0.002889      0.009049      0.010020
      0.89178      1.06685      0.94626        -0.017632      0.003487     -0.013772
      6.65662      9.25676      3.21225         0.002780      0.005858     -0.057857
      6.67933      4.38601      8.99647         0.007912      0.005554      0.004519
      8.21162      5.46055      4.88522        -0.233859     -0.026254     -0.242952
     10.88443      6.83104      9.07345        -0.037768      0.001012      0.005788
     14.89052      7.35140      4.54429        -0.014653      0.018015      0.064180
     12.40890      5.99275      6.88112        -0.004772      0.004191     -0.016038
      6.44897      5.96760      6.72384         0.005749     -0.010348      0.013036
      3.61025      2.53567      4.92929        -0.140966      0.187168     -0.102163
     10.87699      5.23710      4.87771         0.235640     -0.030132     -0.090900
      3.86269      6.05056      6.85161        -0.005207     -0.004729      0.007719
     13.83953      8.59728      1.29834         0.009967      0.013208      0.026624
      5.33586      8.40288      1.25445         0.011396     -0.007214      0.056054
      4.16277      6.39081      1.85096         0.018945     -0.012400      0.023187
      8.19107      2.05273      3.03386         0.005383     -0.018887     -0.013849
      9.58169      9.27602      2.99468         0.023916     -0.000453      0.024403
      2.41007      3.62117      6.98096         0.005185     -0.004990     -0.017884
     13.01773      3.43953      0.94254        -0.031652      0.005042     -0.000969
     10.87071      1.99839      2.96738         0.027385     -0.008387     -0.018560
     13.56890      5.06817      4.77058         0.018009      0.035373      0.037389
      3.97842      1.05069      7.03580        -0.007742     -0.019765      0.013276
      9.59703      6.12807      6.99525         0.019735     -0.007816      0.008054
      3.81646      1.07543      1.16136        -0.012974     -0.014349      0.018512
      8.06104      3.56771      1.10023        -0.010815     -0.003906     -0.014212
      5.20370      2.03419      2.97809        -0.001576     -0.054373      0.080474
      5.89506      6.72021      3.47528        -0.027765     -0.008146     -0.036419
      9.35391      6.06988      1.14808         0.006413     -0.024799      0.015117
      5.63380      3.63292      1.23723         0.056961      0.061854      0.002677
     12.43866      9.06023      3.09611         0.016161      0.001024     -0.044140
     12.07766      7.63668      4.91324         0.031795     -0.006380      0.059997
     13.13008      6.61689      2.83040        -0.046600      0.013028     -0.021467
      9.41148      4.47169      2.86934         0.039735     -0.034837      0.013421
      8.50959      8.51766      7.00607         0.020115     -0.003857      0.014175
      8.18243      8.58957      1.16315        -0.013247      0.009013     -0.011840
     10.79405      6.97057      2.90238        -0.003384      0.008256      0.045549
      2.82111      0.14512      5.04740        -0.185424     -0.056334     -0.043213
      8.14725      0.55026      4.88481        -0.034837     -0.055406      0.096690
      9.38853      1.18651      6.89487         0.005319      0.012758     -0.016171
[...]
      9.60048      2.82018      4.87865        -0.028768      0.041366      0.080664
      6.60502      2.54502      4.87077         0.011921     -0.032498      0.042950
     12.08196      4.24602      2.88896         0.016778      0.008311     -0.045793
      2.28916      1.82528      2.94996        -0.000286     -0.033320      0.036373
     11.76886      5.74999      1.05362         0.003327     -0.004248     -0.009737
      6.84033      5.98705      1.38644        -0.007904      0.003033      0.007267
      8.30437      7.12497      3.00063         0.003972      0.036674      0.025351
      6.85459      4.22009      3.15394        -0.065363     -0.045149      0.005729
     10.88881      3.58342      6.91576         0.000292      0.006139     -0.017631
     10.60151      3.45495      1.03917         0.003245     -0.004312     -0.016614
     10.73179      0.68889      4.99664         0.008589      0.019484     -0.029249
      9.67006      7.71157      4.99333         0.052717      0.121548      0.095979
      7.17143      7.81748      5.18228         0.028516     -0.010644     -0.007386
      5.29940      0.29561      4.91544         0.172901     -0.075458     -0.018719
     13.75144      8.46711      9.88609         0.033098      0.025364     -0.014452
    total drift:                                0.014430      0.018293      0.028160

  FREE ENERGIE OF THE ION-ELECTRON SYSTEM (eV)
  free  energy   TOTEN  =      -538.46599901 eV

  energy  without entropy=     -538.48457656  energy(sigma->0) =     -538.47219152

 d Force = 0.4183954E-03[-0.432E-04, 0.880E-03]  d Energy = 0.3398215E-03 0.786E-04
 d Force =-0.9505318E+01[-0.952E+01,-0.949E+01]  d Ewald  =-0.9505304E+01-0.141E-04

 reached required accuracy - stopping structural energy minimisation