 vasp.5.4.4.18Apr17-6-g9f103f2a35 (build Oct 25 2019 11:13:22) complex

 executed on             LinuxIFC date 2022.02.22  05:52:47

 INCAR:
 POTCAR:    PAW_PBE Pt 04Feb2005
 POTCAR:    PAW_PBE Fe 06Sep2000
 POTCAR:    PAW_PBE Co 02Aug2007
 POTCAR:    PAW_PBE Cu 22Jun2005
 POTCAR:    PAW_PBE Ni 02Aug2007
 POTCAR:    PAW_PBE O 08Apr2002
 POTCAR:    PAW_PBE Pt 04Feb2005
   VRHFIN =Pt: s1d9

   TITEL  = PAW_PBE Pt 04Feb2005
   POMASS =  195.080; ZVAL   =   10.000    mass and valenz
   ENMAX  =  230.283; ENMIN  =  172.712 eV

 POTCAR:    PAW_PBE Fe 06Sep2000
   VRHFIN =Fe:  d7 s1

   TITEL  = PAW_PBE Fe 06Sep2000
   POMASS =   55.847; ZVAL   =    8.000    mass and valenz
   ENMAX  =  267.882; ENMIN  =  200.911 eV

 POTCAR:    PAW_PBE Co 02Aug2007
   VRHFIN =Co: d8 s1

   TITEL  = PAW_PBE Co 02Aug2007
   POMASS =   58.933; ZVAL   =    9.000    mass and valenz
   ENMAX  =  267.968; ENMIN  =  200.976 eV

 POTCAR:    PAW_PBE Cu 22Jun2005
   VRHFIN =Cu: d10 p1

   TITEL  = PAW_PBE Cu 22Jun2005
   POMASS =   63.546; ZVAL   =   11.000    mass and valenz
   ENMAX  =  295.446; ENMIN  =  221.585 eV

 POTCAR:    PAW_PBE Ni 02Aug2007
   VRHFIN =Ni:

   TITEL  = PAW_PBE Ni 02Aug2007
   POMASS =   58.690; ZVAL   =   10.000    mass and valenz
   ENMAX  =  269.532; ENMIN  =  202.149 eV

 POTCAR:    PAW_PBE O 08Apr2002
   VRHFIN =O: s2p4

   TITEL  = PAW_PBE O 08Apr2002
   POMASS =   16.000; ZVAL   =    6.000    mass and valenz
   ENMAX  =  400.000; ENMIN  =  300.000 eV

 Optimization of the real space projectors (new method)

 maximal supplied QI-value         = 14.36
 optimisation between [QCUT,QGAM] = [ 11.92, 23.98] = [ 39.79,161.09] Ry
 Optimized for a Real-space Cutoff    1.49 Angstroem

   l    n(q)    QCUT    max X(q) W(low)/X(q) W(high)/X(q)  e(spline)
   2     10    11.920    66.195    0.79E-04    0.18E-03    0.24E-06
   2     10    11.920    64.643    0.81E-04    0.19E-03    0.24E-06
   0     11    11.920    95.520    0.28E-04    0.54E-04    0.18E-06
   0     11    11.920    63.403    0.27E-04    0.52E-04    0.17E-06
   1     10    11.920    19.961    0.18E-04    0.11E-03    0.23E-06
   1     10    11.920    13.289    0.25E-04    0.87E-04    0.19E-06
 Optimization of the real space projectors (new method)

[...]

   l    n(q)    QCUT    max X(q) W(low)/X(q) W(high)/X(q)  e(spline)
   2      9    11.864    60.317    0.21E-03    0.51E-03    0.25E-06
   2      9    11.864    55.921    0.21E-03    0.51E-03    0.26E-06
   0      9    11.864    51.690    0.22E-03    0.30E-04    0.17E-06
   0      9    11.864    30.015    0.20E-03    0.28E-04    0.15E-06
   1      9    11.864    18.849    0.76E-04    0.33E-03    0.17E-06
   1      9    11.864    14.624    0.60E-04    0.28E-03    0.15E-06
 Optimization of the real space projectors (new method)

 maximal supplied QI-value         = 24.76
 optimisation between [QCUT,QGAM] = [ 11.88, 24.01] = [ 39.54,161.47] Ry
 Optimized for a Real-space Cutoff    1.18 Angstroem

   l    n(q)    QCUT    max X(q) W(low)/X(q) W(high)/X(q)  e(spline)
   0      8    11.883    20.381    0.86E-04    0.11E-03    0.31E-06
   0      8    11.883    15.268    0.94E-04    0.12E-03    0.33E-06
   1      8    11.883     5.964    0.19E-03    0.18E-04    0.33E-06
   1      8    11.883     5.382    0.17E-03    0.20E-04    0.29E-06
  PAW_PBE Pt 04Feb2005                  :
  PAW_PBE Fe 06Sep2000                  :
  PAW_PBE Co 02Aug2007                  :
  PAW_PBE Cu 22Jun2005                  :
  PAW_PBE Ni 02Aug2007                  :
  PAW_PBE O 08Apr2002                   :

 POSCAR: 10.56
  positions in direct lattice
  velocities in cartesian coordinates
 exchange correlation table for  LEXCH =        8
   RHO(1)=    0.500       N(1)  =     2000
   RHO(2)=  100.500       N(2)  =     4000

 ion  position               nearest neighbor table
   1  0.788  0.878  0.317-  28 2.61  49 2.62  19 2.64  33 2.65  59 2.65  61 2.66  29 2.67  60 2.68
                             2 2.72   4 2.77  11 2.78  12 2.84
   2  0.044  0.881  0.317-  79 2.56  30 2.62  77 2.62  60 2.63  52 2.65  28 2.67  33 2.67  22 2.68
                             1 2.72   4 2.82   6 2.89  16 3.13
   3  0.279  0.380  0.320-  39 2.56  64 2.57  33 2.59  31 2.63  30 2.70  19 2.70  43 2.72  68 2.72
                             5 2.78  13 2.80  18 2.82  25 2.83
   4  0.868  0.965  0.422-  17 2.58  11 2.60   9 2.65  12 2.67   6 2.70  16 2.76  60 2.77   1 2.77
                             2 2.82
   5  0.122  0.463  0.428-  16 2.61  12 2.62   7 2.63  10 2.63  25 2.66  13 2.67  33 2.71  39 2.74
                             3 2.78
   6  0.122  0.967  0.429-  10 2.61   9 2.64   8 2.65   4 2.70  14 2.73  16 2.75   2 2.89  22 2.93
                            52 2.94
   7  0.875  0.460  0.427-  81 2.09   9 2.61  15 2.62   5 2.63  10 2.63  12 2.63  27 2.65  39 2.69
                            75 2.78  29 2.79
   8  0.376  0.960  0.419-  43 2.58  11 2.62  13 2.62  14 2.62  27 2.63   6 2.65  10 2.66  52 2.70
                            61 2.70
   9  0.871  0.214  0.420-  81 2.20  15 2.59   7 2.61  17 2.63   6 2.64   4 2.65  75 2.66  10 2.68
                            60 2.72  22 2.80
  10  0.125  0.212  0.422-  81 2.23   6 2.61  13 2.61   5 2.63   7 2.63   8 2.66  39 2.66   9 2.68
                            43 2.73  22 2.77
  11  0.624  0.960  0.424-   4 2.60   8 2.62  27 2.63  13 2.63  12 2.64  17 2.65   1 2.78  19 2.83
                            61 2.84
  12  0.874  0.710  0.426-   5 2.62  27 2.63   7 2.63  11 2.64  16 2.66   4 2.67  33 2.67  29 2.80
                             1 2.84
  13  0.374  0.209  0.425-  10 2.61   8 2.62  11 2.63  25 2.65  17 2.65   5 2.67  43 2.77   3 2.80
                            19 2.83
  14  0.381  0.709  0.422-  27 2.58  15 2.61   8 2.62  44 2.65  25 2.67   6 2.73  16 2.74  30 2.74
                            52 2.75
  15  0.627  0.461  0.423-   9 2.59  14 2.61   7 2.62  27 2.63  17 2.65  25 2.66  44 2.70  75 2.72
                            18 2.76
  16  0.126  0.706  0.439-   5 2.61  25 2.64  12 2.66  14 2.74   6 2.75   4 2.76  33 2.90  30 3.04
                             2 3.13
  17  0.624  0.211  0.423-   4 2.58  25 2.62   9 2.63  13 2.65  15 2.65  11 2.65  18 2.77  60 2.80
                            19 2.87
  18  0.548  0.375  0.317-  67 2.56  60 2.59  75 2.61  44 2.64  68 2.65  26 2.67  30 2.71  19 2.73
                            15 2.76  17 2.77   3 2.82  25 2.86
  19  0.535  0.124  0.315-  80 2.55  43 2.57  68 2.57  59 2.60   1 2.64  61 2.64   3 2.70  18 2.73
                            60 2.76  13 2.83  11 2.83  17 2.87
  20  0.547  0.124  0.040-  37 2.55  57 2.56  48 2.58  62 2.64  63 2.68  47 2.68  45 2.68  56 2.70
                            34 2.71
  21  0.121  0.460  0.128-  40 2.52  36 2.53  47 2.53  42 2.60  69 2.61  64 2.62  70 2.64  50 2.64
                            58 2.67  31 2.70  57 2.71  74 2.72
  22  0.045  0.134  0.315-  55 2.54  65 2.55  43 2.57  77 2.59  39 2.59  75 2.61   2 2.68  60 2.68
                            52 2.71  10 2.77   9 2.80   6 2.93  31 3.42
  23  0.042  0.130  0.033-  70 2.58  40 2.60  41 2.61  45 2.62  62 2.64  76 2.64  24 2.69  35 2.73
                            53 2.78
  24  0.130  0.958  0.132-  79 2.51  77 2.54  35 2.57  53 2.57  55 2.58  70 2.62  38 2.64  58 2.64
                            73 2.65  23 2.69  66 2.70  41 2.72
  25  0.375  0.459  0.426-  17 2.62  16 2.64  13 2.65   5 2.66  15 2.66  14 2.67  30 2.82   3 2.83
                            18 2.86
  26  0.455  0.546  0.219-  73 2.50  74 2.54  51 2.56  79 2.61  64 2.63  18 2.67  68 2.67  78 2.67
                            30 2.67  32 2.68  67 2.72  44 2.75
  27  0.624  0.711  0.424-  14 2.58   8 2.63  15 2.63  11 2.63  12 2.63   7 2.65  44 2.71  61 2.79
                            29 2.79
  28  0.956  0.790  0.221-  58 2.57  66 2.57  50 2.58  42 2.59  49 2.61   1 2.61  64 2.63   2 2.67
                            59 2.70  33 2.73  79 2.76  77 2.77
  29  0.794  0.622  0.319-  39 2.54  42 2.56  75 2.58  32 2.61  44 2.64  33 2.65   1 2.67  61 2.67
                            49 2.69   7 2.79  27 2.79  12 2.80
  30  0.290  0.631  0.319-  79 2.58  52 2.61  64 2.61   2 2.62  33 2.64  44 2.64  26 2.67   3 2.70
                            18 2.71  14 2.74  25 2.82  16 3.04
  31  0.203  0.281  0.225-  70 2.52  55 2.56  65 2.57  43 2.60  57 2.60   3 2.63  39 2.66  80 2.70
                            21 2.70  42 2.71  68 2.75  64 2.79  22 3.42
  32  0.706  0.549  0.221-  54 2.53  69 2.56  51 2.58  49 2.59  42 2.60  29 2.61  78 2.62  65 2.63
                            26 2.68  44 2.69  75 2.69  67 2.70
  33  0.040  0.630  0.326-   3 2.59  30 2.64  39 2.64   1 2.65  29 2.65  12 2.67   2 2.67  64 2.71
                             5 2.71  28 2.73  42 2.74  16 2.90
  34  0.797  0.862  0.042-  50 2.38  66 2.51  48 2.53  36 2.55  71 2.56  63 2.61  20 2.71  35 2.76
                            62 2.76
  35  0.056  0.866  0.038-  58 2.54  72 2.55  36 2.56  24 2.57  66 2.62  53 2.65  23 2.73  62 2.73
                            34 2.76
  36  0.046  0.628  0.037-  21 2.53  34 2.55  35 2.56  58 2.58  50 2.61  47 2.63  72 2.64  40 2.69
                            71 2.72
  37  0.627  0.222  0.129-  51 2.51  74 2.51  67 2.52  56 2.53  41 2.55  20 2.55  68 2.56  59 2.56
                            62 2.59  66 2.66  57 2.73  48 2.89
  38  0.382  0.955  0.130-  53 2.47  80 2.48  45 2.49  78 2.53  48 2.54  73 2.55  63 2.55  54 2.56
                            55 2.59  57 2.62  24 2.64  70 2.67
  39  0.036  0.382  0.324-  29 2.54   3 2.56  75 2.58  22 2.59  33 2.64  10 2.66  31 2.66  42 2.67
                             7 2.69   5 2.74  65 2.75  43 2.79
  40  0.031  0.382  0.038-  69 2.44  21 2.52  71 2.53  76 2.56  70 2.57  23 2.60  36 2.69  45 2.78
                            47 2.78
  41  0.872  0.215  0.128-  76 2.45  65 2.52  77 2.53  67 2.54  37 2.55  69 2.57  62 2.57  51 2.59
                            23 2.61  70 2.65  66 2.66  24 2.72
  42  0.955  0.545  0.224-  29 2.56  50 2.56  28 2.59  21 2.60  32 2.60  69 2.61  49 2.63  65 2.64
                            64 2.65  39 2.67  31 2.71  33 2.74
  43  0.297  0.115  0.321-  55 2.53  52 2.54  61 2.56  19 2.57  22 2.57   8 2.58  31 2.60  80 2.66
                             3 2.72  10 2.73  13 2.77  39 2.79
  44  0.541  0.629  0.322-  61 2.56  52 2.58  78 2.64  29 2.64  18 2.64  30 2.64  14 2.65  75 2.66
                            32 2.69  15 2.70  27 2.71  26 2.75
  45  0.295  0.119  0.039-  70 2.49  38 2.49  57 2.57  53 2.60  23 2.62  63 2.64  20 2.68  47 2.75
                            40 2.78
  46  0.548  0.625  0.044-  51 2.38  73 2.39  54 2.41  71 2.56  53 2.56  63 2.58  76 2.59  56 2.62
                            72 2.64
  47  0.296  0.379  0.039-  74 2.41  21 2.53  57 2.61  72 2.61  56 2.62  36 2.63  20 2.68  45 2.75
                            40 2.78
  48  0.625  0.950  0.132-  49 2.40  80 2.48  54 2.48  34 2.53  38 2.54  59 2.55  50 2.56  63 2.57
                            20 2.58  57 2.65  66 2.68  37 2.89
  49  0.706  0.794  0.220-  48 2.40  50 2.48  54 2.49  80 2.53  32 2.59  28 2.61  78 2.61   1 2.62
                            61 2.62  42 2.63  29 2.69  59 2.69
[...]
   0.327E+02 -.160E+02 -.151E+04   -.344E+02 0.163E+02 0.151E+04   0.176E+01 -.280E+00 0.203E+01   0.138E-01 -.158E-01 -.225E-01
   0.103E+02 0.427E+02 -.290E+04   -.102E+02 -.429E+02 0.290E+04   -.848E-02 0.191E+00 0.609E+00   0.601E-02 0.108E-01 0.311E-02
   -.353E+02 -.920E+01 -.288E+04   0.356E+02 0.101E+02 0.288E+04   -.365E+00 -.813E+00 0.162E+01   -.272E-02 -.683E-02 0.929E-02
   -.229E+01 0.325E+02 -.286E+04   0.221E+01 -.335E+02 0.286E+04   0.106E+00 0.100E+01 0.104E+01   0.140E-02 0.153E-01 -.214E-01
   -.192E+02 -.117E+03 -.282E+04   0.194E+02 0.120E+03 0.281E+04   -.147E+00 -.234E+01 0.143E+01   -.268E-01 -.787E-02 -.126E-01
   -.891E+00 -.295E+01 -.290E+04   0.649E+00 0.285E+01 0.289E+04   0.240E+00 0.906E-01 0.168E+01   0.209E-02 0.601E-02 0.331E-02
   0.699E+02 0.638E+02 -.284E+04   -.723E+02 -.651E+02 0.284E+04   0.238E+01 0.123E+01 0.132E+01   0.168E-01 0.169E-01 -.259E-01
   -.984E+02 0.500E+02 -.281E+04   0.101E+03 -.512E+02 0.281E+04   -.295E+01 0.130E+01 0.216E+01   -.114E-01 -.221E-02 -.483E-02
   -.353E+01 -.429E+01 -.293E+04   0.391E+01 0.404E+01 0.293E+04   -.409E+00 0.179E+00 0.637E+00   -.134E-01 0.868E-02 -.673E-02
   -.142E+02 -.177E+02 -.291E+04   0.147E+02 0.177E+02 0.291E+04   -.433E+00 -.617E-02 0.988E+00   -.183E-01 0.287E-02 0.361E-02
   -.183E+02 -.158E+02 -.289E+04   0.183E+02 0.155E+02 0.289E+04   0.523E-01 0.258E+00 0.740E+00   0.302E-02 -.110E-01 -.133E-01
   0.231E+02 0.799E+01 -.292E+04   -.227E+02 -.795E+01 0.292E+04   -.493E+00 -.670E-01 0.122E+01   0.166E-01 0.204E-02 0.872E-02
   0.437E+02 -.292E+02 -.288E+04   -.442E+02 0.298E+02 0.288E+04   0.574E+00 -.590E+00 0.139E+01   0.169E-01 0.585E-02 -.199E-01
   -.563E+01 0.945E+00 -.292E+04   0.529E+01 -.139E+01 0.292E+04   0.329E+00 0.392E+00 0.992E+00   0.579E-02 0.710E-02 0.587E-01
   0.528E+02 -.409E+01 -.291E+04   -.530E+02 0.431E+01 0.291E+04   0.212E+00 -.253E+00 0.926E+00   -.855E-02 0.566E-02 -.570E-02
   0.750E+02 -.745E+02 -.150E+04   -.737E+02 0.748E+02 0.150E+04   -.127E+01 -.267E+00 0.174E+01   0.679E-02 -.182E-01 -.190E-01
   0.272E+02 -.385E+02 -.149E+04   -.284E+02 0.381E+02 0.149E+04   0.111E+01 0.420E+00 0.245E+01   0.896E-03 0.268E-02 -.234E-01
   0.333E+02 0.318E+02 0.304E+04   -.334E+02 -.319E+02 -.304E+04   0.120E+00 0.143E+00 -.237E+01   0.306E-02 -.503E-02 0.508E-03
   0.362E+02 -.881E+01 0.161E+04   -.370E+02 0.951E+01 -.161E+04   0.911E+00 -.651E+00 0.913E+00   -.214E-01 0.410E-02 -.146E-02
   -.719E+02 0.122E+02 -.147E+04   0.728E+02 -.114E+02 0.146E+04   -.917E+00 -.785E+00 0.281E+01   -.155E-01 0.840E-02 -.112E-01
   -.541E+02 0.511E+02 0.309E+04   0.548E+02 -.503E+02 -.309E+04   -.667E+00 -.847E+00 -.207E+01   -.341E-02 0.206E-02 0.403E-02
   0.132E+00 -.533E+02 0.161E+04   0.144E+00 0.528E+02 -.161E+04   -.344E+00 0.420E+00 -.764E+00   -.120E-01 0.976E-02 -.252E-01
   0.883E+01 0.852E+00 -.292E+04   -.902E+01 -.753E+00 0.292E+04   0.181E+00 -.104E+00 0.587E+00   0.926E-02 -.140E-01 -.847E-02
   -.228E+02 -.975E+01 0.312E+02   0.227E+02 0.100E+02 -.325E+02   -.257E-01 -.295E+00 0.123E+01   0.177E-01 -.195E-01 -.197E-01
   -.556E+01 -.971E+01 -.292E+04   0.487E+01 0.996E+01 0.292E+04   0.733E+00 -.205E+00 0.122E+01   0.338E-02 -.852E-02 0.409E-02
   0.203E+02 0.665E+02 0.258E+02   -.213E+02 -.677E+02 -.261E+02   0.107E+01 0.111E+01 0.201E+00   -.121E-01 0.776E-03 -.186E-01
   -.667E+02 -.358E+01 -.147E+04   0.670E+02 0.156E+01 0.147E+04   -.332E+00 0.210E+01 0.178E+01   -.768E-02 -.333E-03 -.252E-01
   0.296E+02 0.266E+02 -.153E+04   -.293E+02 -.258E+02 0.152E+04   -.295E+00 -.670E+00 0.244E+01   0.358E-02 -.769E-02 -.968E-02
   0.228E+02 -.638E+02 -.530E+02   -.237E+02 0.632E+02 0.533E+02   0.949E+00 0.502E+00 -.237E+00   0.284E-02 0.895E-02 -.209E-01
   -.272E+02 -.238E+02 0.240E+02   0.280E+02 0.245E+02 -.248E+02   -.754E+00 -.819E+00 0.966E+00   0.891E-02 -.216E-01 -.170E-01
   0.166E+02 0.968E+01 -.123E+04   -.167E+02 -.101E+02 0.123E+04   0.747E-01 0.493E+00 0.414E+00   -.623E-02 0.787E-02 -.239E-01
   -.598E+02 -.263E+01 0.244E+04   0.602E+02 0.133E+01 -.244E+04   -.400E+00 0.132E+01 -.271E+01   0.683E-02 0.696E-03 0.103E-02
   0.306E+02 -.141E+02 0.248E+04   -.305E+02 0.127E+02 -.247E+04   -.507E-01 0.144E+01 -.229E+01   -.334E-02 0.896E-02 0.125E-03
   0.230E+02 -.407E+01 0.248E+04   -.231E+02 0.463E+01 -.248E+04   0.161E+00 -.607E+00 -.283E+01   -.867E-02 0.550E-02 0.903E-03
   0.647E+01 0.523E+02 0.130E+04   -.563E+01 -.516E+02 -.130E+04   -.902E+00 -.712E+00 -.126E+00   0.160E-01 0.196E-02 -.211E-02
   0.336E+02 -.543E+02 0.129E+04   -.336E+02 0.540E+02 -.129E+04   -.987E-01 0.240E+00 -.425E+00   0.181E-02 0.908E-02 -.151E-01
   -.544E+02 -.258E+02 -.121E+04   0.546E+02 0.260E+02 0.121E+04   -.142E+00 -.281E+00 0.101E+01   -.154E-01 -.587E-03 -.177E-01
   -.932E+02 0.205E+02 0.248E+04   0.930E+02 -.202E+02 -.248E+04   0.245E+00 -.251E+00 -.263E+01   -.656E-02 -.262E-02 0.190E-02
   -.337E+02 0.463E+02 0.131E+04   0.329E+02 -.458E+02 -.131E+04   0.819E+00 -.517E+00 -.401E+00   -.668E-02 0.943E-02 -.731E-02
   -.411E+02 0.807E+00 -.306E+02   0.408E+02 -.388E+00 0.306E+02   0.212E+00 -.461E+00 0.822E-02   -.650E-02 0.177E-02 -.207E-01
   0.138E+02 -.765E+02 -.122E+04   -.144E+02 0.766E+02 0.122E+04   0.577E+00 -.571E-01 0.751E+00   0.105E-01 -.264E-02 -.665E-02
   0.145E+02 0.261E+02 -.121E+04   -.146E+02 -.262E+02 0.121E+04   0.128E+00 0.181E-01 0.413E+00   0.104E-01 -.115E-01 -.675E-02
   0.148E+02 -.465E+02 0.246E+04   -.153E+02 0.458E+02 -.245E+04   0.583E+00 0.758E+00 -.270E+01   -.588E-02 -.301E-02 -.200E-03
   0.428E+01 -.196E+02 0.276E+04   -.434E+01 0.199E+02 -.276E+04   0.689E-01 -.198E+00 -.233E+01   0.470E-02 -.129E-01 0.479E-02
   0.119E+03 0.290E+02 0.280E+04   -.120E+03 -.284E+02 -.279E+04   0.437E+00 -.664E+00 -.234E+01   -.110E-01 -.797E-02 -.447E-02
   -.368E+02 -.271E+02 0.144E+04   0.363E+02 0.261E+02 -.144E+04   0.450E+00 0.103E+01 -.285E+00   0.630E-02 0.845E-02 -.450E-02
   -.606E+02 0.723E+02 0.406E+02   0.607E+02 -.722E+02 -.415E+02   -.735E-01 -.847E-01 0.776E+00   0.116E-01 -.411E-02 -.739E-02
   -.883E+02 0.193E+02 0.142E+04   0.879E+02 -.188E+02 -.142E+04   0.497E+00 -.482E+00 -.139E+00   0.967E-02 -.693E-02 0.107E-03
   -.214E+02 0.950E+01 0.140E+04   0.216E+02 -.969E+01 -.140E+04   -.134E+00 0.266E+00 -.101E+00   0.124E-01 -.229E-01 0.148E-02
   0.427E+02 0.108E+02 -.137E+04   -.426E+02 -.110E+02 0.137E+04   -.256E+00 0.218E+00 0.152E+01   0.737E-03 0.557E-02 -.131E-02
   0.529E+02 -.807E+02 0.277E+04   -.526E+02 0.805E+02 -.277E+04   -.350E+00 0.196E+00 -.243E+01   -.511E-02 0.194E-01 -.340E-02
   -.144E+02 0.226E+01 0.139E+04   0.145E+02 -.206E+01 -.139E+04   -.864E-01 -.255E+00 -.444E+00   0.652E-02 -.852E-02 0.920E-04
   0.190E+02 -.701E+02 0.319E+01   -.182E+02 0.695E+02 -.293E+01   -.847E+00 0.687E+00 -.268E+00   0.176E-02 0.665E-02 -.133E-01
   0.307E+02 0.340E+02 0.345E+04   -.308E+02 -.332E+02 -.345E+04   0.930E-01 -.841E+00 -.359E+01   0.211E-01 -.168E-01 0.949E-02
   0.633E+02 0.877E+01 0.176E+04   -.635E+02 -.939E+01 -.176E+04   0.130E+00 0.654E+00 -.171E+00   -.171E-02 -.113E-01 -.412E-02
   0.103E+03 -.317E+02 0.173E+04   -.102E+03 0.317E+02 -.173E+04   -.198E+00 -.899E-02 0.171E-01   -.196E-01 0.146E-01 -.126E-01
   0.905E+01 0.707E+02 0.104E+03   -.964E+01 -.705E+02 -.105E+03   0.599E+00 -.319E+00 0.782E+00   0.268E-02 0.674E-02 -.125E-01
   0.208E+02 0.618E+02 -.168E+04   -.196E+02 -.609E+02 0.168E+04   -.123E+01 -.916E+00 0.698E+00   -.146E-02 0.104E-01 -.230E-01
[...]
   0.553E+02 -.366E+02 0.309E+02   -.547E+02 0.361E+02 -.312E+02   -.631E+00 0.427E+00 0.309E+00   0.963E-02 -.157E-01 -.456E-02
   -.736E+02 0.817E+00 0.156E+04   0.732E+02 -.657E+00 -.156E+04   0.409E+00 -.108E+00 -.122E+00   -.550E-02 -.933E-02 -.634E-03
   -.121E+02 0.193E+02 0.163E+04   0.124E+02 -.195E+02 -.163E+04   -.362E+00 0.233E+00 -.445E+00   -.772E-02 0.717E-02 -.191E-01
   -.101E+03 -.417E+01 0.309E+04   0.101E+03 0.437E+01 -.309E+04   -.520E+00 -.145E+00 -.132E+01   0.146E-01 -.106E-01 -.955E-03
   0.702E+02 -.525E+02 0.309E+04   -.705E+02 0.531E+02 -.309E+04   0.355E+00 -.600E+00 -.825E+00   -.815E-02 0.127E-01 -.581E-02
   0.147E+02 -.404E+02 0.156E+04   -.143E+02 0.402E+02 -.156E+04   -.406E+00 0.208E+00 -.198E-01   0.277E-02 0.899E-03 -.475E-02
   0.512E+02 0.191E+01 0.161E+04   -.508E+02 -.189E+01 -.161E+04   -.478E+00 0.542E-01 -.104E+00   0.142E-01 -.119E-01 0.440E-03
   -.396E+02 -.751E+02 -.151E+04   0.395E+02 0.752E+02 0.151E+04   0.927E-01 -.113E+00 0.100E+01   -.841E-02 -.585E-02 -.128E-01
   -.541E+02 0.295E+02 0.307E+04   0.545E+02 -.289E+02 -.307E+04   -.371E+00 -.599E+00 -.191E+01   0.126E-02 -.121E-01 0.166E-01
   -.449E+02 0.709E+02 0.952E+02   0.453E+02 -.707E+02 -.953E+02   -.329E+00 -.214E+00 0.158E+00   -.160E-01 0.125E-01 -.181E-01
   -.469E+00 0.625E+02 0.220E+02   0.412E+00 -.618E+02 -.222E+02   0.879E-01 -.850E+00 -.163E-01   0.118E-01 -.158E-02 -.136E-01
   0.467E+02 0.637E+01 -.816E+01   -.464E+02 -.579E+01 0.804E+01   -.355E+00 -.619E+00 0.117E-01   -.109E-01 0.309E-02 -.165E-01
   0.257E+02 -.489E+02 0.572E+02   -.261E+02 0.485E+02 -.574E+02   0.339E+00 0.459E+00 0.162E+00   0.154E-01 0.700E-02 -.106E-01
   -.290E+01 0.882E+01 -.201E+04   0.331E+01 -.103E+02 0.204E+04   -.401E+00 0.149E+01 -.314E+02   -.850E-03 -.354E-04 -.310E-03
   -.137E+01 -.238E+01 0.238E+02   -.784E-12 0.396E-12 0.286E-10   0.137E+01 0.232E+01 -.232E+02   0.429E-02 0.212E-01 -.620E+00

 POSITION                                       TOTAL-FORCE (eV/Angst)
     12.94357      8.01480      6.97595         0.010203     -0.014741     -0.011030
      5.10824      8.07090      6.93803        -0.008132     -0.005061      0.020614
      4.96584      3.47892      7.02263         0.005342     -0.000046     -0.004486
     14.29987      8.78106      9.30000         0.015941     -0.021576     -0.008430
      3.76746      4.24368      9.40252        -0.019241      0.015070     -0.011522
      6.38997      8.75172      9.25109         0.004818      0.012355      0.033942
     11.65762      4.25939      9.40080         0.006328     -0.004728      0.012334
      9.02978      8.77059      9.21635        -0.019522     -0.022414      0.000905
     10.28553      1.89876      9.36753         0.005434     -0.006231      0.019482
      2.48824      1.89670      9.39219        -0.001657      0.004338     -0.002175
     11.66846      8.78373      9.30195        -0.001709     -0.018961      0.011013
     12.98758      6.51325      9.39738         0.013394      0.009271     -0.027869
      5.07018      1.90536      9.31079         0.009673      0.000787      0.020056
      7.72264      6.51294      9.34546        -0.015752     -0.017732     -0.022447
      8.99626      4.23755      9.27530         0.012078      0.023585      0.013148
      5.06390      6.50276      9.41929         0.003952     -0.030667     -0.025007
      7.69582      1.92235      9.26585        -0.010593      0.001071      0.002658
      7.77211      3.42966      6.96706         0.003400      0.006120     -0.011470
      6.30718      1.13145      6.91819         0.002262      0.003063     -0.008938
      6.42858      1.12974      0.87872        -0.020151      0.006330     -0.000696
      3.70548      4.20844      2.81687         0.002300      0.002738     -0.033813
      1.17869      1.25690      6.93707         0.006419      0.003458      0.034136
      1.13569      1.19080      0.72557        -0.008091      0.017208     -0.013446
      6.43607      8.76100      2.90031        -0.030928      0.004367      0.006735
      6.38520      4.22061      9.39775         0.004268     -0.007840     -0.005902
      7.68135      4.99073      4.81474         0.012336      0.014147     -0.057399
     10.31905      6.52209      9.31054         0.000208      0.007532     -0.000419
     14.26424      7.22593      4.86299         0.011971     -0.045186     -0.100375
     11.67366      5.65777      7.05697        -0.007371      0.007020     -0.023718
      6.41521      5.77231      7.00652        -0.012039      0.010768      0.017889
      3.62119      2.56589      4.96023        -0.045628     -0.029589     -0.007316
     10.36091      5.02430      4.85652         0.104099      0.014492      0.150491
      3.76268      5.76254      7.17365         0.004315     -0.007196     -0.022345
     12.96907      7.87977      0.92567         0.000661     -0.012733      0.000924
      5.16340      7.91719      0.83030         0.020362      0.012475      0.012384
      3.80701      5.74502      0.81381         0.014515     -0.007266     -0.017804
      7.79852      2.03245      2.83251        -0.027974     -0.008471      0.015379
      9.07755      8.73373      2.85743        -0.009067     -0.000245     -0.009387
      2.41569      3.48344      7.15474        -0.014063     -0.013180      0.004055
      2.34409      3.49051      0.82510         0.009842      0.015909     -0.025147
     10.34814      1.96983      2.82249        -0.005165      0.007582      0.020062
     12.96035      4.98587      4.92559        -0.032711     -0.014900      0.089215
      3.74392      1.06877      7.07445        -0.009115     -0.001378      0.004724
      9.03192      5.75568      7.07908        -0.004362     -0.003273      0.007795
      3.74824      1.09182      0.86700        -0.001346      0.004310     -0.021362
      9.09121      5.71867      0.96043        -0.007443      0.026875     -0.006900
      5.12448      3.47045      0.85563        -0.000524      0.021939     -0.018644
     11.62092      8.68758      2.90590        -0.022436     -0.042560      0.049391
     11.65313      7.26450      4.84229        -0.007082      0.076370     -0.079507
     12.86756      6.45280      2.83379         0.018338     -0.009168     -0.012200
      9.04201      4.20780      2.79628         0.013180      0.020019      0.014251
      7.76280      8.00883      6.98456        -0.000516     -0.001737      0.009550
      7.81315      7.93922      0.88653        -0.010179      0.013669      0.009652
     10.39144      6.53566      2.82198         0.020514     -0.043676      0.009104
      2.51347      0.25826      5.00083        -0.000944      0.082239      0.064661
      7.74264      3.48454      0.76157        -0.003602     -0.018600      0.004951
      5.07835      1.87760      2.91701        -0.011097     -0.010323     -0.005035
      5.16037      6.44715      2.89923        -0.012289      0.004928     -0.016046
      7.70892      0.45986      4.84799         0.034643     -0.012150      0.032613
      9.07601      1.19256      7.00710         0.010487      0.000079     -0.002890
[...]
      9.07350      2.65252      4.91360         0.026450     -0.071814     -0.025340
      6.37169      2.66558      4.85827        -0.005584      0.000324     -0.047167
     11.65891      4.17486      2.81483        -0.008782     -0.018708     -0.031255
      2.44098      1.89237      2.83279        -0.003362      0.030245      0.029263
     11.64953      5.68621      0.88546         0.000686      0.042126     -0.004170
      6.44743      5.71949      0.92597        -0.004624      0.020295      0.008875
      7.82927      6.50651      2.83621        -0.018832     -0.011628     -0.014431
      6.41922      4.13007      2.78290        -0.014255      0.012161     -0.011229
     10.37136      3.44490      7.05121         0.002524     -0.010530      0.007086
     10.34410      3.45013      0.86804         0.001223     -0.013851     -0.022502
     10.37063      0.48410      4.87151        -0.010379      0.054274      0.051930
      9.04079      7.29017      4.93700         0.022904     -0.030502     -0.032016
      6.46265      7.29503      4.94074         0.036461     -0.006954     -0.050072
      5.04247      0.27633      4.88406        -0.014536      0.025215      0.005008
     11.62052      2.69750     10.70517         0.003701     -0.004154     -0.012372
    total drift:                                0.007196     -0.040103     -0.033588

  FREE ENERGIE OF THE ION-ELECTRON SYSTEM (eV)
  free  energy   TOTEN  =      -512.76790332 eV

  energy  without entropy=     -512.79187180  energy(sigma->0) =     -512.77589281

 d Force = 0.1533377E-02[ 0.657E-03, 0.241E-02]  d Energy = 0.1348394E-02 0.185E-03
 d Force =-0.2758561E+02[-0.276E+02,-0.276E+02]  d Ewald  =-0.2758563E+02 0.170E-04

 Conjugate gradient step on ions:
 trial-energy change:   -0.001348  1 .order   -0.001533   -0.002410   -0.000657
  (g-gl).g = 0.215E-02      g.g   = 0.178E-02  gl.gl    = 0.356E-02
 g(Force)  = 0.178E-02   g(Stress)= 0.000E+00 ortho     =-0.266E-03
 gamma     =   0.60417
 trial     =   1.48360
 opt step  =   2.03935  (harmonic =   2.03935) maximal distance =0.00553658
 next E    =  -512.768211   (d E  =  -0.00166)

 reached required accuracy - stopping structural energy minimisation