 vasp.5.4.4.18Apr17-6-g9f103f2a35 (build Oct 25 2019 11:13:22) complex

 executed on             LinuxIFC date 2021.10.29  22:28:29

 INCAR:
 POTCAR:    PAW_PBE Pt 04Feb2005
 POTCAR:    PAW_PBE Fe 06Sep2000
 POTCAR:    PAW_PBE Co 02Aug2007
 POTCAR:    PAW_PBE Cu 22Jun2005
 POTCAR:    PAW_PBE Ni 02Aug2007
 POTCAR:    PAW_PBE H 15Jun2001
 POTCAR:    PAW_PBE Pt 04Feb2005
   VRHFIN =Pt: s1d9

   TITEL  = PAW_PBE Pt 04Feb2005
   POMASS =  195.080; ZVAL   =   10.000    mass and valenz
   ENMAX  =  230.283; ENMIN  =  172.712 eV

 POTCAR:    PAW_PBE Fe 06Sep2000
   VRHFIN =Fe:  d7 s1

   TITEL  = PAW_PBE Fe 06Sep2000
   POMASS =   55.847; ZVAL   =    8.000    mass and valenz
   ENMAX  =  267.882; ENMIN  =  200.911 eV

 POTCAR:    PAW_PBE Co 02Aug2007
   VRHFIN =Co: d8 s1

   TITEL  = PAW_PBE Co 02Aug2007
   POMASS =   58.933; ZVAL   =    9.000    mass and valenz
   ENMAX  =  267.968; ENMIN  =  200.976 eV

 POTCAR:    PAW_PBE Cu 22Jun2005
   VRHFIN =Cu: d10 p1

   TITEL  = PAW_PBE Cu 22Jun2005
   POMASS =   63.546; ZVAL   =   11.000    mass and valenz
   ENMAX  =  295.446; ENMIN  =  221.585 eV

 POTCAR:    PAW_PBE Ni 02Aug2007
   VRHFIN =Ni:

   TITEL  = PAW_PBE Ni 02Aug2007
   POMASS =   58.690; ZVAL   =   10.000    mass and valenz
   ENMAX  =  269.532; ENMIN  =  202.149 eV

 POTCAR:    PAW_PBE H 15Jun2001
   VRHFIN =H: ultrasoft test

   TITEL  = PAW_PBE H 15Jun2001
   POMASS =    1.000; ZVAL   =    1.000    mass and valenz
   ENMAX  =  250.000; ENMIN  =  200.000 eV

 Optimization of the real space projectors (new method)

 maximal supplied QI-value         = 14.36
 optimisation between [QCUT,QGAM] = [ 11.92, 23.98] = [ 39.79,161.09] Ry
 Optimized for a Real-space Cutoff    1.49 Angstroem

   l    n(q)    QCUT    max X(q) W(low)/X(q) W(high)/X(q)  e(spline)
   2     10    11.920    66.195    0.79E-04    0.18E-03    0.24E-06
   2     10    11.920    64.643    0.81E-04    0.19E-03    0.24E-06
   0     11    11.920    95.520    0.28E-04    0.54E-04    0.18E-06
   0     11    11.920    63.403    0.27E-04    0.52E-04    0.17E-06
   1     10    11.920    19.961    0.18E-04    0.11E-03    0.23E-06
   1     10    11.920    13.289    0.25E-04    0.87E-04    0.19E-06
 Optimization of the real space projectors (new method)

[...]

   l    n(q)    QCUT    max X(q) W(low)/X(q) W(high)/X(q)  e(spline)
   2      9    11.864    60.317    0.21E-03    0.51E-03    0.25E-06
   2      9    11.864    55.921    0.21E-03    0.51E-03    0.26E-06
   0      9    11.864    51.690    0.22E-03    0.30E-04    0.17E-06
   0      9    11.864    30.015    0.20E-03    0.28E-04    0.15E-06
   1      9    11.864    18.849    0.76E-04    0.33E-03    0.17E-06
   1      9    11.864    14.624    0.60E-04    0.28E-03    0.15E-06
 Optimization of the real space projectors (new method)

 maximal supplied QI-value         = 34.20
 optimisation between [QCUT,QGAM] = [ 11.97, 23.94] = [ 40.13,160.53] Ry
 Optimized for a Real-space Cutoff    1.18 Angstroem

   l    n(q)    QCUT    max X(q) W(low)/X(q) W(high)/X(q)  e(spline)
   0      8    11.971    19.460    0.15E-03    0.31E-03    0.25E-06
   0      8    11.971    12.209    0.13E-03    0.29E-03    0.25E-06
   1      8    11.971     4.655    0.22E-03    0.24E-03    0.21E-06
  PAW_PBE Pt 04Feb2005                  :
  PAW_PBE Fe 06Sep2000                  :
  PAW_PBE Co 02Aug2007                  :
  PAW_PBE Cu 22Jun2005                  :
  PAW_PBE Ni 02Aug2007                  :
  PAW_PBE H 15Jun2001                   :

 POSCAR: 11.26-high
  positions in direct lattice
  velocities in cartesian coordinates
 exchange correlation table for  LEXCH =        8
   RHO(1)=    0.500       N(1)  =     2000
   RHO(2)=  100.500       N(2)  =     4000

 ion  position               nearest neighbor table
   1  0.776  0.870  0.315-  56 2.59  32 2.67  15 2.74  33 2.75  65 2.77  23 2.78   8 2.78  40 2.79
                            16 2.83  41 2.87   3 2.88   2 2.93
   2  0.037  0.869  0.316-  38 2.65  79 2.66  32 2.76  26 2.76   8 2.79  34 2.81  58 2.81  10 2.81
                            41 2.83   3 2.83  20 2.84   1 2.93
   3  0.036  0.617  0.313-  50 2.60  68 2.63  32 2.69   6 2.81   9 2.81   4 2.81   2 2.83  20 2.84
                            33 2.85  34 2.86  16 2.87   1 2.88
   4  0.028  0.371  0.319-  50 2.61  36 2.68  42 2.70  11 2.72  77 2.76   9 2.77  14 2.77  33 2.80
                             3 2.81  26 2.83   6 2.88   5 2.96
   5  0.290  0.106  0.318-  61 2.55  36 2.68  12 2.69  39 2.69  58 2.70  26 2.77  65 2.77  14 2.78
                            17 2.79  23 2.80   6 2.92   4 2.96
   6  0.287  0.368  0.317-  68 2.59  71 2.62  36 2.71  23 2.75  29 2.76   9 2.80  17 2.81   3 2.81
                            34 2.86   4 2.88  22 2.90   5 2.92
   7  0.860  0.689  0.125-  74 2.52  43 2.54  45 2.59  55 2.63  60 2.65  50 2.65  56 2.66  32 2.70
                            72 2.71  25 2.83  64 3.07
   8  0.861  0.955  0.416-  81 1.75  15 2.76  21 2.77   1 2.78  41 2.78   2 2.79  16 2.80  13 2.83
                            20 2.87  10 2.94
   9  0.115  0.456  0.419-  20 2.72   4 2.77  16 2.78  11 2.79   6 2.80  29 2.81   3 2.81  14 2.84
                            17 2.90
  10  0.124  0.953  0.420-  58 2.71  14 2.76  26 2.76  12 2.78   2 2.81  18 2.83  13 2.87  20 2.90
                             8 2.94
  11  0.870  0.449  0.421-   4 2.72  77 2.72  19 2.74  13 2.76  14 2.79   9 2.79  33 2.82  31 2.82
                            16 2.83
  12  0.375  0.947  0.418-   5 2.69  65 2.70  58 2.70  18 2.72  15 2.74  31 2.75  10 2.78  17 2.79
                            14 2.86
  13  0.866  0.205  0.416-  77 2.72  11 2.76  21 2.77  26 2.77  41 2.77  19 2.78  14 2.83   8 2.83
                            10 2.87
  14  0.120  0.201  0.420-  10 2.76   4 2.77   5 2.78  11 2.79  26 2.81  17 2.81  13 2.83   9 2.84
                            12 2.86
  15  0.619  0.946  0.418-   1 2.74  12 2.74  16 2.75  65 2.75  31 2.76   8 2.76  17 2.79  23 2.81
                            21 2.92
  16  0.867  0.703  0.420-  81 1.70  15 2.75  20 2.76  33 2.77   9 2.78  31 2.79   8 2.80   1 2.83
                            11 2.83   3 2.87
  17  0.372  0.197  0.420-  23 2.75  12 2.79   5 2.79  15 2.79   6 2.81  14 2.81  21 2.82  29 2.83
                             9 2.90
  18  0.378  0.703  0.417-  51 2.60  58 2.67  31 2.69  12 2.72  34 2.74  19 2.75  10 2.83  29 2.89
                            20 2.98
  19  0.622  0.456  0.419-  51 2.65  77 2.66  31 2.72  22 2.73  11 2.74  18 2.75  13 2.78  21 2.82
                            29 2.88
  20  0.115  0.699  0.421-   9 2.72  16 2.76  29 2.81  34 2.82   3 2.84   2 2.84   8 2.87  10 2.90
                            18 2.98
  21  0.619  0.206  0.417-  22 2.75  13 2.77   8 2.77  23 2.77  29 2.78  41 2.80  17 2.82  19 2.82
                            15 2.92
  22  0.541  0.377  0.317-  70 2.59  30 2.64  71 2.64  77 2.68  51 2.70  19 2.73  21 2.75  34 2.79
                            41 2.80  29 2.80   6 2.90  23 2.92
  23  0.532  0.121  0.317-  71 2.65  40 2.70  39 2.75  17 2.75   6 2.75  21 2.77   1 2.78   5 2.80
                            15 2.81  41 2.84  22 2.92  65 2.94
  24  0.544  0.120  0.050-  46 2.53  63 2.54  55 2.60  43 2.70  66 2.73  54 2.84  62 2.84  52 2.87
                            67 2.92
  25  0.114  0.439  0.123-  54 2.49  48 2.53  45 2.58  36 2.70  73 2.70  63 2.75  50 2.75  68 2.78
                             7 2.83  72 2.85  64 2.94  76 3.11
  26  0.039  0.114  0.316-  79 2.55  61 2.63  42 2.67   2 2.76  10 2.76  13 2.77   5 2.77  58 2.79
                            14 2.81  41 2.82   4 2.83  77 2.96
  27  0.024  0.132  0.037-  48 2.54  49 2.59  73 2.61  28 2.65  78 2.71  59 2.73  66 2.74  52 2.92
                            44 3.11
  28  0.115  0.958  0.130-  59 2.54  79 2.58  44 2.59  38 2.63  27 2.65  61 2.66  69 2.68  73 2.69
                            47 2.79  49 2.84  35 2.87  64 2.93
  29  0.368  0.451  0.419-   6 2.76  34 2.77  21 2.78  22 2.80   9 2.81  20 2.81  17 2.83  19 2.88
                            18 2.89
  30  0.456  0.540  0.221-  76 2.51  57 2.56  22 2.64  34 2.68  51 2.72  37 2.72  35 2.73  80 2.74
                            71 2.76  38 2.79  70 2.79  68 2.85
  31  0.619  0.700  0.421-  51 2.68  18 2.69  65 2.72  19 2.72  33 2.75  12 2.75  15 2.76  16 2.79
                            11 2.82
  32  0.941  0.791  0.218-  64 2.57  69 2.60   1 2.67   3 2.69   7 2.70   2 2.76  56 2.78  40 2.87
                            50 2.87  79 2.91  68 3.02  38 3.04
  33  0.780  0.622  0.318-  56 2.60  37 2.62  50 2.62  65 2.69  77 2.73  31 2.75  51 2.75   1 2.75
                            16 2.77   4 2.80  11 2.82   3 2.85
  34  0.289  0.621  0.318-  38 2.67  30 2.68  68 2.74  18 2.74  58 2.75  29 2.77  51 2.77  22 2.79
                             2 2.81  20 2.82   6 2.86   3 2.86
  35  0.377  0.709  0.122-  53 2.48  75 2.55  59 2.60  47 2.62  60 2.68  30 2.73  80 2.74  38 2.75
                            57 2.85  76 2.87  28 2.87  64 2.87
  36  0.198  0.277  0.223-  73 2.54  63 2.54   4 2.68   5 2.68  25 2.70   6 2.71  61 2.76  42 2.81
                            68 2.83  50 2.84  39 2.91  71 2.97
  37  0.694  0.548  0.222-  72 2.55  60 2.56  57 2.60  33 2.62  56 2.63  80 2.66  51 2.69  77 2.70
                            30 2.72  50 2.75  70 2.82  42 2.88
  38  0.211  0.792  0.224-  64 2.58  58 2.59  61 2.62  28 2.63   2 2.65  34 2.67  80 2.70  35 2.75
                            30 2.79  79 2.85  68 3.02  32 3.04
  39  0.456  0.016  0.221-  47 2.49  55 2.60  80 2.62  63 2.64  65 2.65  61 2.65   5 2.69  56 2.69
                            23 2.75  40 2.78  36 2.91  71 3.11
  40  0.686  0.047  0.215-  46 2.52  69 2.55  55 2.59  23 2.70  71 2.71  41 2.74  39 2.78   1 2.79
                            70 2.86  32 2.87  56 2.93  79 2.99
  41  0.785  0.121  0.313-  70 2.55  79 2.58  40 2.74  13 2.77   8 2.78  21 2.80  22 2.80  26 2.82
                             2 2.83  23 2.84  77 2.87   1 2.87
  42  0.943  0.286  0.222-  49 2.49  72 2.55  70 2.65  26 2.67  79 2.67  73 2.68  77 2.70   4 2.70
                            50 2.78  36 2.81  37 2.88  61 3.01
  43  0.787  0.882  0.049-  55 2.41  69 2.50   7 2.54  44 2.64  24 2.70  66 2.72  45 2.88  67 2.95

  44  0.036  0.851  0.047-  45 2.41  69 2.53  64 2.55  28 2.59  43 2.64  75 2.68  59 3.07  27 3.11

  45  0.048  0.630  0.044-  44 2.41  75 2.46  64 2.49  25 2.58   7 2.59  54 2.82  43 2.88
  46  0.621  0.226  0.132-  70 2.50  62 2.51  57 2.51  40 2.52  24 2.53  66 2.58  76 2.58  71 2.59
                            49 2.65  69 2.81  63 2.90
  47  0.371  0.944  0.131-  59 2.38  52 2.40  39 2.49  67 2.54  61 2.56  35 2.62  80 2.62  60 2.68
                            73 2.76  55 2.77  28 2.79
  48  0.994  0.372  0.045-  72 2.33  78 2.48  74 2.51  25 2.53  27 2.54  73 2.62
  49  0.863  0.212  0.131-  78 2.43  42 2.49  66 2.56  70 2.57  27 2.59  79 2.61  72 2.63  69 2.64
                            46 2.65  57 2.68  28 2.84  73 2.86
  50  0.946  0.532  0.224-   3 2.60   4 2.61  33 2.62  72 2.64   7 2.65  37 2.75  25 2.75  56 2.78
                            42 2.78  36 2.84  32 2.87  68 2.92
  51  0.537  0.619  0.323-  18 2.60  80 2.64  19 2.65  65 2.67  31 2.68  37 2.69  77 2.69  22 2.70
[...]

 FORCES acting on ions
    electron-ion (+dipol)            ewald-force                    non-local-force                 convergence-correction
   -.714E+02 -.169E+00 -.131E+04   0.705E+02 -.759E-01 0.131E+04   0.849E+00 0.309E+00 0.152E+01   -.732E-01 -.427E-01 0.466E-01
   0.494E+02 0.322E+02 -.133E+04   -.489E+02 -.319E+02 0.133E+04   -.466E+00 -.259E+00 0.152E+01   -.317E-01 -.948E-01 0.160E+00
   0.138E+02 -.270E+02 -.129E+04   -.140E+02 0.264E+02 0.129E+04   0.288E+00 0.559E+00 0.215E+01   0.751E-03 0.159E-01 0.133E+00
   -.417E+02 0.578E+00 -.135E+04   0.410E+02 0.643E-01 0.135E+04   0.643E+00 -.694E+00 0.162E+01   0.797E-01 0.420E-01 0.137E+00
   0.578E-01 -.812E+02 -.138E+04   -.722E+00 0.801E+02 0.137E+04   0.577E+00 0.114E+01 0.175E+01   0.749E-01 -.824E-02 0.117E+00
   0.524E+02 0.359E+01 -.140E+04   -.521E+02 -.362E+01 0.140E+04   -.247E+00 0.248E-01 0.167E+01   0.167E-01 0.885E-02 0.137E+00
   -.122E+03 -.440E+01 0.153E+04   0.121E+03 0.501E+01 -.154E+04   0.991E+00 -.723E+00 0.687E+00   -.159E+00 0.983E-01 0.126E+00
   -.219E+02 -.707E+01 -.263E+04   0.217E+02 0.678E+01 0.263E+04   0.257E+00 0.325E+00 -.110E+00   -.203E-01 -.339E-01 0.291E-01
   -.101E+02 0.482E+01 -.266E+04   0.989E+01 -.450E+01 0.266E+04   0.209E+00 -.343E+00 0.155E+01   0.395E-01 0.184E-01 0.149E-01
   0.487E+02 -.105E+02 -.267E+04   -.480E+02 0.103E+02 0.267E+04   -.740E+00 0.277E+00 0.233E+01   0.402E-02 -.405E-01 0.511E-01
   -.351E+02 0.680E+01 -.270E+04   0.351E+02 -.717E+01 0.270E+04   -.152E-01 0.338E+00 0.187E+01   0.399E-01 0.424E-01 0.546E-01
   0.168E+02 -.496E+02 -.271E+04   -.170E+02 0.493E+02 0.271E+04   0.136E+00 0.341E+00 0.206E+01   0.205E-01 -.108E-01 0.151E-01
   -.590E+01 0.406E+02 -.266E+04   0.560E+01 -.404E+02 0.266E+04   0.304E+00 -.185E+00 0.167E+01   -.110E-01 -.184E-01 0.845E-01
   -.911E+01 -.541E+01 -.269E+04   0.892E+01 0.550E+01 0.268E+04   0.174E+00 -.847E-01 0.167E+01   0.417E-01 0.719E-02 0.475E-01
   -.519E+02 -.348E+02 -.267E+04   0.509E+02 0.344E+02 0.267E+04   0.986E+00 0.308E+00 0.186E+01   -.923E-02 -.393E-02 -.587E-02
   -.318E+02 0.137E+02 -.265E+04   0.316E+02 -.134E+02 0.265E+04   0.183E+00 -.345E+00 -.546E-01   0.161E-01 0.186E-02 -.356E-02
   0.650E+01 -.270E+02 -.269E+04   -.619E+01 0.265E+02 0.269E+04   -.336E+00 0.531E+00 0.179E+01   0.982E-02 0.200E-01 0.100E-01
   0.521E+02 0.176E+02 -.269E+04   -.513E+02 -.171E+02 0.269E+04   -.846E+00 -.426E+00 0.204E+01   -.138E-01 -.264E-01 0.735E-02
   0.333E+02 0.236E+02 -.272E+04   -.324E+02 -.230E+02 0.272E+04   -.851E+00 -.655E+00 0.213E+01   -.507E-01 0.440E-01 0.448E-01
   0.242E+02 -.173E+02 -.265E+04   -.232E+02 0.164E+02 0.265E+04   -.106E+01 0.856E+00 0.188E+01   0.367E-02 -.410E-01 0.152E-01
   0.966E+01 0.249E+02 -.268E+04   -.936E+01 -.242E+02 0.267E+04   -.268E+00 -.726E+00 0.194E+01   -.464E-01 0.436E-02 0.309E-01
   0.483E+02 0.212E+01 -.142E+04   -.467E+02 -.148E+01 0.142E+04   -.143E+01 -.694E+00 0.141E+01   -.768E-01 0.328E-01 0.123E+00
   -.618E+01 0.146E+02 -.135E+04   0.597E+01 -.144E+02 0.135E+04   0.195E+00 -.153E+00 0.110E+01   -.281E-01 -.266E-01 0.933E-01
   0.819E+02 0.607E+02 0.270E+04   -.817E+02 -.608E+02 -.270E+04   -.302E+00 0.939E-01 -.265E+01   -.117E-01 -.646E-01 0.128E-01
   0.524E+02 -.339E+02 0.159E+04   -.530E+02 0.338E+02 -.160E+04   0.643E+00 0.158E+00 0.143E+01   0.783E-02 0.726E-02 0.932E-01
   -.132E+02 -.169E+02 -.135E+04   0.132E+02 0.165E+02 0.135E+04   -.141E-01 0.412E+00 0.185E+01   0.536E-01 -.202E-01 0.181E+00
   -.787E+02 0.857E+02 0.283E+04   0.795E+02 -.844E+02 -.283E+04   -.640E+00 -.135E+01 -.294E+01   -.347E-01 -.627E-02 -.581E-01
   -.144E+02 0.277E+02 0.149E+04   0.140E+02 -.275E+02 -.149E+04   0.308E+00 -.849E-01 -.333E+00   -.210E-02 -.713E-01 0.999E-02
   0.129E+02 0.600E+01 -.269E+04   -.134E+02 -.608E+01 0.269E+04   0.470E+00 0.631E-01 0.175E+01   -.240E-01 0.141E-01 0.934E-02
   0.105E+02 -.778E+02 0.769E+01   -.102E+02 0.770E+02 -.830E+01   -.361E+00 0.659E+00 0.436E+00   0.244E-01 0.591E-01 0.141E+00
   -.308E+02 0.132E+02 -.273E+04   0.301E+02 -.135E+02 0.273E+04   0.833E+00 0.247E+00 0.196E+01   -.693E-02 0.205E-01 -.868E-02
   0.237E+02 0.308E+02 0.958E+02   -.243E+02 -.315E+02 -.961E+02   0.734E+00 0.722E+00 0.198E+00   -.117E+00 -.290E-01 0.107E+00
   -.857E+02 0.233E+02 -.136E+04   0.850E+02 -.231E+02 0.136E+04   0.734E+00 -.379E+00 0.213E+01   0.877E-03 0.122E+00 0.455E-01
   0.478E+02 -.135E+02 -.137E+04   -.467E+02 0.141E+02 0.137E+04   -.109E+01 -.641E+00 0.138E+01   0.211E-03 -.200E-01 0.139E+00
   0.412E+02 -.782E+02 0.159E+04   -.399E+02 0.782E+02 -.159E+04   -.142E+01 -.717E-02 0.138E+01   0.107E+00 -.838E-02 0.817E-01
   0.404E+02 -.305E+02 0.195E+01   -.408E+02 0.305E+02 -.266E+01   0.428E+00 0.223E-01 0.582E+00   0.714E-01 0.201E-02 0.140E+00
   -.512E+02 -.479E+01 0.505E+01   0.516E+02 0.581E+01 -.591E+01   -.379E+00 -.132E+01 0.746E+00   0.100E-01 0.208E+00 0.546E-01
   0.544E+02 -.374E+01 0.265E+02   -.535E+02 0.493E+01 -.264E+02   -.104E+01 -.110E+01 -.171E+00   0.400E-01 -.830E-01 0.118E+00
   -.321E+02 -.605E+02 0.875E+02   0.310E+02 0.590E+02 -.891E+02   0.104E+01 0.168E+01 0.154E+01   0.843E-01 -.114E+00 0.891E-01
   0.152E+02 0.791E+02 0.136E+03   -.154E+02 -.781E+02 -.138E+03   0.378E+00 -.952E+00 0.170E+01   -.122E+00 -.105E+00 0.973E-01
   0.195E+02 0.727E+02 -.134E+04   -.190E+02 -.726E+02 0.134E+04   -.314E+00 -.626E-01 0.121E+01   -.103E+00 -.338E-01 0.152E+00
   -.107E+03 0.966E+00 0.263E+02   0.106E+03 -.119E+01 -.276E+02   0.934E+00 0.955E-01 0.127E+01   0.393E-01 0.704E-01 0.104E+00
   -.796E+00 0.745E+02 0.220E+04   0.197E+01 -.741E+02 -.220E+04   -.117E+01 -.474E+00 -.367E+01   -.564E-01 0.101E-01 0.417E-01
   -.187E+02 -.162E+02 0.222E+04   0.171E+02 0.144E+02 -.222E+04   0.174E+01 0.194E+01 -.307E+01   -.113E-01 0.293E-01 -.795E-03
   0.122E+03 0.272E+02 0.225E+04   -.120E+03 -.260E+02 -.224E+04   -.200E+01 -.133E+01 -.399E+01   -.131E-01 0.358E-01 0.807E-02
   0.422E+02 0.107E+03 0.112E+04   -.417E+02 -.107E+03 -.112E+04   -.589E+00 -.253E+00 -.668E+00   -.410E-01 -.381E-01 0.342E-01
   0.901E+01 -.402E+02 0.114E+04   -.896E+01 0.401E+02 -.114E+04   -.215E+00 0.162E+00 -.550E+00   0.122E+00 -.837E-01 0.739E-01
   -.212E+03 0.609E+01 0.225E+04   0.209E+03 -.637E+01 -.224E+04   0.271E+01 0.207E+00 -.348E+01   -.249E-01 0.270E-01 -.289E-01
   -.616E+02 0.688E+02 0.113E+04   0.614E+02 -.678E+02 -.113E+04   0.328E+00 -.108E+01 -.676E+00   -.243E-01 0.124E-01 -.126E-01
   -.551E+02 -.113E+02 0.328E+02   0.545E+02 0.111E+02 -.323E+02   0.614E+00 -.521E-02 -.677E+00   -.219E-01 0.942E-01 0.944E-01
   0.240E+02 0.920E+01 -.113E+04   -.239E+02 -.943E+01 0.113E+04   -.406E-01 0.102E+00 -.246E+00   -.850E-02 0.566E-01 0.611E-01
   -.290E+02 -.104E+03 0.220E+04   0.283E+02 0.102E+03 -.220E+04   0.716E+00 0.260E+01 -.312E+01   0.587E-01 -.211E-01 -.377E-02
   0.105E+03 -.140E+03 0.252E+04   -.104E+03 0.139E+03 -.252E+04   -.129E+01 0.101E+01 -.304E+01   0.711E-01 0.562E-01 0.348E-01
   0.201E+03 0.809E+02 0.252E+04   -.200E+03 -.796E+02 -.252E+04   -.118E+01 -.137E+01 -.301E+01   0.279E-01 -.345E-01 -.118E-01
   -.508E+02 -.583E+02 0.131E+04   0.506E+02 0.578E+02 -.131E+04   0.229E+00 0.643E+00 -.550E+00   -.527E-01 -.113E+00 0.115E+00
   -.103E+03 -.276E+01 0.388E+02   0.103E+03 0.249E+01 -.391E+02   0.276E+00 0.280E+00 0.147E+00   -.567E-01 0.222E-01 0.316E-01
   -.204E+01 -.462E+02 0.122E+04   0.220E+01 0.454E+02 -.122E+04   -.200E+00 0.786E+00 -.438E+00   0.238E-01 0.103E+00 0.327E-01
   0.533E+02 0.305E+01 -.125E+04   -.532E+02 -.300E+01 0.125E+04   -.265E+00 0.373E-01 0.386E+00   0.571E-01 -.647E-01 0.997E-01
   0.710E+02 0.478E+02 0.255E+04   -.703E+02 -.459E+02 -.254E+04   -.727E+00 -.189E+01 -.407E+01   0.435E-01 -.340E-01 -.426E-02
   -.645E+01 -.355E+02 0.127E+04   0.658E+01 0.358E+02 -.127E+04   -.230E+00 -.358E+00 -.427E+00   0.557E-01 0.677E-01 0.970E-01
[...]
   0.125E+03 -.526E+02 0.278E+02   -.125E+03 0.519E+02 -.274E+02   -.127E+00 0.793E+00 -.672E+00   0.224E-02 0.867E-02 0.168E+00
   0.399E+02 0.113E+03 0.157E+04   -.396E+02 -.113E+03 -.157E+04   -.281E+00 -.693E+00 -.130E+01   -.105E+00 -.789E-01 0.648E-02
   -.150E+02 0.429E+02 -.214E+02   0.157E+02 -.432E+02 0.211E+02   -.570E+00 0.409E+00 0.570E-01   -.840E-01 0.505E-01 0.125E+00
   0.504E+02 0.754E+02 -.337E+02   -.499E+02 -.748E+02 0.336E+02   -.509E+00 -.605E+00 -.126E+00   -.368E-01 -.330E-01 0.171E+00
   -.149E+03 -.675E+01 0.134E+04   0.149E+03 0.652E+01 -.134E+04   0.762E+00 0.125E+00 -.931E+00   -.367E-01 0.151E+00 0.411E-01
   -.218E+02 -.116E+02 0.146E+04   0.221E+02 0.114E+02 -.146E+04   -.481E+00 0.267E+00 -.755E+00   0.602E-01 -.405E-02 0.452E-01
   -.204E+03 -.116E+03 0.285E+04   0.204E+03 0.114E+03 -.285E+04   0.583E+00 0.137E+01 -.255E+01   -.788E-01 0.979E-01 0.513E-01
   -.194E+02 -.126E+03 0.282E+04   0.174E+02 0.126E+03 -.282E+04   0.196E+01 0.243E+00 -.164E+01   0.573E-01 0.158E-01 -.670E-02
   0.627E+02 -.392E+02 0.140E+04   -.619E+02 0.389E+02 -.140E+04   -.863E+00 0.322E+00 -.563E+00   0.257E-02 0.153E-01 0.698E-01
   -.544E+02 0.172E+02 -.140E+04   0.541E+02 -.170E+02 0.140E+04   0.391E+00 -.324E+00 -.432E-01   -.221E-01 0.777E-01 0.118E+00
   -.597E+02 0.503E+02 0.281E+04   0.601E+02 -.497E+02 -.281E+04   -.317E+00 -.637E+00 -.126E+01   -.261E-01 0.547E-01 -.557E-01
   -.992E+01 0.606E+02 0.179E+02   0.103E+02 -.602E+02 -.177E+02   -.341E+00 -.417E+00 -.294E+00   -.498E-01 -.567E-01 0.994E-01
   0.395E+02 0.667E+01 0.975E+01   -.394E+02 -.642E+01 -.967E+01   -.349E+00 -.296E+00 -.313E+00   0.143E+00 -.369E-01 0.677E-01
   -.262E+01 -.776E+00 -.318E+03   0.262E+01 0.711E+00 0.320E+03   0.361E-01 0.588E-01 -.173E+01   -.897E-04 -.223E-02 -.455E-02
   -.386E+00 -.711E-01 0.115E+01   -.272E-12 0.297E-12 0.983E-11   0.322E+00 0.239E-02 -.599E+01   0.660E-01 0.922E-01 0.485E+01

 POSITION                                       TOTAL-FORCE (eV/Angst)
     13.59902      8.44997      6.94047        -0.009474      0.002076     -0.003035
      5.27070      8.45121      6.93984         0.001550     -0.006978      0.003649
      3.86294      5.99265      6.88751        -0.004640      0.008356      0.001118
      2.39876      3.61037      7.01038        -0.002768      0.002356     -0.005003
      3.85063      1.04014      7.00878        -0.008817     -0.006495     -0.000433
      5.28461      3.57491      6.97628        -0.001058     -0.004386      0.003413
     13.51950      6.69208      2.75694        -0.012087     -0.016928      0.004524
     15.07394      9.29919      9.20690        -0.004920      0.011643     -0.006397
      3.86021      4.40891      9.22542        -0.012733      0.006868     -0.006681
      6.72787      9.22174      9.16866         0.003069     -0.006909      0.010017
     12.28283      4.37699      9.25365         0.007176      0.018441      0.004341
      9.47797      9.18661      9.20116         0.002049      0.004044     -0.004821
     10.87614      1.98646      9.14369        -0.011761      0.000370     -0.009137
      2.45104      1.95592      9.24298         0.005627      0.007472     -0.003575
     12.20955      9.21976      9.17812        -0.010762      0.007276      0.001673
     13.67141      6.80927      9.28362        -0.005513      0.000783     -0.014523
      5.27856      1.91972      9.23886        -0.006428     -0.003509     -0.000763
      8.12941      6.83650      9.19979         0.004174      0.003649      0.002118
      9.54114      4.43442      9.22424         0.007039      0.004372     -0.009881
      5.30929      6.78397      9.19628        -0.011248     -0.012419      0.013860
      8.09296      2.01324      9.17578         0.007771     -0.008955     -0.008779
      8.18784      3.64984      6.98360        -0.006519      0.007770      0.015555
      6.64838      1.17950      6.96348         0.000576     -0.000964     -0.004170
      6.78185      1.16816      1.10976        -0.017532      0.000639     -0.011106
      3.74327      4.26289      2.71491         0.022323      0.009350      0.010474
      1.07764      1.10498      6.94433        -0.000993      0.011187      0.003794
      1.01575      1.28649      0.81183         0.012209     -0.004840      0.021514
      6.67142      9.31568      2.85544        -0.003192      0.017728     -0.020919
      6.66429      4.38954      9.23202        -0.004675      0.008088     -0.003257
      8.14285      5.24496      4.86976        -0.014574     -0.004228     -0.035811
     10.84812      6.81468      9.25296         0.009488     -0.008684     -0.000005
     14.99686      7.68362      4.79411        -0.010722     -0.011639      0.021138
     12.24216      6.05796      7.00141         0.009902      0.000056      0.011478
      6.73719      6.03265      6.98538        -0.007601     -0.012821      0.005791
      8.20780      6.89173      2.69128        -0.022450      0.008974     -0.000372
      3.77766      2.69345      4.90572        -0.002989      0.004281     -0.037272
     10.86552      5.33036      4.88657        -0.020847     -0.026877     -0.065332
      6.80891      7.69639      4.91949        -0.012999      0.009339      0.000960
      5.20720      0.16029      4.85410         0.002533     -0.001028      0.006980
      7.96508      0.45571      4.72390         0.011548     -0.015677      0.024504
      9.48025      1.17124      6.89405         0.012374     -0.017175      0.025616
     12.19222      2.77766      4.87496         0.004295      0.005040      0.031155
     13.78001      8.57392      1.07376        -0.009378     -0.015430     -0.006427
      5.17612      8.26819      1.02395         0.019587      0.006459     -0.007638
      4.07688      6.12594      0.96722         0.018986      0.012047      0.014083
      8.23477      2.19285      2.91186        -0.001003     -0.003071      0.020970
      9.46232      9.17873      2.88867        -0.006665      0.013668     -0.007963
     13.23829      3.61532      0.98546         0.002122     -0.010987      0.005376
     10.87798      2.06279      2.87872        -0.008828     -0.012035      0.008402
     13.60649      5.17210      4.92826        -0.002507      0.012071      0.013877
      9.49520      6.02007      7.10621         0.004049     -0.003889     -0.001911
      3.91652      1.06390      1.10530         0.008681      0.005203      0.033894
      9.69052      5.79723      1.02825        -0.023127      0.002126     -0.015454
      5.55996      3.72993      1.09992        -0.004488     -0.036317     -0.008470
     12.22782      8.97667      2.86865         0.002042      0.000149      0.002407
     12.22062      7.58099      4.89646         0.010610      0.004572      0.044151
      9.50033      4.35926      2.89266         0.015737      0.007734     -0.025168
      8.10320      8.43065      7.02930         0.002318     -0.008116      0.014119
      8.20297      8.78072      0.90411         0.018873      0.004637     -0.011701
     10.87946      6.90186      2.86164        -0.027164      0.004482      0.000936
[...]
     10.84088      8.41789      0.89812        -0.018679      0.011544     -0.004838
      5.29878      5.08233      4.87221         0.008139      0.023446     -0.024152
     15.21969      9.46320      2.91158         0.012112      0.001866      0.013463
      9.54798      2.83243      4.93973         0.019862      0.015090     -0.040534
      6.74099      2.86414      4.91726         0.023349     -0.010753     -0.001212
     12.12718      4.37157      2.88927         0.003994     -0.009675      0.001298
      2.50652      1.86558      2.87455        -0.004821      0.013719     -0.009995
     12.02738      5.81407      0.92547        -0.022546     -0.001207      0.003909
      6.52756      5.95530      1.01982        -0.004853     -0.039077     -0.000648
      6.84854      4.37406      2.90086        -0.014223     -0.012236      0.007727
     10.85816      3.69565      7.03852         0.009981      0.005836      0.000393
     10.75754      3.55271      0.95995        -0.001622      0.007767     -0.010555
     10.94499      0.41654      4.90182        -0.001014      0.000893     -0.005096
      9.50574      7.61774      4.99769        -0.006703     -0.005288     -0.003779
     14.40810      8.08520     10.26344         0.042655     -0.007631      0.024844
    total drift:                                0.001120      0.023445      0.013677

  FREE ENERGIE OF THE ION-ELECTRON SYSTEM (eV)
  free  energy   TOTEN  =      -507.89346958 eV

  energy  without entropy=     -507.89106363  energy(sigma->0) =     -507.89266760

 d Force = 0.1901387E-03[ 0.119E-03, 0.261E-03]  d Energy = 0.2315188E-04 0.167E-03
 d Force = 0.4865675E+00[ 0.485E+00, 0.488E+00]  d Ewald  = 0.4865699E+00-0.233E-05

 reached required accuracy - stopping structural energy minimisation