 vasp.5.4.4.18Apr17-6-g9f103f2a35 (build Nov 30 2020 22:55:02) complex

 executed on             LinuxIFC date 2021.11.22  18:01:19

 INCAR:
 POTCAR:    PAW_PBE Pt 04Feb2005
 POTCAR:    PAW_PBE Fe 06Sep2000
 POTCAR:    PAW_PBE Co 02Aug2007
 POTCAR:    PAW_PBE Cu 22Jun2005
 POTCAR:    PAW_PBE Ni 02Aug2007
 POTCAR:    PAW_PBE H 15Jun2001
 POTCAR:    PAW_PBE Pt 04Feb2005
   VRHFIN =Pt: s1d9

   TITEL  = PAW_PBE Pt 04Feb2005
   POMASS =  195.080; ZVAL   =   10.000    mass and valenz
   ENMAX  =  230.283; ENMIN  =  172.712 eV

 POTCAR:    PAW_PBE Fe 06Sep2000
   VRHFIN =Fe:  d7 s1

   TITEL  = PAW_PBE Fe 06Sep2000
   POMASS =   55.847; ZVAL   =    8.000    mass and valenz
   ENMAX  =  267.882; ENMIN  =  200.911 eV

 POTCAR:    PAW_PBE Co 02Aug2007
   VRHFIN =Co: d8 s1

   TITEL  = PAW_PBE Co 02Aug2007
   POMASS =   58.933; ZVAL   =    9.000    mass and valenz
   ENMAX  =  267.968; ENMIN  =  200.976 eV

 POTCAR:    PAW_PBE Cu 22Jun2005
   VRHFIN =Cu: d10 p1

   TITEL  = PAW_PBE Cu 22Jun2005
   POMASS =   63.546; ZVAL   =   11.000    mass and valenz
   ENMAX  =  295.446; ENMIN  =  221.585 eV

 POTCAR:    PAW_PBE Ni 02Aug2007
   VRHFIN =Ni:

   TITEL  = PAW_PBE Ni 02Aug2007
   POMASS =   58.690; ZVAL   =   10.000    mass and valenz
   ENMAX  =  269.532; ENMIN  =  202.149 eV

 POTCAR:    PAW_PBE H 15Jun2001
   VRHFIN =H: ultrasoft test

   TITEL  = PAW_PBE H 15Jun2001
   POMASS =    1.000; ZVAL   =    1.000    mass and valenz
   ENMAX  =  250.000; ENMIN  =  200.000 eV

 Optimization of the real space projectors (new method)

 maximal supplied QI-value         = 14.36
 optimisation between [QCUT,QGAM] = [ 11.92, 23.98] = [ 39.79,161.09] Ry
 Optimized for a Real-space Cutoff    1.49 Angstroem

   l    n(q)    QCUT    max X(q) W(low)/X(q) W(high)/X(q)  e(spline)
   2     10    11.920    66.195    0.79E-04    0.18E-03    0.24E-06
   2     10    11.920    64.643    0.81E-04    0.19E-03    0.24E-06
   0     11    11.920    95.520    0.28E-04    0.54E-04    0.18E-06
   0     11    11.920    63.403    0.27E-04    0.52E-04    0.17E-06
   1     10    11.920    19.961    0.18E-04    0.11E-03    0.23E-06
   1     10    11.920    13.289    0.25E-04    0.87E-04    0.19E-06
 Optimization of the real space projectors (new method)

[...]

   l    n(q)    QCUT    max X(q) W(low)/X(q) W(high)/X(q)  e(spline)
   2      9    11.864    60.317    0.21E-03    0.51E-03    0.25E-06
   2      9    11.864    55.921    0.21E-03    0.51E-03    0.26E-06
   0      9    11.864    51.690    0.22E-03    0.30E-04    0.17E-06
   0      9    11.864    30.015    0.20E-03    0.28E-04    0.15E-06
   1      9    11.864    18.849    0.76E-04    0.33E-03    0.17E-06
   1      9    11.864    14.624    0.60E-04    0.28E-03    0.15E-06
 Optimization of the real space projectors (new method)

 maximal supplied QI-value         = 34.20
 optimisation between [QCUT,QGAM] = [ 11.97, 23.94] = [ 40.13,160.53] Ry
 Optimized for a Real-space Cutoff    1.18 Angstroem

   l    n(q)    QCUT    max X(q) W(low)/X(q) W(high)/X(q)  e(spline)
   0      8    11.971    19.460    0.15E-03    0.31E-03    0.25E-06
   0      8    11.971    12.209    0.13E-03    0.29E-03    0.25E-06
   1      8    11.971     4.655    0.22E-03    0.24E-03    0.21E-06
  PAW_PBE Pt 04Feb2005                  :
  PAW_PBE Fe 06Sep2000                  :
  PAW_PBE Co 02Aug2007                  :
  PAW_PBE Cu 22Jun2005                  :
  PAW_PBE Ni 02Aug2007                  :
  PAW_PBE H 15Jun2001                   :

 POSCAR: 10.56
  positions in direct lattice
  velocities in cartesian coordinates
 exchange correlation table for  LEXCH =        8
   RHO(1)=    0.500       N(1)  =     2000
   RHO(2)=  100.500       N(2)  =     4000

 ion  position               nearest neighbor table
   1  0.787  0.878  0.317-  49 2.62  28 2.62  19 2.63  33 2.65  61 2.65  59 2.66  29 2.67  60 2.69
                             2 2.72  11 2.77   4 2.81  12 2.85
   2  0.042  0.883  0.316-  79 2.54  77 2.59  60 2.62  28 2.65  30 2.65  52 2.66  33 2.68  22 2.69
                             1 2.72   6 2.74   4 2.83  16 2.92
   3  0.280  0.380  0.319-  39 2.56  64 2.57  33 2.59  31 2.63  19 2.70  43 2.71  30 2.71  68 2.71
                             5 2.78  13 2.80  18 2.81  25 2.86
   4  0.875  0.961  0.424-   9 2.61  17 2.64   6 2.64  12 2.64  16 2.64  11 2.64  60 2.80   1 2.81
                             2 2.83
   5  0.123  0.463  0.428-  16 2.62  12 2.63  25 2.64   7 2.65  10 2.66  13 2.67  33 2.72  39 2.72
                             3 2.78
   6  0.126  0.959  0.421-  14 2.62  16 2.63   8 2.63   4 2.64   9 2.66  10 2.66   2 2.74  52 2.76
                            22 2.86
   7  0.873  0.464  0.430-  81 1.77  12 2.62  27 2.64  15 2.64   5 2.65   9 2.69  10 2.70  39 2.74
                            29 2.82  75 2.83
   8  0.375  0.960  0.420-  43 2.60  14 2.61  27 2.61  10 2.61   6 2.63  13 2.64  11 2.65  52 2.69
                            61 2.72
   9  0.873  0.209  0.423-  81 1.85   4 2.61  17 2.61  15 2.66   6 2.66   7 2.69  10 2.71  75 2.73
                            60 2.75  22 2.86
  10  0.129  0.209  0.424-  81 1.97  13 2.60   8 2.61   5 2.66   6 2.66  39 2.69   7 2.70   9 2.71
                            43 2.75  22 2.82
  11  0.625  0.961  0.424-  13 2.63  12 2.63  27 2.64  17 2.64   4 2.64   8 2.65   1 2.77  19 2.82
                            61 2.84
  12  0.874  0.712  0.427-   7 2.62   5 2.63  11 2.63  16 2.64   4 2.64  27 2.66  33 2.70  29 2.83
                             1 2.85
  13  0.375  0.209  0.425-  10 2.60  11 2.63   8 2.64  17 2.64  25 2.66   5 2.67  43 2.78   3 2.80
                            19 2.82
  14  0.376  0.712  0.424-  27 2.60   8 2.61   6 2.62  15 2.63  16 2.66  25 2.66  44 2.71  30 2.77
                            52 2.78
  15  0.623  0.463  0.422-  14 2.63  27 2.63  25 2.64   7 2.64   9 2.66  17 2.66  44 2.68  75 2.71
                            18 2.74
  16  0.125  0.711  0.427-   5 2.62   6 2.63  12 2.64  25 2.64   4 2.64  14 2.66  33 2.69  30 2.83
                             2 2.92
  17  0.625  0.210  0.422-   9 2.61   4 2.64  11 2.64  13 2.64  25 2.64  15 2.66  18 2.77  60 2.78
                            19 2.86
  18  0.548  0.375  0.317-  67 2.56  60 2.59  75 2.61  68 2.65  44 2.65  26 2.66  30 2.71  19 2.72
                            15 2.74  17 2.77   3 2.81  25 2.89
  19  0.535  0.124  0.315-  80 2.55  43 2.57  68 2.58  59 2.60   1 2.63  61 2.64   3 2.70  18 2.72
                            60 2.76  11 2.82  13 2.82  17 2.86
  20  0.547  0.124  0.040-  37 2.55  57 2.56  48 2.58  62 2.64  63 2.68  47 2.68  45 2.68  56 2.70
                            34 2.71
  21  0.121  0.460  0.128-  40 2.52  36 2.53  47 2.53  42 2.60  69 2.61  64 2.62  70 2.64  50 2.64
                            58 2.67  31 2.70  57 2.71  74 2.72
  22  0.043  0.137  0.315-  65 2.52  55 2.54  39 2.56  43 2.58  77 2.58  75 2.59  60 2.68   2 2.69
                            52 2.73  10 2.82   6 2.86   9 2.86  31 3.39
  23  0.042  0.130  0.033-  70 2.58  40 2.60  41 2.61  45 2.62  62 2.64  76 2.64  24 2.69  35 2.73
                            53 2.78
  24  0.130  0.958  0.132-  79 2.51  77 2.54  35 2.57  53 2.57  55 2.58  70 2.62  38 2.64  58 2.64
                            73 2.65  23 2.69  66 2.70  41 2.72
  25  0.375  0.461  0.427-  15 2.64  17 2.64  16 2.64   5 2.64  13 2.66  14 2.66  30 2.85   3 2.86
                            18 2.89
  26  0.455  0.546  0.219-  73 2.50  74 2.54  51 2.56  79 2.61  64 2.63  30 2.65  18 2.66  68 2.67
                            78 2.67  32 2.68  67 2.72  44 2.75
  27  0.622  0.712  0.424-  14 2.60   8 2.61  15 2.63  11 2.64   7 2.64  12 2.66  44 2.70  61 2.77
                            29 2.79
  28  0.956  0.790  0.221-  58 2.57  66 2.57  50 2.58  42 2.59  49 2.61   1 2.62  64 2.63   2 2.65
                            59 2.70  33 2.73  79 2.76  77 2.77
  29  0.795  0.621  0.320-  39 2.54  42 2.56  75 2.57  32 2.62  44 2.64  33 2.65   1 2.67  61 2.68
                            49 2.71  27 2.79   7 2.82  12 2.83
  30  0.292  0.631  0.319-  79 2.57  64 2.61  52 2.61  44 2.62   2 2.65  26 2.65  33 2.66  18 2.71
                             3 2.71  14 2.77  16 2.83  25 2.85
  31  0.203  0.281  0.225-  70 2.52  55 2.56  65 2.57  43 2.59  57 2.60   3 2.63  39 2.69  80 2.70
                            21 2.70  42 2.71  68 2.75  64 2.79  22 3.39
  32  0.706  0.549  0.221-  54 2.53  69 2.56  51 2.58  49 2.59  42 2.60  29 2.62  78 2.62  65 2.63
                            26 2.68  44 2.69  67 2.70  75 2.71
  33  0.041  0.630  0.326-   3 2.59  39 2.64  29 2.65   1 2.65  30 2.66   2 2.68  16 2.69  12 2.70
                            64 2.70   5 2.72  28 2.73  42 2.73
  34  0.797  0.862  0.042-  50 2.38  66 2.51  48 2.53  36 2.55  71 2.56  63 2.61  20 2.71  35 2.76
                            62 2.76
  35  0.056  0.866  0.038-  58 2.54  72 2.55  36 2.56  24 2.57  66 2.62  53 2.65  23 2.73  62 2.73
                            34 2.76
  36  0.046  0.628  0.037-  21 2.53  34 2.55  35 2.56  58 2.58  50 2.61  47 2.63  72 2.64  40 2.69
                            71 2.72
  37  0.627  0.222  0.129-  51 2.51  74 2.51  67 2.52  56 2.53  41 2.55  20 2.55  68 2.56  59 2.56
                            62 2.59  66 2.66  57 2.73  48 2.89
  38  0.382  0.955  0.130-  53 2.47  80 2.48  45 2.49  78 2.53  48 2.54  73 2.55  63 2.55  54 2.56
                            55 2.59  57 2.62  24 2.64  70 2.67
  39  0.036  0.382  0.326-  29 2.54   3 2.56  22 2.56  75 2.59  33 2.64  10 2.69  31 2.69  42 2.69
                             5 2.72   7 2.74  65 2.78  43 2.78
  40  0.031  0.382  0.038-  69 2.44  21 2.52  71 2.53  76 2.56  70 2.57  23 2.60  36 2.69  45 2.78
                            47 2.78
  41  0.872  0.215  0.128-  76 2.45  65 2.52  77 2.53  67 2.54  37 2.55  69 2.57  62 2.57  51 2.59
                            23 2.61  70 2.65  66 2.66  24 2.72
  42  0.955  0.545  0.224-  50 2.56  29 2.56  28 2.59  21 2.60  32 2.60  69 2.61  49 2.63  65 2.64
                            64 2.65  39 2.69  31 2.71  33 2.73
  43  0.297  0.116  0.321-  55 2.53  52 2.53  61 2.56  19 2.57  22 2.58  31 2.59   8 2.60  80 2.65
                             3 2.71  10 2.75  13 2.78  39 2.78
  44  0.540  0.630  0.322-  61 2.55  52 2.58  30 2.62  78 2.63  29 2.64  18 2.65  75 2.67  15 2.68
                            32 2.69  27 2.70  14 2.71  26 2.75
  45  0.295  0.119  0.039-  70 2.49  38 2.49  57 2.57  53 2.60  23 2.62  63 2.64  20 2.68  47 2.75
                            40 2.78
  46  0.548  0.625  0.044-  51 2.38  73 2.39  54 2.41  71 2.56  53 2.56  63 2.58  76 2.59  56 2.62
                            72 2.64
  47  0.296  0.379  0.039-  74 2.41  21 2.53  57 2.61  72 2.61  56 2.62  36 2.63  20 2.68  45 2.75
                            40 2.78
  48  0.625  0.950  0.132-  49 2.40  80 2.48  54 2.48  34 2.53  38 2.54  59 2.55  50 2.56  63 2.57
                            20 2.58  57 2.65  66 2.68  37 2.89
  49  0.706  0.794  0.220-  48 2.40  50 2.48  54 2.49  80 2.53  32 2.59  28 2.61  78 2.61   1 2.62
                            61 2.62  42 2.63  59 2.69  29 2.71
  50  0.866  0.706  0.129-  34 2.38  71 2.42  54 2.48  49 2.48  42 2.56  48 2.56  69 2.58  28 2.58
[...]

  length of vectors
    10.560000420 10.560000420 22.000000000     0.109346638  0.109346638  0.045454545

 FORCES acting on ions
    electron-ion (+dipol)            ewald-force                    non-local-force                 convergence-correction
   -.359E+02 0.803E+02 -.151E+04   0.356E+02 -.806E+02 0.151E+04   0.330E+00 0.319E+00 0.220E+01   0.143E-03 0.675E-04 0.138E-02
   0.222E+02 0.663E+02 -.150E+04   -.217E+02 -.664E+02 0.149E+04   -.491E+00 0.131E+00 0.247E+01   0.548E-03 -.155E-03 0.104E-02
   0.386E+02 -.116E+02 -.154E+04   -.403E+02 0.118E+02 0.154E+04   0.175E+01 -.233E+00 0.205E+01   -.378E-05 -.361E-03 0.150E-02
   -.118E+01 0.277E+02 -.293E+04   0.135E+01 -.275E+02 0.293E+04   -.185E+00 -.153E+00 0.683E+00   0.152E-03 0.381E-03 0.200E-03
   -.970E+01 0.735E+01 -.291E+04   0.951E+01 -.678E+01 0.291E+04   0.192E+00 -.553E+00 0.150E+01   0.596E-03 -.242E-03 0.197E-03
   -.231E+01 0.818E+00 -.290E+04   0.223E+01 -.141E+01 0.290E+04   0.111E+00 0.555E+00 0.903E+00   0.353E-04 0.240E-03 -.176E-04
   -.157E+02 -.200E+02 -.294E+04   0.159E+02 0.201E+02 0.294E+04   -.155E+00 -.136E+00 0.383E+00   -.187E-03 -.420E-03 0.312E-03
   0.101E+02 -.159E+02 -.292E+04   -.104E+02 0.161E+02 0.292E+04   0.346E+00 -.106E+00 0.175E+01   -.421E-04 0.569E-03 -.203E-03
   -.115E+02 0.165E+02 -.293E+04   0.106E+02 -.168E+02 0.293E+04   0.890E+00 0.344E+00 0.620E+00   -.139E-03 -.183E-03 0.193E-03
   -.159E+02 0.371E+01 -.289E+04   0.174E+02 -.412E+01 0.289E+04   -.144E+01 0.435E+00 0.158E+01   0.223E-03 -.485E-03 0.133E-05
   -.477E+01 -.489E+01 -.294E+04   0.510E+01 0.468E+01 0.294E+04   -.363E+00 0.179E+00 0.618E+00   -.149E-03 0.634E-03 0.173E-03
   -.110E+02 -.245E+01 -.292E+04   0.113E+02 0.213E+01 0.292E+04   -.238E+00 0.299E+00 0.102E+01   0.314E-03 0.153E-03 0.966E-04
   0.118E+01 -.175E+02 -.292E+04   -.147E+01 0.172E+02 0.292E+04   0.291E+00 0.269E+00 0.764E+00   0.875E-04 -.369E-04 -.847E-06
   0.212E+02 0.796E+01 -.293E+04   -.208E+02 -.787E+01 0.293E+04   -.394E+00 -.924E-01 0.130E+01   -.251E-03 -.104E-03 0.539E-04
   0.186E+02 -.112E+02 -.291E+04   -.186E+02 0.116E+02 0.291E+04   0.747E-01 -.394E+00 0.130E+01   -.437E-03 -.387E-03 0.254E-03
   -.228E+01 0.336E-01 -.292E+04   0.204E+01 -.430E+00 0.292E+04   0.239E+00 0.384E+00 0.101E+01   0.218E-03 -.122E-03 -.763E-04
   0.296E+02 -.725E+01 -.293E+04   -.295E+02 0.741E+01 0.293E+04   -.712E-01 -.181E+00 0.924E+00   -.161E-03 0.176E-03 0.372E-03
   0.687E+02 -.725E+02 -.153E+04   -.674E+02 0.727E+02 0.153E+04   -.126E+01 -.187E+00 0.177E+01   -.169E-04 0.144E-03 0.178E-02
   0.303E+02 -.417E+02 -.152E+04   -.314E+02 0.413E+02 0.152E+04   0.109E+01 0.394E+00 0.248E+01   -.999E-03 -.161E-03 0.128E-02
   0.334E+02 0.317E+02 0.304E+04   -.335E+02 -.318E+02 -.304E+04   0.121E+00 0.169E+00 -.235E+01   -.247E-03 -.696E-03 -.137E-02
   0.362E+02 -.827E+01 0.160E+04   -.371E+02 0.899E+01 -.160E+04   0.922E+00 -.653E+00 0.872E+00   -.345E-03 -.207E-03 0.774E-04
   -.703E+02 0.541E+01 -.150E+04   0.712E+02 -.459E+01 0.149E+04   -.900E+00 -.826E+00 0.264E+01   0.862E-03 -.615E-03 0.598E-03
   -.542E+02 0.510E+02 0.309E+04   0.548E+02 -.501E+02 -.309E+04   -.697E+00 -.865E+00 -.206E+01   -.483E-03 -.896E-03 0.354E-03
   -.122E+00 -.534E+02 0.159E+04   0.387E+00 0.529E+02 -.159E+04   -.320E+00 0.419E+00 -.815E+00   0.754E-03 0.499E-03 0.449E-03
   0.847E+01 0.388E+00 -.293E+04   -.865E+01 -.321E+00 0.293E+04   0.164E+00 -.729E-01 0.620E+00   0.325E-04 -.304E-03 0.181E-03
   -.235E+02 -.824E+01 0.902E+01   0.234E+02 0.852E+01 -.103E+02   -.104E-01 -.331E+00 0.127E+01   0.495E-03 0.113E-02 0.149E-02
   -.906E+01 0.599E+01 -.293E+04   0.861E+01 -.607E+01 0.293E+04   0.497E+00 0.981E-01 0.122E+01   -.288E-03 0.185E-03 0.127E-03
   0.205E+02 0.664E+02 0.510E+01   -.215E+02 -.676E+02 -.549E+01   0.105E+01 0.109E+01 0.264E+00   0.516E-03 -.149E-03 0.389E-03
   -.661E+02 0.119E+02 -.150E+04   0.664E+02 -.134E+02 0.150E+04   -.353E+00 0.154E+01 0.264E+01   -.265E-03 0.139E-03 0.111E-02
   0.283E+02 0.276E+02 -.155E+04   -.280E+02 -.269E+02 0.155E+04   -.285E+00 -.683E+00 0.236E+01   -.437E-04 0.359E-03 0.116E-02
   0.239E+02 -.657E+02 -.790E+02   -.249E+02 0.651E+02 0.792E+02   0.932E+00 0.559E+00 -.237E+00   -.598E-03 -.207E-02 0.433E-03
   -.257E+02 -.201E+02 0.177E+01   0.265E+02 0.208E+02 -.248E+01   -.813E+00 -.810E+00 0.771E+00   -.455E-03 0.468E-03 0.550E-03
   0.204E+02 0.149E+02 -.125E+04   -.205E+02 -.153E+02 0.125E+04   0.138E+00 0.481E+00 0.478E+00   0.442E-03 0.202E-03 0.973E-03
   -.598E+02 -.262E+01 0.244E+04   0.601E+02 0.133E+01 -.244E+04   -.399E+00 0.132E+01 -.269E+01   0.251E-03 -.527E-03 -.430E-03
   0.306E+02 -.141E+02 0.247E+04   -.305E+02 0.127E+02 -.247E+04   -.471E-01 0.146E+01 -.228E+01   -.194E-03 0.666E-04 -.411E-03
   0.230E+02 -.394E+01 0.247E+04   -.231E+02 0.451E+01 -.247E+04   0.172E+00 -.603E+00 -.285E+01   0.405E-04 0.975E-03 -.349E-03
   0.661E+01 0.519E+02 0.129E+04   -.577E+01 -.512E+02 -.129E+04   -.895E+00 -.713E+00 -.129E+00   0.527E-03 -.381E-03 -.161E-03
   0.336E+02 -.544E+02 0.128E+04   -.335E+02 0.542E+02 -.128E+04   -.122E+00 0.242E+00 -.411E+00   -.387E-03 0.156E-03 0.151E-02
   -.494E+02 -.242E+02 -.125E+04   0.495E+02 0.244E+02 0.125E+04   -.970E-01 -.217E+00 0.803E+00   0.184E-03 -.632E-03 0.812E-03
   -.932E+02 0.205E+02 0.248E+04   0.930E+02 -.202E+02 -.248E+04   0.240E+00 -.259E+00 -.264E+01   0.410E-04 0.979E-04 -.195E-03
   -.339E+02 0.458E+02 0.130E+04   0.331E+02 -.453E+02 -.130E+04   0.808E+00 -.532E+00 -.408E+00   0.127E-02 -.563E-03 0.115E-03
   -.415E+02 0.441E+01 -.482E+02   0.412E+02 -.400E+01 0.482E+02   0.224E+00 -.469E+00 -.607E-01   0.130E-03 0.446E-05 0.314E-03
   0.166E+02 -.833E+02 -.124E+04   -.168E+02 0.831E+02 0.124E+04   0.200E+00 0.204E+00 0.117E+01   -.171E-03 -.510E-03 0.996E-04
   0.107E+02 0.314E+02 -.123E+04   -.108E+02 -.314E+02 0.123E+04   0.100E+00 -.407E-01 0.417E+00   -.202E-03 0.272E-03 0.627E-03
   0.147E+02 -.466E+02 0.245E+04   -.153E+02 0.459E+02 -.245E+04   0.664E+00 0.697E+00 -.276E+01   -.145E-03 -.301E-03 0.447E-03
   0.426E+01 -.196E+02 0.276E+04   -.432E+01 0.198E+02 -.275E+04   0.776E-01 -.200E+00 -.230E+01   0.587E-03 0.510E-03 -.387E-03
   0.119E+03 0.291E+02 0.279E+04   -.120E+03 -.284E+02 -.279E+04   0.462E+00 -.684E+00 -.237E+01   -.244E-04 0.262E-03 -.101E-02
   -.364E+02 -.274E+02 0.142E+04   0.360E+02 0.263E+02 -.142E+04   0.446E+00 0.106E+01 -.422E+00   -.108E-02 -.119E-02 -.131E-03
   -.600E+02 0.700E+02 0.220E+02   0.601E+02 -.698E+02 -.229E+02   -.247E-01 -.213E+00 0.841E+00   -.903E-03 0.213E-03 0.794E-04
   -.882E+02 0.196E+02 0.141E+04   0.878E+02 -.191E+02 -.141E+04   0.508E+00 -.490E+00 -.122E+00   -.248E-03 0.394E-03 -.828E-03
   -.215E+02 0.963E+01 0.139E+04   0.217E+02 -.986E+01 -.139E+04   -.145E+00 0.284E+00 -.129E+00   0.104E-02 0.932E-03 0.328E-04
   0.450E+02 0.629E+01 -.140E+04   -.448E+02 -.648E+01 0.139E+04   -.268E+00 0.231E+00 0.150E+01   0.248E-03 0.768E-03 -.120E-03
   0.529E+02 -.807E+02 0.277E+04   -.526E+02 0.805E+02 -.276E+04   -.351E+00 0.196E+00 -.240E+01   -.466E-03 -.574E-04 0.105E-03
   -.142E+02 0.243E+01 0.138E+04   0.143E+02 -.221E+01 -.138E+04   -.106E+00 -.250E+00 -.426E+00   -.283E-04 0.615E-03 -.290E-03
   0.189E+02 -.700E+02 -.163E+02   -.181E+02 0.694E+02 0.165E+02   -.850E+00 0.629E+00 -.328E+00   0.900E-03 -.101E-03 0.823E-04
   0.307E+02 0.340E+02 0.344E+04   -.308E+02 -.332E+02 -.344E+04   0.848E-01 -.851E+00 -.360E+01   -.270E-03 0.784E-03 -.187E-02
   0.635E+02 0.842E+01 0.174E+04   -.636E+02 -.910E+01 -.174E+04   0.103E+00 0.706E+00 -.186E+00   -.233E-02 -.121E-02 0.938E-03
   0.102E+03 -.314E+02 0.172E+04   -.102E+03 0.314E+02 -.172E+04   -.196E+00 0.193E-01 0.340E-01   -.242E-03 0.134E-02 -.450E-03
   0.133E+02 0.706E+02 0.834E+02   -.140E+02 -.705E+02 -.842E+02   0.611E+00 -.240E+00 0.743E+00   -.412E-03 -.699E-03 0.156E-02
   0.111E+02 0.521E+02 -.171E+04   -.105E+02 -.516E+02 0.171E+04   -.601E+00 -.540E+00 0.147E+01   0.323E-03 0.731E-04 0.193E-02
[...]
   0.562E+02 -.368E+02 0.494E+01   -.555E+02 0.363E+02 -.524E+01   -.640E+00 0.430E+00 0.348E+00   -.122E-02 -.565E-03 0.215E-02
   -.736E+02 0.128E+01 0.155E+04   0.731E+02 -.115E+01 -.155E+04   0.411E+00 -.736E-01 -.109E+00   -.121E-04 0.200E-03 0.127E-03
   -.122E+02 0.189E+02 0.162E+04   0.125E+02 -.191E+02 -.162E+04   -.340E+00 0.224E+00 -.446E+00   -.506E-04 -.140E-02 0.153E-02
   -.101E+03 -.412E+01 0.308E+04   0.101E+03 0.420E+01 -.308E+04   -.544E+00 -.541E-01 -.134E+01   -.106E-03 0.136E-02 -.312E-03
   0.702E+02 -.524E+02 0.309E+04   -.705E+02 0.530E+02 -.309E+04   0.365E+00 -.579E+00 -.886E+00   -.462E-03 0.817E-03 -.130E-02
   0.146E+02 -.403E+02 0.155E+04   -.142E+02 0.400E+02 -.155E+04   -.397E+00 0.226E+00 0.161E-02   0.626E-03 0.146E-02 0.416E-03
   0.512E+02 0.216E+01 0.159E+04   -.507E+02 -.215E+01 -.159E+04   -.483E+00 0.412E-01 -.103E+00   -.787E-03 0.959E-03 -.663E-03
   -.454E+02 -.715E+02 -.156E+04   0.454E+02 0.716E+02 0.156E+04   0.153E-01 -.108E+00 0.839E+00   -.187E-03 -.282E-03 0.119E-02
   -.542E+02 0.295E+02 0.307E+04   0.546E+02 -.290E+02 -.307E+04   -.399E+00 -.590E+00 -.191E+01   0.388E-04 0.181E-03 -.451E-03
   -.468E+02 0.704E+02 0.747E+02   0.471E+02 -.701E+02 -.749E+02   -.312E+00 -.307E+00 0.699E-01   0.158E-02 -.188E-03 0.434E-03
   -.118E+01 0.620E+02 -.156E+00   0.114E+01 -.613E+02 0.453E-01   0.764E-01 -.853E+00 -.281E-01   -.430E-03 0.174E-02 0.269E-03
   0.463E+02 0.595E+01 -.305E+02   -.459E+02 -.537E+01 0.304E+02   -.371E+00 -.620E+00 0.205E-01   0.868E-03 0.108E-02 0.791E-03
   0.243E+02 -.494E+02 0.349E+02   -.247E+02 0.490E+02 -.350E+02   0.335E+00 0.464E+00 0.157E+00   -.232E-02 -.289E-03 0.752E-03
   -.172E+01 0.614E+01 -.349E+03   0.183E+01 -.657E+01 0.351E+03   -.144E+00 0.443E+00 -.170E+01   -.127E-04 -.449E-04 -.975E-04
   -.162E+01 -.201E+01 -.494E+01   -.602E-12 0.524E-13 -.117E-10   0.163E+01 0.199E+01 0.488E+01   -.686E-03 0.724E-03 0.235E-01

 POSITION                                       TOTAL-FORCE (eV/Angst)
     12.94700      8.02651      6.98496        -0.004005      0.013701     -0.002778
      5.10589      8.07322      6.94159         0.007822      0.007340     -0.003103
      4.95990      3.47839      7.02836         0.000443     -0.003516      0.010316
     14.31467      8.79191      9.32096        -0.009353     -0.002249      0.012005
      3.74957      4.23778      9.40983         0.007782     -0.006303      0.002344
      6.39191      8.76964      9.26153         0.004596      0.004736      0.012306
     11.66463      4.24315      9.45902        -0.006142      0.006162      0.020215
      9.02472      8.77870      9.23863         0.015858      0.011954     -0.002823
     10.32072      1.91275      9.31429         0.003687      0.011114      0.013728
      2.46635      1.91187      9.33820         0.010793     -0.004257     -0.001204
     11.67017      8.78496      9.32386         0.004699      0.007572     -0.009607
     12.98909      6.50708      9.39368        -0.004865     -0.020450     -0.016787
      5.06688      1.91210      9.34777        -0.001235     -0.001523      0.008075
      7.72699      6.51213      9.33338         0.010581      0.001792     -0.008652
      9.02648      4.23117      9.27729         0.029986     -0.008914      0.005412
      5.06928      6.49954      9.39538         0.004082      0.000200      0.005255
      7.70671      1.92492      9.29111         0.005532      0.001520     -0.005612
      7.77203      3.43080      6.97288         0.007740     -0.000275      0.003822
      6.30569      1.13674      6.93035         0.001218     -0.008503      0.007469
      6.42858      1.12974      0.87872        -0.019171      0.000168      0.013561
      3.70548      4.20844      2.81687         0.013186      0.010830     -0.034797
      1.17813      1.25633      6.91982        -0.008131     -0.009929      0.012799
      1.13569      1.19080      0.72557        -0.006734      0.004186      0.006538
      6.43607      8.76100      2.90031        -0.006449      0.007212     -0.010908
      6.39227      4.21345      9.39170        -0.009592      0.004295     -0.005645
      7.68135      4.99073      4.81474         0.006748      0.000629     -0.022101
     10.32959      6.51528      9.32527         0.004695     -0.018043      0.000059
     14.26424      7.22593      4.86299         0.006954     -0.035887     -0.063307
     11.67136      5.67662      7.03223        -0.006583     -0.017690      0.018485
      6.41139      5.77051      7.00783        -0.001099      0.003080     -0.004736
      3.62119      2.56589      4.96023        -0.050056      0.005251      0.001344
     10.36091      5.02430      4.85652         0.050919     -0.027136      0.049831
      3.75719      5.76454      7.16317         0.001148     -0.011897      0.000453
     12.96907      7.87977      0.92567        -0.007295     -0.002503      0.010109
      5.16340      7.91719      0.83030         0.014843      0.016303      0.011177
      3.80701      5.74502      0.81381         0.006962     -0.006791     -0.007402
      7.79852      2.03245      2.83251        -0.033220     -0.009867      0.000330
      9.07755      8.73373      2.85743         0.003996      0.002762      0.006361
      2.40163      3.49493      7.16749        -0.002471      0.005754     -0.011641
      2.34409      3.49051      0.82510         0.006946      0.011944     -0.015490
     10.34814      1.96983      2.82249        -0.006966      0.012344      0.006760
     12.96035      4.98587      4.92559        -0.004904     -0.035879      0.029365
      3.74489      1.05830      7.06123         0.004573      0.001870      0.011501
      9.03171      5.76200      7.07825         0.006095     -0.006254      0.006083
      3.74824      1.09182      0.86700        -0.008981      0.000925     -0.020992
      9.09121      5.71867      0.96043        -0.002674      0.022532     -0.011962
      5.12448      3.47045      0.85563        -0.004529      0.025924     -0.002037
     11.62092      8.68758      2.90590        -0.003530     -0.022731      0.034196
     11.65313      7.26450      4.84229         0.013173      0.032326     -0.077333
     12.86756      6.45280      2.83379         0.026896     -0.008330     -0.009701
      9.04201      4.20780      2.79628         0.004085      0.011523     -0.012814
      7.76652      8.00649      6.98796        -0.002124     -0.003060     -0.000390
      7.81315      7.93922      0.88653        -0.015522      0.006387      0.010558
     10.39144      6.53566      2.82198         0.011396     -0.013852      0.009415
      2.51347      0.25826      5.00083         0.011819      0.030423      0.006834
      7.74264      3.48454      0.76157         0.001588     -0.009921      0.006655
      5.07835      1.87760      2.91701        -0.006194     -0.007304     -0.005001
      5.16037      6.44715      2.89923        -0.012991      0.002751     -0.014943
      7.70892      0.45986      4.84799         0.005523     -0.006145      0.019492
      9.06072      1.18663      6.98323         0.000023     -0.005655     -0.001213
[...]
      9.07350      2.65252      4.91360         0.029908     -0.036751     -0.011510
      6.37169      2.66558      4.85827        -0.011279     -0.001104     -0.003043
     11.65891      4.17486      2.81483        -0.014600     -0.004087     -0.021736
      2.44098      1.89237      2.83279        -0.000950      0.017690      0.014423
     11.64953      5.68621      0.88546         0.000535      0.031017     -0.011399
      6.44743      5.71949      0.92597        -0.005434      0.017198     -0.007010
      7.82927      6.50651      2.83621        -0.013156     -0.002850     -0.004559
      6.41922      4.13007      2.78290        -0.012727      0.007167     -0.013195
     10.37728      3.45657      7.06257         0.003709     -0.000057     -0.000807
     10.34410      3.45013      0.86804        -0.004142     -0.011939     -0.016638
     10.37063      0.48410      4.87151        -0.013280      0.023184      0.009902
      9.04079      7.29017      4.93700         0.013628     -0.022282     -0.019151
      6.46265      7.29503      4.94074         0.024780     -0.005853     -0.019498
      5.04247      0.27633      4.88406        -0.011338      0.013374      0.040759
     11.57998      2.73828     10.38149        -0.030242      0.019079      0.029385
    total drift:                                0.008580     -0.027419     -0.034888

  FREE ENERGIE OF THE ION-ELECTRON SYSTEM (eV)
  free  energy   TOTEN  =      -511.01350095 eV

  energy  without entropy=     -511.04028707  energy(sigma->0) =     -511.02242966

 reached required accuracy - stopping structural energy minimisation