 vasp.5.4.4.18Apr17-6-g9f103f2a35 (build Nov 30 2020 22:55:02) complex

 executed on             LinuxIFC date 2023.09.15  11:02:23

 INCAR:
 POTCAR:    PAW_PBE Ni 02Aug2007
 POTCAR:    PAW_PBE Pt 04Feb2005
 POTCAR:    PAW_PBE H 15Jun2001

 POTCAR:    PAW_PBE Ni 02Aug2007
   VRHFIN =Ni:

   TITEL  = PAW_PBE Ni 02Aug2007
   POMASS =   58.690; ZVAL   =   10.000    mass and valenz
   ENMAX  =  269.532; ENMIN  =  202.149 eV

 POTCAR:    PAW_PBE Pt 04Feb2005
   VRHFIN =Pt: s1d9

   TITEL  = PAW_PBE Pt 04Feb2005
   POMASS =  195.080; ZVAL   =   10.000    mass and valenz
   ENMAX  =  230.283; ENMIN  =  172.712 eV

 POTCAR:    PAW_PBE H 15Jun2001
   VRHFIN =H: ultrasoft test

   TITEL  = PAW_PBE H 15Jun2001
   POMASS =    1.000; ZVAL   =    1.000    mass and valenz
   ENMAX  =  250.000; ENMIN  =  200.000 eV

 Optimization of the real space projectors (new method)

 maximal supplied QI-value         = 16.25
 optimisation between [QCUT,QGAM] = [ 11.86, 23.89] = [ 39.41,159.82] Ry
 Optimized for a Real-space Cutoff    1.33 Angstroem

   l    n(q)    QCUT    max X(q) W(low)/X(q) W(high)/X(q)  e(spline)
   2      9    11.864    60.317    0.21E-03    0.51E-03    0.25E-06
   2      9    11.864    55.921    0.21E-03    0.51E-03    0.26E-06
   0      9    11.864    51.690    0.22E-03    0.30E-04    0.17E-06
   0      9    11.864    30.015    0.20E-03    0.28E-04    0.15E-06
   1      9    11.864    18.849    0.76E-04    0.33E-03    0.17E-06
   1      9    11.864    14.624    0.60E-04    0.28E-03    0.15E-06
 Optimization of the real space projectors (new method)

[...]

   l    n(q)    QCUT    max X(q) W(low)/X(q) W(high)/X(q)  e(spline)
   2     10    11.920    66.195    0.79E-04    0.18E-03    0.24E-06
   2     10    11.920    64.643    0.81E-04    0.19E-03    0.24E-06
   0     11    11.920    95.520    0.28E-04    0.54E-04    0.18E-06
   0     11    11.920    63.403    0.27E-04    0.52E-04    0.17E-06
   1     10    11.920    19.961    0.18E-04    0.11E-03    0.23E-06
   1     10    11.920    13.289    0.25E-04    0.87E-04    0.19E-06
 Optimization of the real space projectors (new method)

 maximal supplied QI-value         = 34.20
 optimisation between [QCUT,QGAM] = [ 11.97, 23.94] = [ 40.13,160.53] Ry
 Optimized for a Real-space Cutoff    1.18 Angstroem

   l    n(q)    QCUT    max X(q) W(low)/X(q) W(high)/X(q)  e(spline)
   0      8    11.971    19.460    0.15E-03    0.31E-03    0.25E-06
   0      8    11.971    12.209    0.13E-03    0.29E-03    0.25E-06
   1      8    11.971     4.655    0.22E-03    0.24E-03    0.21E-06
  PAW_PBE Ni 02Aug2007                  :
  PAW_PBE Pt 04Feb2005                  :
  PAW_PBE H 15Jun2001                   :

 POSCAR: Ni   Pt   H
  positions in cartesian coordinates
 exchange correlation table for  LEXCH =        8
   RHO(1)=    0.500       N(1)  =     2000
   RHO(2)=  100.500       N(2)  =     4000

 ion  position               nearest neighbor table
   1  0.786  0.869  0.311-  39 2.43  55 2.43  20 2.43  72 2.63  73 2.63  65 2.63  56 2.64   2 2.64
                            29 2.64   3 2.64  57 2.64  40 2.64
   2  0.036  0.869  0.311-  52 2.42  49 2.42  39 2.43  77 2.62  67 2.63  65 2.63  33 2.64  56 2.64
                             3 2.64   1 2.64  23 2.64  41 2.65
   3  0.036  0.619  0.311-  60 2.42  39 2.43  12 2.43  77 2.61  73 2.63  66 2.63  15 2.64   2 2.64
                             1 2.64  40 2.64   9 2.65  41 2.66
   4  0.787  0.867  0.051-  21 2.44  62 2.44  19 2.45  42 2.64   5 2.64   6 2.64  59 2.64  58 2.65
                            30 2.66
   5  0.037  0.868  0.051-  54 2.44  35 2.44  62 2.45  24 2.64  43 2.64   4 2.64   6 2.64  58 2.65
                            34 2.65
   6  0.037  0.617  0.051-  32 2.44  54 2.44  21 2.45  18 2.63  43 2.63  10 2.63  42 2.64   4 2.64
                             5 2.64
   7  0.620  0.202  0.138-  28 2.44  30 2.44  58 2.45  55 2.45  64 2.46  63 2.46  19 2.64  62 2.64
                            37 2.64  45 2.64  22 2.64  11 2.64
   8  0.370  0.952  0.138-  16 2.44  24 2.44  59 2.45  53 2.45  50 2.46  26 2.46  38 2.64  37 2.64
                            35 2.64  25 2.64  19 2.64  44 2.64
   9  0.036  0.369  0.311-  61 2.42  46 2.43  12 2.43  68 2.62  71 2.62  66 2.63  40 2.63  33 2.64
                             3 2.65  13 2.65  15 2.65  47 2.68
  10  0.037  0.368  0.051-  38 2.44  32 2.44  31 2.45  18 2.63  16 2.63   6 2.63  34 2.63  42 2.64
                            48 2.64
  11  0.870  0.202  0.138-  48 2.44  58 2.44  34 2.45  49 2.45  61 2.46  63 2.46  35 2.64  31 2.64
                            22 2.64  38 2.64  62 2.64   7 2.64
  12  0.953  0.535  0.225-  40 2.42   9 2.43   3 2.43  32 2.45  31 2.45  21 2.46  46 2.64  61 2.64
                            51 2.64  60 2.64  39 2.64  20 2.64
  13  0.286  0.118  0.311-  26 2.42  46 2.42  53 2.43  69 2.62  71 2.62  74 2.63  57 2.63  33 2.64
                            29 2.64   9 2.65  15 2.65  23 2.68
  14  0.535  0.618  0.312-  36 2.43  50 2.45  51 2.45  23 2.59  47 2.60  41 2.61  27 2.61  80 2.61
                            40 2.65  57 2.65  76 2.71  75 2.73
  15  0.286  0.369  0.311-  60 2.42  46 2.43  64 2.43  79 2.61  74 2.63  66 2.63  29 2.64   3 2.64
                             9 2.65  13 2.65  27 2.65  41 2.65
  16  0.287  0.119  0.051-   8 2.44  37 2.44  38 2.45  30 2.63  10 2.63  34 2.63  18 2.64  59 2.64
                            24 2.64
  17  0.536  0.618  0.051-  22 2.44  25 2.44  44 2.45  28 2.64  43 2.64  24 2.64  48 2.64  59 2.65
                            42 2.65
  18  0.286  0.368  0.051-  37 2.44  45 2.44  32 2.45   6 2.63  43 2.63  10 2.63  16 2.64  30 2.64
                            28 2.64
  19  0.620  0.952  0.137-  59 2.44  30 2.44   4 2.45  20 2.46  55 2.46  53 2.46   7 2.64  62 2.64
                             8 2.64  21 2.64  25 2.64  37 2.64
  20  0.702  0.785  0.225-  57 2.43  40 2.43   1 2.43  21 2.46  19 2.46  25 2.46  53 2.64  50 2.64
                            51 2.64  55 2.64  39 2.64  12 2.64
  21  0.870  0.701  0.138-   4 2.44  42 2.44   6 2.45  12 2.46  39 2.46  20 2.46  31 2.64  32 2.64
                            54 2.64  25 2.64  19 2.64  62 2.64
  22  0.620  0.452  0.138-  17 2.44  28 2.44  48 2.45  63 2.45  51 2.46  36 2.46  25 2.64  11 2.64
                            31 2.64   7 2.64  45 2.64  44 2.64
  23  0.289  0.863  0.313-  52 2.44  50 2.44  26 2.48  41 2.58  14 2.59  67 2.61  69 2.62  57 2.63
                             2 2.64  75 2.66  13 2.68  33 2.69
  24  0.287  0.868  0.051-  44 2.44   8 2.44  35 2.45   5 2.64  34 2.64  17 2.64  59 2.64  16 2.64
                            43 2.65
  25  0.619  0.702  0.137-  59 2.44  17 2.44  42 2.45  20 2.46  51 2.46  50 2.46  22 2.64  31 2.64
                             8 2.64  44 2.64  21 2.64  19 2.64
  26  0.203  0.034  0.226-  13 2.42  33 2.42  35 2.46   8 2.46  38 2.47  23 2.48  52 2.62  50 2.63
                            49 2.64  53 2.64  46 2.65  61 2.66
  27  0.537  0.370  0.312-  36 2.43  63 2.43  64 2.45  47 2.58  14 2.61  78 2.62  79 2.62  41 2.63
                            56 2.64  15 2.65  29 2.65  76 2.70
  28  0.536  0.368  0.051-   7 2.44  22 2.44  45 2.45  43 2.64  30 2.64  17 2.64  18 2.64  58 2.64
                            48 2.65
  29  0.536  0.119  0.311-  64 2.42  55 2.43  53 2.43  78 2.62  72 2.63  74 2.63  15 2.64  56 2.64
                             1 2.64  57 2.64  13 2.64  27 2.65
  30  0.536  0.119  0.051-  19 2.44   7 2.44  37 2.44  16 2.63  18 2.64  28 2.64  59 2.64  58 2.65
                             4 2.66
  31  0.870  0.452  0.138-  42 2.44  48 2.44  10 2.45  12 2.45  51 2.46  61 2.46  21 2.64  32 2.64
                            11 2.64  38 2.64  25 2.64  22 2.64
  32  0.119  0.452  0.138-   6 2.44  10 2.44  18 2.45  12 2.45  60 2.45  46 2.46  21 2.64  38 2.64
                            31 2.64  37 2.64  54 2.64  45 2.64
  33  0.036  0.119  0.311-  61 2.42  26 2.42  49 2.42  67 2.62  71 2.62  70 2.62   2 2.64  56 2.64
                            13 2.64   9 2.64  47 2.68  23 2.69
  34  0.037  0.118  0.051-  35 2.44  38 2.44  11 2.45  16 2.63  10 2.63  24 2.64  48 2.64  58 2.64
                             5 2.65
  35  0.119  0.952  0.138-  34 2.44   5 2.44  24 2.45  49 2.45  26 2.46  52 2.46  11 2.64  44 2.64
                            38 2.64  62 2.64   8 2.64  54 2.64
  36  0.453  0.535  0.225-  27 2.43  41 2.43  14 2.43  44 2.46  45 2.46  22 2.46  51 2.64  50 2.64
                            63 2.64  52 2.64  60 2.64  64 2.64
  37  0.369  0.202  0.138-  18 2.44  16 2.44  30 2.44  53 2.45  64 2.45  46 2.46  45 2.64  38 2.64
                            32 2.64   7 2.64   8 2.64  19 2.64
  38  0.120  0.202  0.138-  10 2.44  34 2.44  16 2.45  46 2.45  26 2.47  61 2.47  32 2.64  37 2.64
                             8 2.64  11 2.64  31 2.64  35 2.64
  39  0.953  0.785  0.225-   3 2.43   2 2.43   1 2.43  54 2.45  62 2.45  21 2.46  49 2.64  60 2.64
                            55 2.64  20 2.64  12 2.64  52 2.65
  40  0.786  0.618  0.311-  51 2.42  12 2.42  20 2.43  80 2.60  68 2.63  47 2.63  73 2.63   9 2.63
                             3 2.64   1 2.64  57 2.65  14 2.65
  41  0.287  0.619  0.312-  36 2.43  52 2.43  60 2.45  23 2.58  14 2.61  77 2.62  79 2.62  27 2.63
                             2 2.65  15 2.65   3 2.66  75 2.72
  42  0.787  0.618  0.051-  31 2.44  21 2.44  25 2.45  48 2.63  10 2.64   4 2.64   6 2.64  59 2.65
                            17 2.65
  43  0.287  0.617  0.051-  45 2.44  44 2.44  54 2.45   6 2.63  18 2.63  28 2.64   5 2.64  17 2.64
                            24 2.65
  44  0.369  0.702  0.138-  24 2.44  43 2.44  17 2.45  50 2.46  52 2.46  36 2.46  54 2.64  35 2.64
                            45 2.64  25 2.64   8 2.64  22 2.64
  45  0.370  0.452  0.138-  43 2.44  18 2.44  28 2.45  64 2.45  60 2.45  36 2.46  37 2.64  44 2.64
                             7 2.64  32 2.64  54 2.64  22 2.64
  46  0.202  0.285  0.225-  13 2.42   9 2.43  15 2.43  38 2.45  32 2.46  37 2.46  53 2.64  12 2.64
                            64 2.65  61 2.65  60 2.65  26 2.65
  47  0.780  0.372  0.313-  63 2.44  51 2.44  61 2.48  27 2.58  14 2.60  70 2.62  68 2.62  40 2.63
                            56 2.64  76 2.65   9 2.68  33 2.68
  48  0.787  0.368  0.051-  11 2.44  31 2.44  22 2.45  42 2.63  10 2.64  34 2.64  58 2.64  17 2.64
                            28 2.65
  49  0.953  0.035  0.225-  33 2.42   2 2.42  56 2.43  11 2.45  35 2.45  62 2.46  61 2.64  26 2.64
                            39 2.64  55 2.64  63 2.64  52 2.64
  50  0.452  0.785  0.225-  57 2.42  23 2.44  14 2.45  44 2.46   8 2.46  25 2.46  26 2.63  52 2.63
                            36 2.64  20 2.64  53 2.64  51 2.64
  51  0.703  0.535  0.225-  40 2.42  47 2.44  14 2.45  31 2.46  22 2.46  25 2.46  61 2.63  63 2.63
                            36 2.64  20 2.64  12 2.64  50 2.64
  52  0.203  0.785  0.225-   2 2.42  41 2.43  23 2.44  44 2.46  35 2.46  54 2.46  26 2.62  50 2.63
                            36 2.64  60 2.64  49 2.64  39 2.65
  53  0.452  0.035  0.225-  57 2.42  29 2.43  13 2.43  37 2.45   8 2.45  19 2.46  46 2.64  26 2.64
                            55 2.64  20 2.64  64 2.64  50 2.64
[...]
      1.017804  1.081944  1.119986            0           0           0
      6.287244  8.705513  3.027682            0           0           0
      7.609421  4.896725  4.958140            0           0           0
      4.966895  1.846462  3.031031            0           0           0
      2.328793  1.845637  3.032086            0           0           0
     14.206875  7.182360  4.950455            0           0           0
     11.565693  5.653804  6.837052            0           0           0
      6.305745  5.664079  6.859711            0           0           0
     11.574645  5.647310  1.118180            0           0           0
      6.286892  5.647178  1.120360            0           0           0
      7.604774  6.418020  3.026047            0           0           0
      6.287058  4.130295  3.030444            0           0           0
      3.642159  2.604869  4.957995            0           0           0
     10.204152  3.398846  6.880918            0           0           0
     10.256619  3.366846  1.119299            0           0           0
     10.247650  0.324285  4.951208            0           0           0
      8.922178  7.181691  4.953309            0           0           0
     10.244535  4.892716  4.953555            0           0           0
      6.292610  7.181106  4.957815            0           0           0
      4.964437  0.324488  4.949819            0           0           0
      4.966517  6.417103  3.029832            0           0           0
      7.605753  0.324740  4.949183            0           0           0
      8.927640  1.086304  6.838117            0           0           0
     10.241880  7.947054  6.836841            0           0           0
      8.933630  1.081954  1.118451            0           0           0
     10.249997  7.940401  1.115771            0           0           0
      4.969540  4.895852  4.951658            0           0           0
[...]
     11.583462  4.130525  8.984056            0           0           0
      8.931788  8.723703  8.984298            0           0           0
     10.249666  1.839129  8.981370            0           0           0
      2.325735  1.847077  8.975002            0           0           0
     11.569870  8.713059  8.979319            0           0           0
     12.892999  6.421017  8.979806            0           0           0
      4.962184  1.847168  8.980115            0           0           0
      7.598878  6.442920  9.117436            0           0           0
      8.944809  4.112487  9.097113            0           0           0
      4.953851  6.426624  8.968945            0           0           0
      7.605041  1.835145  8.969200            0           0           0
      6.260870  4.118860  8.974108            0           0           0
     10.277153  6.437766  8.952086            0           0           0
      7.845031  5.071287 10.546395     0.596630    0.324058    0.154294
      8.648948  5.501101 10.544394     0.591744    0.348257   -0.209209

   4 f/i=   14.511949 THz    91.181263 2PiTHz  484.066492 cm-1    60.016618 meV
             X         Y         Z           dx          dy          dz
     12.885760  7.945670  6.839445            0           0           0
      4.967083  7.946841  6.838525            0           0           0
      3.649921  5.658277  6.836888            0           0           0
     12.893920  7.930719  1.117496            0           0           0
      4.973660  7.934571  1.119596            0           0           0
      3.654460  5.644395  1.121176            0           0           0
      7.606901  1.843612  3.026040            0           0           0
      8.927632  8.704650  3.025391            0           0           0
      2.320990  3.370739  6.842047            0           0           0
      2.333745  3.364610  1.122270            0           0           0
     10.249248  1.845314  3.027106            0           0           0
     12.886885  4.892273  4.953137            0           0           0
      3.642363  1.078120  6.841951            0           0           0
      8.915641  5.652130  6.865086            0           0           0
      4.968133  3.373367  6.838013            0           0           0
      3.651856  1.084183  1.119879            0           0           0
      8.925611  5.650181  1.117095            0           0           0
      4.966979  3.368872  1.122004            0           0           0
     11.568378  8.703821  3.021896            0           0           0
     11.564054  7.181516  4.949592            0           0           0
     12.887203  6.415170  3.027520            0           0           0
      8.927828  4.130137  3.025448            0           0           0
      7.608208  7.888420  6.885393            0           0           0
      7.609859  7.938730  1.118362            0           0           0
     10.245960  6.416801  3.021468            0           0           0
      2.324357  0.307902  4.961566            0           0           0
      7.620233  3.384923  6.857446            0           0           0
      7.607570  3.366298  1.119211            0           0           0
      6.286663  1.089724  6.836394            0           0           0
      6.284510  1.085538  1.117767            0           0           0
     11.568186  4.131507  3.030214            0           0           0
      3.646484  4.130871  3.034459            0           0           0
      1.004994  1.084708  6.839603            0           0           0
      1.017804  1.081944  1.119986            0           0           0
      6.287244  8.705513  3.027682            0           0           0
      7.609421  4.896725  4.958140            0           0           0
      4.966895  1.846462  3.031031            0           0           0
      2.328793  1.845637  3.032086            0           0           0
     14.206875  7.182360  4.950455            0           0           0
     11.565693  5.653804  6.837052            0           0           0
      6.305745  5.664079  6.859711            0           0           0
     11.574645  5.647310  1.118180            0           0           0
      6.286892  5.647178  1.120360            0           0           0
      7.604774  6.418020  3.026047            0           0           0
      6.287058  4.130295  3.030444            0           0           0
      3.642159  2.604869  4.957995            0           0           0
     10.204152  3.398846  6.880918            0           0           0
     10.256619  3.366846  1.119299            0           0           0
     10.247650  0.324285  4.951208            0           0           0
      8.922178  7.181691  4.953309            0           0           0
     10.244535  4.892716  4.953555            0           0           0
      6.292610  7.181106  4.957815            0           0           0
      4.964437  0.324488  4.949819            0           0           0
      4.966517  6.417103  3.029832            0           0           0
      7.605753  0.324740  4.949183            0           0           0
      8.927640  1.086304  6.838117            0           0           0
     10.241880  7.947054  6.836841            0           0           0
      8.933630  1.081954  1.118451            0           0           0
     10.249997  7.940401  1.115771            0           0           0
      4.969540  4.895852  4.951658            0           0           0
[...]
     11.583462  4.130525  8.984056            0           0           0
      8.931788  8.723703  8.984298            0           0           0
     10.249666  1.839129  8.981370            0           0           0
      2.325735  1.847077  8.975002            0           0           0
     11.569870  8.713059  8.979319            0           0           0
     12.892999  6.421017  8.979806            0           0           0
      4.962184  1.847168  8.980115            0           0           0
      7.598878  6.442920  9.117436            0           0           0
      8.944809  4.112487  9.097113            0           0           0
      4.953851  6.426624  8.968945            0           0           0
      7.605041  1.835145  8.969200            0           0           0
      6.260870  4.118860  8.974108            0           0           0
     10.277153  6.437766  8.952086            0           0           0
      7.845031  5.071287 10.546395     0.394322   -0.709296   -0.067194
      8.648948  5.501101 10.544394     0.295498   -0.499217   -0.018896

[...]

   6 f/i=   18.679988 THz   117.369824 2PiTHz  623.097297 cm-1    77.254247 meV
             X         Y         Z           dx          dy          dz
     12.885760  7.945670  6.839445            0           0           0
      4.967083  7.946841  6.838525            0           0           0
      3.649921  5.658277  6.836888            0           0           0
     12.893920  7.930719  1.117496            0           0           0
      4.973660  7.934571  1.119596            0           0           0
      3.654460  5.644395  1.121176            0           0           0
      7.606901  1.843612  3.026040            0           0           0
      8.927632  8.704650  3.025391            0           0           0
      2.320990  3.370739  6.842047            0           0           0
      2.333745  3.364610  1.122270            0           0           0
     10.249248  1.845314  3.027106            0           0           0
     12.886885  4.892273  4.953137            0           0           0
      3.642363  1.078120  6.841951            0           0           0
      8.915641  5.652130  6.865086            0           0           0
      4.968133  3.373367  6.838013            0           0           0
      3.651856  1.084183  1.119879            0           0           0
      8.925611  5.650181  1.117095            0           0           0
      4.966979  3.368872  1.122004            0           0           0
     11.568378  8.703821  3.021896            0           0           0
     11.564054  7.181516  4.949592            0           0           0
     12.887203  6.415170  3.027520            0           0           0
      8.927828  4.130137  3.025448            0           0           0
      7.608208  7.888420  6.885393            0           0           0
      7.609859  7.938730  1.118362            0           0           0
     10.245960  6.416801  3.021468            0           0           0
      2.324357  0.307902  4.961566            0           0           0
      7.620233  3.384923  6.857446            0           0           0
      7.607570  3.366298  1.119211            0           0           0
      6.286663  1.089724  6.836394            0           0           0
      6.284510  1.085538  1.117767            0           0           0
     11.568186  4.131507  3.030214            0           0           0
      3.646484  4.130871  3.034459            0           0           0
      1.004994  1.084708  6.839603            0           0           0
      1.017804  1.081944  1.119986            0           0           0
      6.287244  8.705513  3.027682            0           0           0
      7.609421  4.896725  4.958140            0           0           0
      4.966895  1.846462  3.031031            0           0           0
      2.328793  1.845637  3.032086            0           0           0
     14.206875  7.182360  4.950455            0           0           0
     11.565693  5.653804  6.837052            0           0           0
      6.305745  5.664079  6.859711            0           0           0
     11.574645  5.647310  1.118180            0           0           0
      6.286892  5.647178  1.120360            0           0           0
      7.604774  6.418020  3.026047            0           0           0
      6.287058  4.130295  3.030444            0           0           0
      3.642159  2.604869  4.957995            0           0           0
     10.204152  3.398846  6.880918            0           0           0
     10.256619  3.366846  1.119299            0           0           0
     10.247650  0.324285  4.951208            0           0           0
      8.922178  7.181691  4.953309            0           0           0
     10.244535  4.892716  4.953555            0           0           0
      6.292610  7.181106  4.957815            0           0           0
      4.964437  0.324488  4.949819            0           0           0
      4.966517  6.417103  3.029832            0           0           0
      7.605753  0.324740  4.949183            0           0           0
      8.927640  1.086304  6.838117            0           0           0
     10.241880  7.947054  6.836841            0           0           0
      8.933630  1.081954  1.118451            0           0           0
     10.249997  7.940401  1.115771            0           0           0
      4.969540  4.895852  4.951658            0           0           0
[...]
     11.583462  4.130525  8.984056            0           0           0
      8.931788  8.723703  8.984298            0           0           0
     10.249666  1.839129  8.981370            0           0           0
      2.325735  1.847077  8.975002            0           0           0
     11.569870  8.713059  8.979319            0           0           0
     12.892999  6.421017  8.979806            0           0           0
      4.962184  1.847168  8.980115            0           0           0
      7.598878  6.442920  9.117436            0           0           0
      8.944809  4.112487  9.097113            0           0           0
      4.953851  6.426624  8.968945            0           0           0
      7.605041  1.835145  8.969200            0           0           0
      6.260870  4.118860  8.974108            0           0           0
     10.277153  6.437766  8.952086            0           0           0
      7.845031  5.071287 10.546395     0.214178    0.040391    0.682383
      8.648948  5.501101 10.544394    -0.127354   -0.081228    0.681199

 Finite differences POTIM=  5.000000000000000E-002
  LATTYP: Found a hexagonal cell.
 ALAT       =    10.5600004196
 C/A-ratio  =     2.0833332505

  Lattice vectors:

 A1 = (   5.2800002098,  -9.1452286274,   0.0000000000)
 A2 = ( -10.5600004196,   0.0000000000,   0.0000000000)
 A3 = (   0.0000000000,   0.0000000000, -22.0000000000)

Analysis of symmetry for initial positions (statically):
 Subroutine PRICEL returns:
 Original cell was already a primitive cell.

[...]

The static configuration has the point symmetry C_1 .

Analysis of symmetry for dynamics (positions and initial velocities):
 Subroutine PRICEL returns:
 Original cell was already a primitive cell.

[...]

The dynamic configuration has the point symmetry C_1 .

Analysis of constrained symmetry for selective dynamics:
 Subroutine PRICEL returns:
 Original cell was already a primitive cell.

[...]

The constrained configuration has the point symmetry C_1 .

Analysis of structural, dynamic, and magnetic symmetry:
 Subroutine PRICEL returns:
 Original cell was already a primitive cell.

 Routine SETGRP: Setting up the symmetry group for a
 hexagonal supercell.

 Subroutine GETGRP returns: Found  1 space group operations
 (whereof  1 operations were pure point group operations)
 out of a pool of 24 trial point group operations.

The magnetic configuration has the point symmetry C_1 .

 Subroutine INISYM returns: Found  1 space group operations
 (whereof  1 operations are pure point group operations),
 and found     1 'primitive' translations

 KPOINTS: mesh auto

Automatic generation of k-mesh.
Space group operators:
 irot       det(A)        alpha          n_x          n_y          n_z        tau_x        tau_y        tau_z
    1     1.000000     0.000001     1.000000     0.000000     0.000000     0.000000     0.000000     0.000000

 Subroutine IBZKPT returns following result:

 Found      4 irreducible k-points:

 Following reciprocal coordinates:
            Coordinates               Weight
  0.000000  0.000000  0.000000      1.000000
  0.500000  0.000000  0.000000      1.000000
  0.000000  0.500000  0.000000      1.000000
  0.500000  0.500000  0.000000      1.000000

 Following cartesian coordinates:
            Coordinates               Weight
  0.000000  0.000000  0.000000      1.000000
  0.047348 -0.027337  0.000000      1.000000
  0.000000  0.054673  0.000000      1.000000
  0.047348  0.027337  0.000000      1.000000

 TETIRR: Found     12 inequivalent tetrahedra from       24
 BZINTS: Fermi energy:  1.607056;802.000000 electrons
         Band energy:-601.856244;  BLOECHL correction: -0.329519