 vasp.5.4.4.18Apr17-6-g9f103f2a35 (build Nov 06 2019 15:09:28) complex

 executed on             LinuxIFC date 2021.11.22  18:01:20

 INCAR:
 POTCAR:    PAW_PBE Pt 04Feb2005
 POTCAR:    PAW_PBE Fe 06Sep2000
 POTCAR:    PAW_PBE Co 02Aug2007
 POTCAR:    PAW_PBE Cu 22Jun2005
 POTCAR:    PAW_PBE Ni 02Aug2007
 POTCAR:    PAW_PBE H 15Jun2001
 POTCAR:    PAW_PBE Pt 04Feb2005
   VRHFIN =Pt: s1d9

   TITEL  = PAW_PBE Pt 04Feb2005
   POMASS =  195.080; ZVAL   =   10.000    mass and valenz
   ENMAX  =  230.283; ENMIN  =  172.712 eV

 POTCAR:    PAW_PBE Fe 06Sep2000
   VRHFIN =Fe:  d7 s1

   TITEL  = PAW_PBE Fe 06Sep2000
   POMASS =   55.847; ZVAL   =    8.000    mass and valenz
   ENMAX  =  267.882; ENMIN  =  200.911 eV

 POTCAR:    PAW_PBE Co 02Aug2007
   VRHFIN =Co: d8 s1

   TITEL  = PAW_PBE Co 02Aug2007
   POMASS =   58.933; ZVAL   =    9.000    mass and valenz
   ENMAX  =  267.968; ENMIN  =  200.976 eV

 POTCAR:    PAW_PBE Cu 22Jun2005
   VRHFIN =Cu: d10 p1

   TITEL  = PAW_PBE Cu 22Jun2005
   POMASS =   63.546; ZVAL   =   11.000    mass and valenz
   ENMAX  =  295.446; ENMIN  =  221.585 eV

 POTCAR:    PAW_PBE Ni 02Aug2007
   VRHFIN =Ni:

   TITEL  = PAW_PBE Ni 02Aug2007
   POMASS =   58.690; ZVAL   =   10.000    mass and valenz
   ENMAX  =  269.532; ENMIN  =  202.149 eV

 POTCAR:    PAW_PBE H 15Jun2001
   VRHFIN =H: ultrasoft test

   TITEL  = PAW_PBE H 15Jun2001
   POMASS =    1.000; ZVAL   =    1.000    mass and valenz
   ENMAX  =  250.000; ENMIN  =  200.000 eV

 Optimization of the real space projectors (new method)

 maximal supplied QI-value         = 14.36
 optimisation between [QCUT,QGAM] = [ 11.92, 23.98] = [ 39.79,161.09] Ry
 Optimized for a Real-space Cutoff    1.49 Angstroem

   l    n(q)    QCUT    max X(q) W(low)/X(q) W(high)/X(q)  e(spline)
   2     10    11.920    66.195    0.79E-04    0.18E-03    0.24E-06
   2     10    11.920    64.643    0.81E-04    0.19E-03    0.24E-06
   0     11    11.920    95.520    0.28E-04    0.54E-04    0.18E-06
   0     11    11.920    63.403    0.27E-04    0.52E-04    0.17E-06
   1     10    11.920    19.961    0.18E-04    0.11E-03    0.23E-06
   1     10    11.920    13.289    0.25E-04    0.87E-04    0.19E-06
 Optimization of the real space projectors (new method)

[...]

   l    n(q)    QCUT    max X(q) W(low)/X(q) W(high)/X(q)  e(spline)
   2      9    11.864    60.317    0.21E-03    0.51E-03    0.25E-06
   2      9    11.864    55.921    0.21E-03    0.51E-03    0.26E-06
   0      9    11.864    51.690    0.22E-03    0.30E-04    0.17E-06
   0      9    11.864    30.015    0.20E-03    0.28E-04    0.15E-06
   1      9    11.864    18.849    0.76E-04    0.33E-03    0.17E-06
   1      9    11.864    14.624    0.60E-04    0.28E-03    0.15E-06
 Optimization of the real space projectors (new method)

 maximal supplied QI-value         = 34.20
 optimisation between [QCUT,QGAM] = [ 11.97, 23.94] = [ 40.13,160.53] Ry
 Optimized for a Real-space Cutoff    1.18 Angstroem

   l    n(q)    QCUT    max X(q) W(low)/X(q) W(high)/X(q)  e(spline)
   0      8    11.971    19.460    0.15E-03    0.31E-03    0.25E-06
   0      8    11.971    12.209    0.13E-03    0.29E-03    0.25E-06
   1      8    11.971     4.655    0.22E-03    0.24E-03    0.21E-06
  PAW_PBE Pt 04Feb2005                  :
  PAW_PBE Fe 06Sep2000                  :
  PAW_PBE Co 02Aug2007                  :
  PAW_PBE Cu 22Jun2005                  :
  PAW_PBE Ni 02Aug2007                  :
  PAW_PBE H 15Jun2001                   :

 POSCAR: Pt   Fe   Co   Cu   Ni   H
  positions in direct lattice
 exchange correlation table for  LEXCH =        8
   RHO(1)=    0.500       N(1)  =     2000
   RHO(2)=  100.500       N(2)  =     4000

 VTST: version 3.2, (02/03/18)

 CHAIN: initializing optimizer

 OPT: Using VASP QUASI-newton optimizer
 CHAIN: Read ICHAIN            0
 CHAIN: Running the NEB
 NEB:          SPRING     -5.000000
 NEB:          LCLIMB      T
 NEB:     LTANGENTOLD      F
 NEB:           LDNEB      F
 NEB:        LDNEBORG      F
 NEB:        LNEBCELL      F
 NEB:          EFIRST      0.000000
 NEB:           ELAST      0.000000

 POSCAR: Pt   Fe   Co   Cu   Ni   H
  positions in direct lattice

 POSCAR: Pt   Fe   Co   Cu   Ni   H
  positions in direct lattice

 ion  position               nearest neighbor table
   1  0.786  0.879  0.317-  49 2.62  28 2.62  19 2.64  59 2.64  61 2.66  33 2.66  29 2.67  60 2.68
                             2 2.72  11 2.77   4 2.82  12 2.86
   2  0.042  0.883  0.316-  79 2.54  77 2.59  60 2.62  28 2.65  30 2.65  52 2.66  22 2.69  33 2.69
                             1 2.72   6 2.76   4 2.84  16 2.89
   3  0.278  0.381  0.321-  39 2.55  33 2.58  64 2.59  31 2.64  19 2.69  43 2.71  30 2.71  68 2.74
                            18 2.81   5 2.83  13 2.85  25 2.89
   4  0.874  0.962  0.424-  17 2.62   9 2.63  16 2.64  11 2.64   6 2.64  12 2.65  60 2.82   1 2.82
                             2 2.84
   5  0.119  0.464  0.431-  81 1.81  12 2.60   7 2.62  16 2.64  10 2.67  25 2.70  13 2.72  39 2.77
                            33 2.77   3 2.83
   6  0.124  0.961  0.422-  10 2.63   8 2.63  14 2.64  16 2.64   4 2.64   9 2.65   2 2.76  52 2.78
                            22 2.86
   7  0.873  0.460  0.426-  15 2.61   5 2.62   9 2.63  10 2.64  12 2.65  27 2.65  39 2.68  75 2.76
                            29 2.79
   8  0.375  0.959  0.420-  43 2.60  14 2.61  27 2.62  13 2.63   6 2.63  11 2.65  10 2.65  52 2.69
                            61 2.72
   9  0.874  0.211  0.421-  17 2.62   7 2.63  15 2.63   4 2.63  10 2.64   6 2.65  75 2.69  60 2.73
                            22 2.81
  10  0.124  0.210  0.423-   6 2.63   9 2.64   7 2.64   8 2.65  13 2.66   5 2.67  39 2.68  43 2.73
                            22 2.78
  11  0.625  0.960  0.424-  13 2.62  12 2.63  27 2.64   4 2.64   8 2.65  17 2.65   1 2.77  19 2.82
                            61 2.85
  12  0.873  0.711  0.427-   5 2.60  11 2.63  16 2.64  27 2.65   7 2.65   4 2.65  33 2.70  29 2.82
                             1 2.86
  13  0.376  0.207  0.428-  81 1.64  11 2.62   8 2.63  10 2.66  17 2.66  25 2.69   5 2.72  43 2.83
                             3 2.85  19 2.86
  14  0.375  0.713  0.424-   8 2.61  27 2.61   6 2.64  25 2.64  15 2.65  16 2.66  44 2.70  30 2.77
                            52 2.77
  15  0.625  0.461  0.423-   7 2.61  27 2.62   9 2.63  25 2.64  14 2.65  17 2.65  44 2.70  75 2.72
                            18 2.76
  16  0.123  0.712  0.426-   4 2.64   6 2.64   5 2.64  12 2.64  25 2.65  14 2.66  33 2.68  30 2.82
                             2 2.89
  17  0.626  0.210  0.421-   4 2.62   9 2.62  11 2.65  15 2.65  13 2.66  25 2.66  18 2.75  60 2.76
                            19 2.84
  18  0.547  0.376  0.317-  67 2.57  60 2.59  75 2.61  44 2.65  68 2.65  26 2.67  30 2.70  19 2.73
                            17 2.75  15 2.76   3 2.81  25 2.92
  19  0.533  0.125  0.316-  43 2.55  80 2.56  68 2.58  59 2.63  61 2.63   1 2.64   3 2.69  18 2.73
                            60 2.77  11 2.82  17 2.84  13 2.86
  20  0.547  0.124  0.040-  37 2.55  57 2.56  48 2.58  62 2.64  63 2.68  47 2.68  45 2.68  56 2.70
                            34 2.71
  21  0.121  0.460  0.128-  40 2.52  36 2.53  47 2.53  42 2.60  69 2.61  64 2.62  70 2.64  50 2.64
                            58 2.67  31 2.70  57 2.71  74 2.72
  22  0.042  0.137  0.314-  65 2.51  55 2.54  77 2.57  43 2.57  39 2.58  75 2.60  60 2.68   2 2.69
                            52 2.73  10 2.78   9 2.81   6 2.86  31 3.39
  23  0.042  0.130  0.033-  70 2.58  40 2.60  41 2.61  45 2.62  62 2.64  76 2.64  24 2.69  35 2.73
                            53 2.78
  24  0.130  0.958  0.132-  79 2.51  77 2.54  35 2.57  53 2.57  55 2.58  70 2.62  38 2.64  58 2.64
                            73 2.65  23 2.69  66 2.70  41 2.72
  25  0.375  0.463  0.429-  15 2.64  14 2.64  16 2.65  17 2.66  13 2.69   5 2.70  30 2.87   3 2.89
                            18 2.92
  26  0.455  0.546  0.219-  73 2.50  74 2.54  51 2.56  79 2.61  64 2.63  30 2.65  18 2.67  68 2.67
                            78 2.67  32 2.68  67 2.72  44 2.75
  27  0.622  0.711  0.424-  14 2.61   8 2.62  15 2.62  11 2.64  12 2.65   7 2.65  44 2.70  61 2.78
                            29 2.79
  28  0.956  0.790  0.221-  58 2.57  66 2.57  50 2.58  42 2.59  49 2.61   1 2.62  64 2.63   2 2.65
                            59 2.70  33 2.72  79 2.76  77 2.77
  29  0.794  0.623  0.319-  39 2.54  42 2.56  75 2.58  32 2.61  44 2.64  33 2.65   1 2.67  61 2.68
                            49 2.68  27 2.79   7 2.79  12 2.82
  30  0.291  0.631  0.319-  79 2.57  64 2.61  52 2.62  44 2.62   2 2.65  26 2.65  33 2.66  18 2.70
                             3 2.71  14 2.77  16 2.82  25 2.87
  31  0.203  0.281  0.225-  70 2.52  55 2.56  65 2.57  43 2.59  57 2.60   3 2.64  39 2.68  80 2.70
                            21 2.70  42 2.71  68 2.75  64 2.79  22 3.39
  32  0.706  0.549  0.221-  54 2.53  69 2.56  51 2.58  49 2.59  42 2.60  29 2.61  78 2.62  65 2.63
                            26 2.68  75 2.69  44 2.70  67 2.70
  33  0.040  0.630  0.325-   3 2.58  39 2.63  29 2.65  30 2.66   1 2.66  16 2.68   2 2.69  12 2.70
                            64 2.70  28 2.72  42 2.72   5 2.77
  34  0.797  0.862  0.042-  50 2.38  66 2.51  48 2.53  36 2.55  71 2.56  63 2.61  20 2.71  35 2.76
                            62 2.76
  35  0.056  0.866  0.038-  58 2.54  72 2.55  36 2.56  24 2.57  66 2.62  53 2.65  23 2.73  62 2.73
                            34 2.76
  36  0.046  0.628  0.037-  21 2.53  34 2.55  35 2.56  58 2.58  50 2.61  47 2.63  72 2.64  40 2.69
                            71 2.72
  37  0.627  0.222  0.129-  51 2.51  74 2.51  67 2.52  56 2.53  41 2.55  20 2.55  68 2.56  59 2.56
                            62 2.59  66 2.66  57 2.73  48 2.89
  38  0.382  0.955  0.130-  53 2.47  80 2.48  45 2.49  78 2.53  48 2.54  73 2.55  63 2.55  54 2.56
                            55 2.59  57 2.62  24 2.64  70 2.67
  39  0.036  0.384  0.325-  29 2.54   3 2.55  22 2.58  75 2.60  33 2.63  42 2.67  10 2.68  31 2.68
                             7 2.68  65 2.77   5 2.77  43 2.79
  40  0.031  0.382  0.038-  69 2.44  21 2.52  71 2.53  76 2.56  70 2.57  23 2.60  36 2.69  45 2.78
                            47 2.78
  41  0.872  0.215  0.128-  76 2.45  65 2.52  77 2.53  67 2.54  37 2.55  69 2.57  62 2.57  51 2.59
                            23 2.61  70 2.65  66 2.66  24 2.72
  42  0.955  0.545  0.224-  50 2.56  29 2.56  28 2.59  21 2.60  32 2.60  69 2.61  49 2.63  65 2.64
                            64 2.65  39 2.67  31 2.71  33 2.72
  43  0.296  0.116  0.321-  52 2.53  55 2.53  19 2.55  61 2.56  22 2.57  31 2.59   8 2.60  80 2.67
                             3 2.71  10 2.73  39 2.79  13 2.83
  44  0.540  0.630  0.322-  61 2.56  52 2.58  30 2.62  78 2.64  29 2.64  18 2.65  75 2.65  27 2.70
                            32 2.70  15 2.70  14 2.70  26 2.75
  45  0.295  0.119  0.039-  70 2.49  38 2.49  57 2.57  53 2.60  23 2.62  63 2.64  20 2.68  47 2.75
                            40 2.78
  46  0.548  0.625  0.044-  51 2.38  73 2.39  54 2.41  71 2.56  53 2.56  63 2.58  76 2.59  56 2.62
                            72 2.64
[...]
   -.231E+02 -.223E+02 0.647E+01   0.239E+02 0.229E+02 -.675E+01   -.840E+00 -.733E+00 0.672E+00   -.459E-01 0.176E-01 -.435E+00
   0.171E+02 0.207E+02 -.125E+04   -.172E+02 -.212E+02 0.125E+04   0.134E+00 0.507E+00 0.593E+00   0.369E-01 -.670E-02 -.203E+00
   -.598E+02 -.273E+01 0.244E+04   0.601E+02 0.145E+01 -.244E+04   -.382E+00 0.132E+01 -.271E+01   -.892E-02 -.117E-01 -.183E-01
   0.306E+02 -.140E+02 0.247E+04   -.305E+02 0.126E+02 -.247E+04   -.613E-01 0.150E+01 -.227E+01   0.112E-01 -.343E-01 -.567E-02
   0.227E+02 -.380E+01 0.247E+04   -.230E+02 0.446E+01 -.247E+04   0.164E+00 -.634E+00 -.286E+01   0.493E-01 -.583E-01 -.776E-02
   0.787E+01 0.518E+02 0.129E+04   -.697E+01 -.512E+02 -.129E+04   -.920E+00 -.703E+00 -.126E+00   -.212E-01 0.581E-01 -.178E+00
   0.332E+02 -.548E+02 0.128E+04   -.331E+02 0.545E+02 -.128E+04   -.121E+00 0.232E+00 -.433E+00   -.153E-01 -.394E-02 -.111E+00
   -.624E+02 -.265E+02 -.124E+04   0.626E+02 0.267E+02 0.124E+04   -.264E+00 -.225E+00 0.784E+00   0.738E-01 -.682E-02 -.222E+00
   -.936E+02 0.205E+02 0.248E+04   0.932E+02 -.203E+02 -.248E+04   0.264E+00 -.253E+00 -.266E+01   0.396E-01 0.890E-03 0.666E-02
   -.335E+02 0.461E+02 0.130E+04   0.326E+02 -.456E+02 -.130E+04   0.820E+00 -.544E+00 -.424E+00   0.718E-02 0.383E-01 -.170E+00
   -.452E+02 0.345E+01 -.451E+02   0.449E+02 -.302E+01 0.454E+02   0.187E+00 -.440E+00 -.112E+00   0.310E-01 -.330E-01 -.270E+00
   0.800E+01 -.880E+02 -.125E+04   -.806E+01 0.879E+02 0.125E+04   0.775E-01 0.158E+00 0.117E+01   0.691E-02 -.158E-02 -.277E+00
   0.135E+02 0.298E+02 -.123E+04   -.136E+02 -.298E+02 0.123E+04   0.109E+00 -.490E-01 0.437E+00   -.261E-01 0.487E-01 -.236E+00
   0.144E+02 -.467E+02 0.245E+04   -.151E+02 0.459E+02 -.245E+04   0.666E+00 0.691E+00 -.277E+01   0.320E-01 0.542E-01 0.932E-02
   0.445E+01 -.196E+02 0.276E+04   -.454E+01 0.198E+02 -.275E+04   0.107E+00 -.226E+00 -.235E+01   -.876E-02 -.345E-01 0.469E-01
   0.119E+03 0.292E+02 0.279E+04   -.120E+03 -.285E+02 -.279E+04   0.439E+00 -.683E+00 -.234E+01   0.188E-01 0.126E-01 0.346E-04
   -.362E+02 -.284E+02 0.142E+04   0.358E+02 0.273E+02 -.142E+04   0.445E+00 0.109E+01 -.473E+00   -.550E-01 0.171E-01 -.208E+00
   -.602E+02 0.664E+02 0.236E+02   0.603E+02 -.662E+02 -.242E+02   -.618E-01 -.292E+00 0.807E+00   -.456E-01 0.202E-01 -.316E+00
   -.888E+02 0.192E+02 0.141E+04   0.883E+02 -.187E+02 -.141E+04   0.515E+00 -.486E+00 -.115E+00   -.198E-01 -.290E-01 -.225E+00
   -.203E+02 0.955E+01 0.139E+04   0.205E+02 -.983E+01 -.139E+04   -.159E+00 0.280E+00 -.110E+00   -.201E-01 0.479E-01 -.222E+00
   0.464E+02 0.676E+01 -.140E+04   -.462E+02 -.702E+01 0.140E+04   -.281E+00 0.268E+00 0.151E+01   0.503E-02 0.432E-01 -.334E+00
   0.529E+02 -.806E+02 0.277E+04   -.526E+02 0.805E+02 -.276E+04   -.362E+00 0.209E+00 -.241E+01   0.988E-02 -.412E-01 0.281E-01
   -.138E+02 0.175E+01 0.138E+04   0.140E+02 -.151E+01 -.138E+04   -.111E+00 -.240E+00 -.413E+00   -.725E-01 -.278E-01 -.222E+00
   0.163E+02 -.683E+02 -.150E+02   -.156E+02 0.678E+02 0.156E+02   -.798E+00 0.585E+00 -.342E+00   0.228E-01 -.601E-02 -.317E+00
   0.311E+02 0.340E+02 0.344E+04   -.312E+02 -.332E+02 -.344E+04   0.136E+00 -.867E+00 -.360E+01   -.674E-01 0.630E-01 0.483E-01
   0.627E+02 0.789E+01 0.174E+04   -.628E+02 -.861E+01 -.174E+04   0.120E+00 0.703E+00 -.202E+00   -.229E-01 0.448E-01 -.279E+00
   0.102E+03 -.306E+02 0.172E+04   -.102E+03 0.307E+02 -.172E+04   -.208E+00 0.133E-01 0.463E-01   0.709E-01 -.497E-01 -.259E+00
   0.200E+02 0.675E+02 0.813E+02   -.206E+02 -.674E+02 -.818E+02   0.488E+00 -.106E+00 0.841E+00   -.225E-01 0.342E-01 -.352E+00
   0.160E+02 0.548E+02 -.170E+04   -.156E+02 -.543E+02 0.170E+04   -.445E+00 -.467E+00 0.155E+01   -.179E-01 -.572E-01 -.313E+00
[...]
   0.609E+02 -.362E+02 -.356E+01   -.602E+02 0.356E+02 0.361E+01   -.733E+00 0.461E+00 0.482E+00   -.329E-01 0.903E-02 -.385E+00
   -.740E+02 0.113E+01 0.155E+04   0.736E+02 -.999E+00 -.155E+04   0.409E+00 -.628E-01 -.126E+00   -.389E-01 0.359E-04 -.241E+00
   -.135E+02 0.191E+02 0.162E+04   0.138E+02 -.193E+02 -.162E+04   -.355E+00 0.221E+00 -.431E+00   0.369E-01 -.201E-01 -.171E+00
   -.101E+03 -.430E+01 0.308E+04   0.101E+03 0.437E+01 -.308E+04   -.582E+00 -.131E-01 -.134E+01   -.469E-01 -.226E-01 0.873E-02
   0.703E+02 -.522E+02 0.309E+04   -.706E+02 0.528E+02 -.308E+04   0.376E+00 -.569E+00 -.837E+00   -.827E-02 -.874E-01 0.148E-01
   0.151E+02 -.401E+02 0.155E+04   -.147E+02 0.399E+02 -.155E+04   -.404E+00 0.227E+00 -.103E-01   0.278E-01 -.420E-01 -.201E+00
   0.519E+02 0.272E+01 0.159E+04   -.514E+02 -.272E+01 -.159E+04   -.474E+00 0.373E-01 -.141E+00   -.838E-02 0.621E-02 -.290E+00
   -.398E+02 -.725E+02 -.155E+04   0.396E+02 0.726E+02 0.155E+04   0.140E+00 -.905E-01 0.813E+00   0.121E-01 -.116E-01 -.294E+00
   -.539E+02 0.295E+02 0.307E+04   0.544E+02 -.290E+02 -.307E+04   -.428E+00 -.582E+00 -.188E+01   -.274E-01 0.517E-01 0.204E-01
   -.455E+02 0.740E+02 0.774E+02   0.458E+02 -.737E+02 -.771E+02   -.378E+00 -.335E+00 0.400E-01   0.750E-01 -.232E-01 -.321E+00
   -.144E+00 0.613E+02 -.422E-01   0.166E+00 -.606E+02 0.322E+00   0.849E-01 -.861E+00 -.233E-01   -.706E-01 0.667E-01 -.389E+00
   0.471E+02 0.686E+01 -.314E+02   -.468E+02 -.631E+01 0.317E+02   -.367E+00 -.601E+00 0.297E-01   0.572E-01 0.357E-01 -.351E+00
   0.217E+02 -.532E+02 0.325E+02   -.219E+02 0.528E+02 -.323E+02   0.327E+00 0.457E+00 0.174E+00   -.973E-01 0.279E-01 -.330E+00
   -.335E+01 -.296E+01 -.347E+03   0.356E+01 0.343E+01 0.349E+03   -.251E+00 -.489E+00 -.186E+01   -.187E-02 -.858E-03 0.121E-01
   -.172E+01 0.538E+00 0.928E+01   0.488E-14 0.227E-12 -.915E-11   0.145E+01 -.634E+00 0.451E+01   0.198E+00 0.724E-01 -.138E+02

 POSITION                                       TOTAL-FORCE (eV/Angst)
     12.94429      8.04749      6.97981         0.002019     -0.000522      0.000919
      5.10479      8.07526      6.94878         0.002172     -0.000929      0.000874
      4.93577      3.48482      7.06310         0.000180      0.000714     -0.003283
     14.31768      8.79580      9.32787         0.001672     -0.000008      0.002257
      3.72271      4.24347      9.56118         0.004705      0.002450      0.005986
      6.40059      8.79184      9.28589         0.006809     -0.000686      0.000957
     11.66437      4.20706      9.37660         0.001631     -0.000228      0.004569
      9.03188      8.77539      9.24107         0.001007     -0.000768      0.000036
     10.35450      1.93256      9.26075         0.004754      0.001386      0.000221
      2.43243      1.92220      9.27090         0.001339     -0.000718     -0.004748
     11.67698      8.78297      9.32466         0.003199      0.002075     -0.003225
     12.99326      6.49288      9.36854         0.004363     -0.001057     -0.003107
      5.09054      1.90050      9.45971         0.007722      0.001621     -0.001053
      7.73016      6.51551      9.32583         0.003733      0.000908      0.001100
      9.05066      4.21895      9.30368         0.003071      0.000063      0.000062
      5.07330      6.51505      9.37314         0.001494     -0.000528      0.002950
      7.73812      1.92064      9.27553         0.003325      0.001149      0.002811
      7.76230      3.43184      6.97452         0.001773     -0.000977     -0.001229
      6.27464      1.14605      6.95564         0.000480      0.000339      0.000567
      6.42858      1.12974      0.87872        -0.016363     -0.016946     -0.006235
      3.70548      4.20844      2.81687         0.016510      0.007984     -0.035318
      1.17203      1.25270      6.90624         0.001991      0.000740      0.000069
      1.13569      1.19080      0.72557        -0.015235      0.009034      0.004555
      6.43607      8.76100      2.90031        -0.012138      0.016089      0.002314
      6.42143      4.23468      9.38262         0.003844      0.000143     -0.012187
      7.68135      4.99073      4.81474        -0.007914     -0.003930     -0.000002
     10.33903      6.50521      9.31998         0.001640      0.000307      0.002473
     14.26424      7.22593      4.86299         0.037003     -0.035498     -0.033094
     11.67062      5.69241      7.01566         0.001837     -0.000595     -0.000555
      6.40790      5.76946      7.00443         0.001691      0.001808     -0.000437
      3.62119      2.56589      4.96023         0.072600      0.040964      0.090946
     10.36091      5.02430      4.85652        -0.000015     -0.017548     -0.040548
      3.75247      5.76488      7.16079         0.004963      0.001160      0.001961
     12.96907      7.87977      0.92567        -0.004675     -0.001382      0.010156
      5.16340      7.91719      0.83030         0.017747      0.015104      0.011062
      3.80701      5.74502      0.81381         0.013041     -0.006642     -0.022923
      7.79852      2.03245      2.83251        -0.020328     -0.010306      0.017704
      9.07755      8.73373      2.85743         0.000347     -0.000131     -0.007486
      2.39847      3.50979      7.14197         0.002016      0.001776      0.001926
      2.34409      3.49051      0.82510         0.005800      0.012190     -0.016904
     10.34814      1.96983      2.82249        -0.021768      0.008747     -0.004585
     12.96035      4.98587      4.92559         0.015938     -0.014959     -0.009018
      3.73085      1.05508      7.06338         0.002755     -0.000905      0.000572
      9.03059      5.75670      7.08243         0.004383      0.000863      0.000003
      3.74824      1.09182      0.86700        -0.005419     -0.000703     -0.010042
      9.09121      5.71867      0.96043        -0.010173      0.023823     -0.020109
      5.12448      3.47045      0.85563         0.000386      0.033305      0.011025
     11.62092      8.68758      2.90590         0.001854     -0.004067      0.026473
     11.65313      7.26450      4.84229        -0.018579     -0.007441     -0.030673
     12.86756      6.45280      2.83379         0.029589      0.005818      0.004539
      9.04201      4.20780      2.79628         0.008234      0.004202     -0.017610
      7.76562      8.00297      6.99034         0.004143      0.000039      0.000640
      7.81315      7.93922      0.88653        -0.011169      0.006398      0.010832
     10.39144      6.53566      2.82198         0.007138     -0.005594      0.009483
      2.51347      0.25826      5.00083         0.018413      0.011836      0.002862
      7.74264      3.48454      0.76157        -0.003775     -0.006784      0.005201
      5.07835      1.87760      2.91701        -0.004678     -0.006342     -0.004129
      5.16037      6.44715      2.89923        -0.011304     -0.001498     -0.008902
      7.70892      0.45986      4.84799        -0.030644      0.038443      0.032116
      9.05275      1.18966      6.97170         0.002091      0.001053      0.001030
[...]
      9.07350      2.65252      4.91360         0.000054     -0.023751     -0.020886
      6.37169      2.66558      4.85827        -0.052217     -0.031972      0.086607
     11.65891      4.17486      2.81483        -0.021498      0.001652     -0.031517
      2.44098      1.89237      2.83279        -0.007434      0.009799      0.011099
     11.64953      5.68621      0.88546         0.005406      0.027239     -0.004614
      6.44743      5.71949      0.92597        -0.003901      0.009400     -0.005379
      7.82927      6.50651      2.83621        -0.014689      0.003849     -0.007977
      6.41922      4.13007      2.78290        -0.007885      0.003873     -0.023351
     10.36812      3.46739      7.04659         0.001798     -0.000206     -0.001500
     10.34410      3.45013      0.86804         0.008060     -0.018268     -0.006208
     10.37063      0.48410      4.87151        -0.021975     -0.018724     -0.012534
      9.04079      7.29017      4.93700         0.014540     -0.030533     -0.014028
      6.46265      7.29503      4.94074         0.009775      0.007023     -0.012631
      5.04247      0.27633      4.88406         0.023597      0.032644      0.038505
      4.77898      3.16044     10.58123        -0.039545     -0.022512      0.004024
    total drift:                               -0.070709     -0.023185     -0.035874

  FREE ENERGIE OF THE ION-ELECTRON SYSTEM (eV)
  free  energy   TOTEN  =      -511.03552348 eV

  energy  without entropy=     -511.06016549  energy(sigma->0) =     -511.04373748

 d Force =-0.1924787E-03[-0.196E-03,-0.189E-03]  d Energy =-0.1514982E-03-0.410E-04
 d Force = 0.3887304E+01[ 0.389E+01, 0.389E+01]  d Ewald  = 0.3887305E+01-0.992E-06

 NEB: the previous image is higher in energy: F
 NEB: the next image is higher in energy    : F
 NEB: image is at an extrema
 NEB: diff energy (min, max):     0.028458  511.035523

 NEB: Tangent
      0.00165      0.00890      0.00265
      0.00211     -0.00007      0.00995
     -0.02362      0.00796      0.00920
      0.02437      0.00116     -0.00723
      0.04943      0.00236      0.15501
      0.02319     -0.00232      0.00991
      0.01475      0.00594     -0.01369
      0.01969     -0.01320     -0.00172
      0.02502     -0.00174      0.00185
      0.02204     -0.00296     -0.02626
      0.02160      0.00810     -0.00721
      0.03185     -0.01585     -0.01823
      0.05958      0.02020      0.06575
      0.01249     -0.00407      0.00357
      0.01718     -0.00204      0.01392
      0.02555     -0.00510      0.02038
      0.02589      0.01000      0.02283
      0.00855     -0.01196     -0.01396
     -0.01481      0.00386      0.02496
      0.00000      0.00000      0.00000
      0.00000      0.00000      0.00000
      0.00638     -0.00155     -0.00273
      0.00000      0.00000      0.00000
      0.00000      0.00000      0.00000
      0.02661      0.00593     -0.16510
      0.00000      0.00000      0.00000
      0.02281     -0.00218      0.00311
      0.00000      0.00000      0.00000
      0.00951     -0.00220     -0.00563
      0.00355      0.00350     -0.01362
      0.00000      0.00000      0.00000
      0.00000      0.00000      0.00000
      0.00544      0.00930      0.01080
      0.00000      0.00000      0.00000
      0.00000      0.00000      0.00000
      0.00000      0.00000      0.00000
      0.00000      0.00000      0.00000
      0.00000      0.00000      0.00000
     -0.00092      0.00017     -0.00220
      0.00000      0.00000      0.00000
      0.00000      0.00000      0.00000
      0.00000      0.00000      0.00000
     -0.00267     -0.01279     -0.01056
      0.01059     -0.00626      0.00186
      0.00000      0.00000      0.00000
      0.00000      0.00000      0.00000
      0.00000      0.00000      0.00000
      0.00000      0.00000      0.00000
      0.00000      0.00000      0.00000
      0.00000      0.00000      0.00000
      0.00000      0.00000      0.00000
      0.00349     -0.00263      0.00154
      0.00000      0.00000      0.00000
      0.00000      0.00000      0.00000
      0.00000      0.00000      0.00000
      0.00000      0.00000      0.00000
      0.00000      0.00000      0.00000
      0.00000      0.00000      0.00000
      0.00000      0.00000      0.00000
      0.00311     -0.00025      0.00471
[...]
      0.00000      0.00000      0.00000
      0.00000      0.00000      0.00000
      0.00000      0.00000      0.00000
      0.00000      0.00000      0.00000
      0.00000      0.00000      0.00000
      0.00000      0.00000      0.00000
      0.00000      0.00000      0.00000
      0.00000      0.00000      0.00000
      0.00710     -0.00453     -0.00771
      0.00000      0.00000      0.00000
      0.00000      0.00000      0.00000
      0.00000      0.00000      0.00000
      0.00000      0.00000      0.00000
      0.00000      0.00000      0.00000
     -0.81280     -0.46668      0.21312

 NEB: forces: par spring, perp REAL, dneb     0.552997    0.020306    0.000000
 NEB: distance to prev, next image, angle between     0.511486    0.622085  162.287427
 NEB: projections on to tangent (spring, REAL)     0.552997    0.048647

 stress matrix after NEB project (eV)
    -32.39227      0.13505      0.71654
      0.13505    -33.95870     -0.42590
      0.71654     -0.42590     -1.26552
  FORCES: max atom, RMS     0.048646    0.005857
  FORCE total and by dimension    0.052715    0.039535
  Stress total and by dimension   46.962544   33.958702
 Quasi-Newton relaxation of ions (Broydens 2nd method)
  g(Force)  = 0.178E-03   g(Stress)= 0.000E+00

 retain information from N=  5 steps
 eigenvalues of (default step * inverse Hessian matrix)
  average eigenvalue of G=   4.6639
 eigenvalue spectrum of G is  7.8018  7.8018  3.3706  3.3706  0.9746

 reached required accuracy - stopping structural energy minimisation