 vasp.5.4.4.18Apr17-6-g9f103f2a35 (build Nov 30 2020 22:55:02) complex

 executed on             LinuxIFC date 2022.03.26  15:30:41

 INCAR:
 POTCAR:    PAW_PBE Pt 04Feb2005
 POTCAR:    PAW_PBE H 15Jun2001

 POTCAR:    PAW_PBE Pt 04Feb2005
   VRHFIN =Pt: s1d9

   TITEL  = PAW_PBE Pt 04Feb2005
   POMASS =  195.080; ZVAL   =   10.000    mass and valenz
   ENMAX  =  230.283; ENMIN  =  172.712 eV

 POTCAR:    PAW_PBE H 15Jun2001
   VRHFIN =H: ultrasoft test

   TITEL  = PAW_PBE H 15Jun2001
   POMASS =    1.000; ZVAL   =    1.000    mass and valenz
   ENMAX  =  250.000; ENMIN  =  200.000 eV

 Optimization of the real space projectors (new method)

 maximal supplied QI-value         = 14.36
 optimisation between [QCUT,QGAM] = [ 11.92, 23.98] = [ 39.79,161.09] Ry
 Optimized for a Real-space Cutoff    1.49 Angstroem

   l    n(q)    QCUT    max X(q) W(low)/X(q) W(high)/X(q)  e(spline)
   2     10    11.920    66.195    0.79E-04    0.18E-03    0.24E-06
   2     10    11.920    64.643    0.81E-04    0.19E-03    0.24E-06
   0     11    11.920    95.520    0.28E-04    0.54E-04    0.18E-06
   0     11    11.920    63.403    0.27E-04    0.52E-04    0.17E-06
   1     10    11.920    19.961    0.18E-04    0.11E-03    0.23E-06
   1     10    11.920    13.289    0.25E-04    0.87E-04    0.19E-06
 Optimization of the real space projectors (new method)

 maximal supplied QI-value         = 34.20
 optimisation between [QCUT,QGAM] = [ 11.97, 23.94] = [ 40.13,160.53] Ry
 Optimized for a Real-space Cutoff    1.18 Angstroem

   l    n(q)    QCUT    max X(q) W(low)/X(q) W(high)/X(q)  e(spline)
   0      8    11.971    19.460    0.15E-03    0.31E-03    0.25E-06
   0      8    11.971    12.209    0.13E-03    0.29E-03    0.25E-06
   1      8    11.971     4.655    0.22E-03    0.24E-03    0.21E-06
  PAW_PBE Pt 04Feb2005                  :
  PAW_PBE H 15Jun2001                   :

 POSCAR: Pt111
  positions in cartesian coordinates
 exchange correlation table for  LEXCH =        8
   RHO(1)=    0.500       N(1)  =     2000
   RHO(2)=  100.500       N(2)  =     4000

 ion  position               nearest neighbor table
   1  0.785  0.869  0.326-  71 2.76  20 2.76  55 2.76  43 2.80  73 2.80  56 2.80  72 2.80   2 2.81
                             3 2.81  27 2.83  35 2.84  34 2.84
   2  0.035  0.869  0.326-  55 2.76  65 2.76  68 2.76  23 2.80  47 2.80  57 2.80   3 2.80   1 2.81
                            72 2.81  27 2.84  29 2.84  39 2.84
   3  0.035  0.619  0.326-  55 2.76  12 2.76  76 2.76   2 2.80  57 2.81   1 2.81  56 2.81   9 2.81
                            15 2.81  39 2.84  28 2.84  35 2.84
   4  0.786  0.869  0.021-  21 2.79  19 2.79  78 2.79  44 2.80  74 2.80   5 2.81  75 2.81  58 2.81
                             6 2.81
   5  0.036  0.869  0.021-  70 2.79  49 2.79  78 2.79  74 2.80  48 2.80   4 2.81   6 2.81  24 2.81
                            59 2.81
   6  0.036  0.619  0.021-  46 2.78  70 2.79  21 2.80   5 2.81  18 2.81  58 2.81   4 2.81  59 2.81
                            10 2.81
   7  0.619  0.202  0.125-  79 2.73  71 2.73  80 2.74  42 2.79  74 2.79  44 2.79  11 2.80  53 2.80
                            78 2.81  22 2.81  61 2.81  19 2.81
   8  0.369  0.952  0.125-  69 2.73  26 2.74  66 2.74  24 2.79  75 2.79  16 2.79  25 2.80  60 2.80
                            49 2.81  19 2.81  54 2.81  53 2.81
   9  0.036  0.368  0.326-  77 2.75  12 2.75  62 2.77  15 2.80  13 2.80   3 2.81  47 2.81  56 2.81
                            63 2.81  30 2.83  28 2.84  33 2.84
  10  0.036  0.368  0.021-  54 2.79  46 2.79  45 2.80  18 2.81  16 2.81  48 2.81   6 2.81  58 2.81
                            64 2.81
  11  0.869  0.202  0.125-  77 2.73  65 2.74  79 2.74  74 2.79  64 2.79  48 2.80   7 2.80  54 2.80
                            78 2.81  22 2.81  45 2.81  49 2.81
  12  0.952  0.535  0.225-  21 2.73  45 2.73  46 2.74   9 2.75   3 2.76  56 2.76  55 2.80  20 2.81
                            76 2.81  62 2.81  77 2.81  67 2.81
  13  0.285  0.119  0.326-  26 2.75  69 2.75  62 2.77  15 2.80   9 2.80  43 2.81  47 2.81  73 2.81
                            23 2.81  31 2.82  36 2.84  33 2.84
  14  0.535  0.619  0.327-  51 2.77  66 2.77  67 2.77  41 2.80  63 2.80  57 2.81  23 2.81  56 2.81
                            73 2.81  52 2.87  38 2.87  37 2.88
  15  0.285  0.368  0.326-  76 2.75  80 2.75  62 2.77   9 2.80  13 2.80   3 2.81  43 2.81  57 2.81
                            41 2.81  50 2.82  36 2.84  28 2.84
  16  0.286  0.119  0.021-  53 2.79  54 2.79   8 2.79  18 2.81  10 2.81  44 2.81  75 2.81  48 2.81
                            24 2.81
  17  0.536  0.619  0.021-  25 2.79  22 2.79  60 2.79  64 2.80  59 2.81  58 2.81  75 2.81  42 2.81
                            24 2.81
  18  0.286  0.369  0.021-  53 2.79  46 2.79  61 2.80  10 2.81  16 2.81   6 2.81  44 2.81  42 2.81
                            59 2.81
  19  0.619  0.952  0.125-  71 2.73  20 2.73  69 2.74  75 2.79   4 2.79  44 2.79  21 2.80  53 2.80
                            78 2.80  25 2.81   8 2.81   7 2.81
  20  0.702  0.785  0.225-  19 2.73  25 2.73  21 2.74  56 2.76   1 2.76  73 2.76  67 2.80  66 2.80
                            12 2.81  55 2.81  69 2.81  71 2.81
  21  0.869  0.702  0.125-  12 2.73  55 2.73  20 2.74  58 2.79   4 2.79   6 2.80  19 2.80  46 2.80
                            78 2.80  25 2.81  70 2.81  45 2.81
  22  0.619  0.452  0.125-  79 2.73  67 2.74  51 2.74  42 2.79  17 2.79  64 2.79  60 2.80  25 2.80
                            61 2.80  45 2.80   7 2.81  11 2.81
  23  0.285  0.869  0.326-  68 2.75  66 2.76  26 2.76  57 2.80   2 2.80  47 2.81  14 2.81  73 2.81
                            13 2.81  31 2.82  29 2.84  37 2.87
  24  0.286  0.868  0.021-   8 2.79  60 2.79  49 2.79  59 2.80   5 2.81  48 2.81  17 2.81  75 2.81
                            16 2.81
  25  0.619  0.702  0.125-  20 2.73  67 2.74  66 2.74  17 2.79  75 2.79  58 2.79  60 2.80  22 2.80
                             8 2.80  45 2.80  19 2.81  21 2.81
  26  0.202  0.035  0.225-  49 2.73   8 2.74  54 2.74  13 2.75  47 2.76  23 2.76  69 2.81  77 2.81
                            62 2.81  65 2.81  68 2.81  66 2.81
  27  0.868  0.952  0.432-  96 1.85  87 1.85  97 1.85  29 2.80  39 2.80  34 2.80  35 2.80  40 2.80
                            32 2.80   1 2.83  72 2.84   2 2.84
  28  0.118  0.452  0.432-  88 1.85  89 1.85  90 1.85  30 2.79  50 2.79  33 2.80  36 2.80  39 2.81
                            35 2.81   3 2.84   9 2.84  15 2.84
  29  0.117  0.952  0.432-  84 1.84  94 1.85  97 1.85  37 2.79  32 2.79  27 2.80  33 2.81  39 2.81
                            31 2.81  47 2.84   2 2.84  23 2.84
  30  0.869  0.451  0.431-  83 1.69  89 1.86  93 1.86  28 2.79  33 2.79  35 2.81  32 2.81  52 2.82
                            38 2.82  63 2.82  56 2.82   9 2.83
  31  0.367  0.954  0.431-  85 1.69  95 1.86  94 1.86  33 2.79  36 2.79  34 2.81  29 2.81  52 2.82
                            37 2.82  23 2.82  13 2.82  73 2.83
  32  0.868  0.202  0.432-  92 1.84  93 1.85  97 1.85  29 2.79  38 2.80  27 2.80  33 2.81  40 2.81
                            30 2.81  72 2.84  47 2.84  63 2.84
  33  0.118  0.202  0.432-  93 1.85  94 1.85  90 1.85  31 2.79  30 2.79  28 2.80  36 2.80  32 2.81
                            29 2.81  47 2.84   9 2.84  13 2.84
  34  0.618  0.952  0.432-  86 1.84  95 1.85  96 1.85  40 2.79  52 2.80  27 2.80  36 2.81  35 2.81
                            31 2.81  43 2.84  73 2.84   1 2.84
  35  0.868  0.702  0.432-  86 1.84  89 1.85  87 1.85  39 2.79  52 2.80  27 2.80  28 2.81  34 2.81
                            30 2.81  56 2.84   3 2.84   1 2.84
  36  0.368  0.202  0.432-  91 1.85  95 1.85  90 1.85  31 2.79  50 2.79  28 2.80  33 2.80  40 2.81
                            34 2.81  43 2.84  13 2.84  15 2.84
  37  0.366  0.703  0.434-  82 1.82  84 1.86  85 2.00  81 2.00  29 2.79  39 2.79  50 2.82  31 2.82
                            52 2.84  38 2.84  57 2.87  23 2.87  14 2.88
  38  0.619  0.450  0.434-  82 1.82  92 1.86  83 2.00  81 2.00  40 2.79  32 2.80  50 2.82  30 2.82
                            52 2.84  37 2.84  41 2.87  63 2.87  14 2.87
  39  0.117  0.702  0.432-  84 1.85  88 1.85  87 1.85  37 2.79  35 2.79  27 2.80  28 2.81  29 2.81
                            50 2.81   3 2.84   2 2.84  57 2.84
  40  0.618  0.201  0.432-  92 1.84  91 1.85  96 1.85  38 2.79  34 2.79  27 2.80  36 2.81  32 2.81
                            50 2.81  43 2.84  72 2.84  41 2.84
  41  0.535  0.369  0.326-  51 2.76  79 2.76  80 2.76  63 2.80  72 2.80  14 2.80  43 2.81  57 2.81
                            15 2.81  50 2.83  40 2.84  38 2.87
  42  0.536  0.369  0.021-   7 2.79  61 2.79  22 2.79  64 2.80  17 2.81  59 2.81  44 2.81  74 2.81
                            18 2.81
  43  0.535  0.119  0.326-  71 2.76  69 2.76  80 2.76   1 2.80  72 2.80  73 2.81  41 2.81  13 2.81
                            15 2.81  40 2.84  36 2.84  34 2.84
  44  0.536  0.119  0.021-  53 2.78   7 2.79  19 2.79   4 2.80  74 2.81  16 2.81  42 2.81  75 2.81
                            18 2.81
  45  0.869  0.452  0.125-  12 2.73  77 2.73  67 2.74  58 2.79  64 2.79  10 2.80  22 2.80  25 2.80
                            11 2.81  54 2.81  46 2.81  21 2.81
  46  0.118  0.453  0.124-  62 2.72  76 2.74  12 2.74   6 2.78  10 2.79  18 2.79  21 2.80  70 2.80
                            45 2.81  61 2.81  53 2.82  54 2.82
  47  0.035  0.119  0.326-  65 2.75  77 2.76  26 2.76   2 2.80  72 2.80  23 2.81  63 2.81  13 2.81
                             9 2.81  33 2.84  29 2.84  32 2.84
  48  0.036  0.118  0.021-  54 2.78  49 2.79  11 2.80   5 2.80  74 2.80  24 2.81  10 2.81  16 2.81
                            64 2.81
  49  0.119  0.952  0.125-  26 2.73  68 2.73  65 2.74   5 2.79  24 2.79  48 2.79  70 2.80  54 2.80
                            78 2.80  60 2.81   8 2.81  11 2.81
  50  0.367  0.451  0.431-  81 1.69  88 1.86  91 1.86  36 2.79  28 2.79  39 2.81  40 2.81  38 2.82
                            37 2.82  57 2.82  15 2.82  41 2.83
  51  0.452  0.535  0.225-  60 2.74  22 2.74  61 2.74  41 2.76  57 2.76  14 2.77  66 2.80  67 2.80
                            68 2.80  79 2.81  76 2.81  80 2.81
  52  0.619  0.703  0.434-  82 1.82  86 1.86  85 2.00  83 2.00  34 2.80  35 2.80  31 2.82  30 2.82
                            37 2.84  38 2.84  73 2.87  56 2.87  14 2.87
  53  0.369  0.202  0.124-  62 2.72  80 2.74  69 2.74  44 2.78  16 2.79  18 2.79   7 2.80  19 2.80
                            61 2.81   8 2.81  46 2.82  54 2.82
  54  0.118  0.202  0.124-  62 2.72  26 2.74  77 2.74  48 2.78  10 2.79  16 2.79  11 2.80  49 2.80
                            45 2.81   8 2.81  53 2.82  46 2.82
  55  0.952  0.785  0.225-  78 2.73  21 2.73  70 2.74   3 2.76   2 2.76   1 2.76  12 2.80  76 2.81
                            20 2.81  68 2.81  65 2.81  71 2.81
  56  0.785  0.619  0.326-  20 2.76  67 2.76  12 2.76  73 2.80   1 2.80  14 2.81   3 2.81  63 2.81
                             9 2.81  30 2.82  35 2.84  52 2.87
  57  0.285  0.619  0.326-  68 2.76  51 2.76  76 2.76  23 2.80   2 2.80   3 2.81  14 2.81  41 2.81
                            15 2.81  50 2.82  39 2.84  37 2.87
  58  0.786  0.619  0.021-  45 2.79  21 2.79  25 2.79  75 2.80  17 2.81   4 2.81   6 2.81  64 2.81
[...]
     10.877197  1.958938  9.508892            0           0           0
      2.460830  1.965297  9.501866            0           0           0
     12.282746  9.257096  9.510681            0           0           0
     13.686468  6.825054  9.508718            0           0           0
      5.263191  1.965253  9.501896            0           0           0
      8.052532  6.834157  9.557312            0           0           0
      9.472011  4.375028  9.557031            0           0           0
      5.258538  6.825110  9.509880            0           0           0
      8.068926  1.958371  9.509277            0           0           0
      8.075657  3.582484  7.178638            0           0           0
      8.080479  3.581853  0.469671            0           0           0
      6.671912  1.152385  7.176738            0           0           0
      6.677571  1.151743  0.466382            0           0           0
     12.284124  4.393126  2.740127            0           0           0
      3.869174  4.399369  2.731747            0           0           0
      1.056870  1.152281  7.176701            0           0           0
      1.065047  1.151227  0.466058            0           0           0
      6.673276  9.249747  2.742578            0           0           0
      6.655990  4.387702  9.485795            0           0           0
      8.076684  5.204247  4.949371            0           0           0
     10.890966  6.833488  9.557215            0           0           0
      5.277662  1.959785  2.731950            0           0           0
      2.460056  1.959334  2.731784            0           0           0
     15.089808  7.632052  4.946363            0           0           0
     12.281245  6.017017  7.178849            0           0           0
      6.669781  6.016319  7.178699            0           0           0
     12.288236  6.012034  0.470895            0           0           0
      6.677919  6.012038  0.470989            0           0           0
      8.079349  6.821419  2.743562            0           0           0
[...]
     11.103767  5.072659 10.477584            0           0           0
      6.626641  7.656926 10.427230            0           0           0
      9.474096  7.896202 10.477070            0           0           0
     12.318278  7.656196 10.425846            0           0           0
     15.084744  7.638131 10.409780            0           0           0
      5.253968  5.205837 10.402415            0           0           0
     13.689439  5.207056 10.402165            0           0           0
      3.861393  2.773425 10.402651            0           0           0
      6.664442  2.763078 10.401621            0           0           0
      9.473069  2.726969 10.426271            0           0           0
     12.280880  2.764895 10.401620            0           0           0
      2.452023  0.350115 10.402453            0           0           0
      5.271283  0.349589 10.401920            0           0           0
      8.075018  0.341692 10.410419            0           0           0
     10.871722  0.342406 10.410892            0           0           0

[...]

   5 f  =   13.448636 THz    84.500274 2PiTHz  448.598208 cm-1    55.619109 meV
             X         Y         Z           dx          dy          dz
     13.684917  8.444236  7.176960            0           0           0
      5.267411  8.443422  7.177191            0           0           0
      3.864695  6.014728  7.176712            0           0           0
     13.691222  8.441913  0.467444            0           0           0
      5.273626  8.441480  0.467652            0           0           0
      3.871644  6.011749  0.465940            0           0           0
      8.079816  1.963323  2.742115            0           0           0
      9.480276  9.249270  2.740165            0           0           0
      2.466256  3.581362  7.165287            0           0           0
      2.468578  3.581175  0.463094            0           0           0
     10.881079  1.962836  2.741687            0           0           0
     13.686917  5.203426  4.942794            0           0           0
      3.864497  1.158536  7.165394            0           0           0
      9.475147  6.012889  7.195017            0           0           0
      5.262568  3.580841  7.165419            0           0           0
      3.871632  1.151928  0.464069            0           0           0
      9.483057  6.011303  0.468171            0           0           0
      5.273626  3.581664  0.462745            0           0           0
     12.287513  9.250220  2.742272            0           0           0
     12.283580  7.632259  4.946315            0           0           0
     13.688078  6.824839  2.741483            0           0           0
      9.480463  4.394317  2.743843            0           0           0
      8.070118  8.441349  7.179032            0           0           0
      8.078951  8.440606  0.469482            0           0           0
     10.881330  6.821829  2.743344            0           0           0
      2.464341  0.343833  4.942915            0           0           0
     15.084178  9.253024  9.506008            0           0           0
      3.861476  4.391602  9.503615            0           0           0
      6.662604  9.257469  9.510979            0           0           0
     12.289999  4.387670  9.485790            0           0           0
      9.472815  9.267385  9.486257            0           0           0
     10.877197  1.958938  9.508892            0           0           0
      2.460830  1.965297  9.501866            0           0           0
     12.282746  9.257096  9.510681            0           0           0
     13.686468  6.825054  9.508718            0           0           0
      5.263191  1.965253  9.501896            0           0           0
      8.052532  6.834157  9.557312            0           0           0
      9.472011  4.375028  9.557031            0           0           0
      5.258538  6.825110  9.509880            0           0           0
      8.068926  1.958371  9.509277            0           0           0
      8.075657  3.582484  7.178638            0           0           0
      8.080479  3.581853  0.469671            0           0           0
      6.671912  1.152385  7.176738            0           0           0
      6.677571  1.151743  0.466382            0           0           0
     12.284124  4.393126  2.740127            0           0           0
      3.869174  4.399369  2.731747            0           0           0
      1.056870  1.152281  7.176701            0           0           0
      1.065047  1.151227  0.466058            0           0           0
      6.673276  9.249747  2.742578            0           0           0
      6.655990  4.387702  9.485795            0           0           0
      8.076684  5.204247  4.949371            0           0           0
     10.890966  6.833488  9.557215            0           0           0
      5.277662  1.959785  2.731950            0           0           0
      2.460056  1.959334  2.731784            0           0           0
     15.089808  7.632052  4.946363            0           0           0
     12.281245  6.017017  7.178849            0           0           0
      6.669781  6.016319  7.178699            0           0           0
     12.288236  6.012034  0.470895            0           0           0
      6.677919  6.012038  0.470989            0           0           0
      8.079349  6.821419  2.743562            0           0           0
[...]
     11.103767  5.072659 10.477584            0           0           0
      6.626641  7.656926 10.427230            0           0           0
      9.474096  7.896202 10.477070            0           0           0
     12.318278  7.656196 10.425846            0           0           0
     15.084744  7.638131 10.409780            0           0           0
      5.253968  5.205837 10.402415            0           0           0
     13.689439  5.207056 10.402165            0           0           0
      3.861393  2.773425 10.402651            0           0           0
      6.664442  2.763078 10.401621            0           0           0
      9.473069  2.726969 10.426271            0           0           0
     12.280880  2.764895 10.401620            0           0           0
      2.452023  0.350115 10.402453            0           0           0
      5.271283  0.349589 10.401920            0           0           0
      8.075018  0.341692 10.410419            0           0           0
     10.871722  0.342406 10.410892            0           0           0

   6 f/i=    5.326850 THz    33.469585 2PiTHz  177.684582 cm-1    22.030088 meV
             X         Y         Z           dx          dy          dz
     13.684917  8.444236  7.176960            0           0           0
      5.267411  8.443422  7.177191            0           0           0
      3.864695  6.014728  7.176712            0           0           0
     13.691222  8.441913  0.467444            0           0           0
      5.273626  8.441480  0.467652            0           0           0
      3.871644  6.011749  0.465940            0           0           0
      8.079816  1.963323  2.742115            0           0           0
      9.480276  9.249270  2.740165            0           0           0
      2.466256  3.581362  7.165287            0           0           0
      2.468578  3.581175  0.463094            0           0           0
     10.881079  1.962836  2.741687            0           0           0
     13.686917  5.203426  4.942794            0           0           0
      3.864497  1.158536  7.165394            0           0           0
      9.475147  6.012889  7.195017            0           0           0
      5.262568  3.580841  7.165419            0           0           0
      3.871632  1.151928  0.464069            0           0           0
      9.483057  6.011303  0.468171            0           0           0
      5.273626  3.581664  0.462745            0           0           0
     12.287513  9.250220  2.742272            0           0           0
     12.283580  7.632259  4.946315            0           0           0
     13.688078  6.824839  2.741483            0           0           0
      9.480463  4.394317  2.743843            0           0           0
      8.070118  8.441349  7.179032            0           0           0
      8.078951  8.440606  0.469482            0           0           0
     10.881330  6.821829  2.743344            0           0           0
      2.464341  0.343833  4.942915            0           0           0
     15.084178  9.253024  9.506008            0           0           0
      3.861476  4.391602  9.503615            0           0           0
      6.662604  9.257469  9.510979            0           0           0
     12.289999  4.387670  9.485790            0           0           0
      9.472815  9.267385  9.486257            0           0           0
     10.877197  1.958938  9.508892            0           0           0
      2.460830  1.965297  9.501866            0           0           0
     12.282746  9.257096  9.510681            0           0           0
     13.686468  6.825054  9.508718            0           0           0
      5.263191  1.965253  9.501896            0           0           0
      8.052532  6.834157  9.557312            0           0           0
      9.472011  4.375028  9.557031            0           0           0
      5.258538  6.825110  9.509880            0           0           0
      8.068926  1.958371  9.509277            0           0           0
      8.075657  3.582484  7.178638            0           0           0
      8.080479  3.581853  0.469671            0           0           0
      6.671912  1.152385  7.176738            0           0           0
      6.677571  1.151743  0.466382            0           0           0
     12.284124  4.393126  2.740127            0           0           0
      3.869174  4.399369  2.731747            0           0           0
      1.056870  1.152281  7.176701            0           0           0
      1.065047  1.151227  0.466058            0           0           0
      6.673276  9.249747  2.742578            0           0           0
      6.655990  4.387702  9.485795            0           0           0
      8.076684  5.204247  4.949371            0           0           0
     10.890966  6.833488  9.557215            0           0           0
      5.277662  1.959785  2.731950            0           0           0
      2.460056  1.959334  2.731784            0           0           0
     15.089808  7.632052  4.946363            0           0           0
     12.281245  6.017017  7.178849            0           0           0
      6.669781  6.016319  7.178699            0           0           0
     12.288236  6.012034  0.470895            0           0           0
      6.677919  6.012038  0.470989            0           0           0
      8.079349  6.821419  2.743562            0           0           0
[...]
     11.103767  5.072659 10.477584            0           0           0
      6.626641  7.656926 10.427230            0           0           0
      9.474096  7.896202 10.477070            0           0           0
     12.318278  7.656196 10.425846            0           0           0
     15.084744  7.638131 10.409780            0           0           0
      5.253968  5.205837 10.402415            0           0           0
     13.689439  5.207056 10.402165            0           0           0
      3.861393  2.773425 10.402651            0           0           0
      6.664442  2.763078 10.401621            0           0           0
      9.473069  2.726969 10.426271            0           0           0
     12.280880  2.764895 10.401620            0           0           0
      2.452023  0.350115 10.402453            0           0           0
      5.271283  0.349589 10.401920            0           0           0
      8.075018  0.341692 10.410419            0           0           0
     10.871722  0.342406 10.410892            0           0           0

 Finite differences POTIM=  1.500000000000000E-002
  LATTYP: Found a hexagonal cell.
 ALAT       =    11.2227001190
 C/A-ratio  =     1.9603125600

  Lattice vectors:

 A1 = (   5.6113500595,  -9.7191434021,   0.0000000000)
 A2 = ( -11.2227001190,   0.0000000000,   0.0000000000)
 A3 = (   0.0000000000,   0.0000000000, -22.0000000000)

Analysis of symmetry for initial positions (statically):
 Subroutine PRICEL returns:
 Original cell was already a primitive cell.

[...]

The static configuration has the point symmetry C_1 .

Analysis of symmetry for dynamics (positions and initial velocities):
 Subroutine PRICEL returns:
 Original cell was already a primitive cell.

[...]

The dynamic configuration has the point symmetry C_1 .

Analysis of constrained symmetry for selective dynamics:
 Subroutine PRICEL returns:
 Original cell was already a primitive cell.

[...]

The constrained configuration has the point symmetry C_1 .

Analysis of structural, dynamic, and magnetic symmetry:
 Subroutine PRICEL returns:
 Original cell was already a primitive cell.

 Routine SETGRP: Setting up the symmetry group for a
 hexagonal supercell.

 Subroutine GETGRP returns: Found  1 space group operations
 (whereof  1 operations were pure point group operations)
 out of a pool of 24 trial point group operations.

The magnetic configuration has the point symmetry C_1 .

 Subroutine INISYM returns: Found  1 space group operations
 (whereof  1 operations are pure point group operations),
 and found     1 'primitive' translations

 KPOINTS: mesh auto

Automatic generation of k-mesh.
Space group operators:
 irot       det(A)        alpha          n_x          n_y          n_z        tau_x        tau_y        tau_z
    1     1.000000     0.000000     1.000000     0.000000     0.000000     0.000000     0.000000     0.000000

 Subroutine IBZKPT returns following result:

 Found      4 irreducible k-points:

 Following reciprocal coordinates:
            Coordinates               Weight
  0.000000  0.000000  0.000000      1.000000
  0.500000  0.000000  0.000000      1.000000
  0.000000  0.500000  0.000000      1.000000
  0.500000  0.500000  0.000000      1.000000

 Following cartesian coordinates:
            Coordinates               Weight
  0.000000  0.000000  0.000000      1.000000
  0.044553 -0.025722  0.000000      1.000000
  0.000000  0.051445  0.000000      1.000000
  0.044553  0.025722  0.000000      1.000000