 vasp.5.4.4.18Apr17-6-g9f103f2a35 (build Oct 25 2019 11:13:22) complex

 executed on             LinuxIFC date 2021.10.13  21:50:08

 INCAR:
 POTCAR:    PAW_PBE Pt 04Feb2005
 POTCAR:    PAW_PBE Fe 06Sep2000
 POTCAR:    PAW_PBE Co 02Aug2007
 POTCAR:    PAW_PBE Cu 22Jun2005
 POTCAR:    PAW_PBE Ni 02Aug2007
 POTCAR:    PAW_PBE H 15Jun2001
 POTCAR:    PAW_PBE Pt 04Feb2005
   VRHFIN =Pt: s1d9

   TITEL  = PAW_PBE Pt 04Feb2005
   POMASS =  195.080; ZVAL   =   10.000    mass and valenz
   ENMAX  =  230.283; ENMIN  =  172.712 eV

 POTCAR:    PAW_PBE Fe 06Sep2000
   VRHFIN =Fe:  d7 s1

   TITEL  = PAW_PBE Fe 06Sep2000
   POMASS =   55.847; ZVAL   =    8.000    mass and valenz
   ENMAX  =  267.882; ENMIN  =  200.911 eV

 POTCAR:    PAW_PBE Co 02Aug2007
   VRHFIN =Co: d8 s1

   TITEL  = PAW_PBE Co 02Aug2007
   POMASS =   58.933; ZVAL   =    9.000    mass and valenz
   ENMAX  =  267.968; ENMIN  =  200.976 eV

 POTCAR:    PAW_PBE Cu 22Jun2005
   VRHFIN =Cu: d10 p1

   TITEL  = PAW_PBE Cu 22Jun2005
   POMASS =   63.546; ZVAL   =   11.000    mass and valenz
   ENMAX  =  295.446; ENMIN  =  221.585 eV

 POTCAR:    PAW_PBE Ni 02Aug2007
   VRHFIN =Ni:

   TITEL  = PAW_PBE Ni 02Aug2007
   POMASS =   58.690; ZVAL   =   10.000    mass and valenz
   ENMAX  =  269.532; ENMIN  =  202.149 eV

 POTCAR:    PAW_PBE H 15Jun2001
   VRHFIN =H: ultrasoft test

   TITEL  = PAW_PBE H 15Jun2001
   POMASS =    1.000; ZVAL   =    1.000    mass and valenz
   ENMAX  =  250.000; ENMIN  =  200.000 eV

 Optimization of the real space projectors (new method)

 maximal supplied QI-value         = 14.36
 optimisation between [QCUT,QGAM] = [ 11.92, 23.98] = [ 39.79,161.09] Ry
 Optimized for a Real-space Cutoff    1.49 Angstroem

   l    n(q)    QCUT    max X(q) W(low)/X(q) W(high)/X(q)  e(spline)
   2     10    11.920    66.195    0.79E-04    0.18E-03    0.24E-06
   2     10    11.920    64.643    0.81E-04    0.19E-03    0.24E-06
   0     11    11.920    95.520    0.28E-04    0.54E-04    0.18E-06
   0     11    11.920    63.403    0.27E-04    0.52E-04    0.17E-06
   1     10    11.920    19.961    0.18E-04    0.11E-03    0.23E-06
   1     10    11.920    13.289    0.25E-04    0.87E-04    0.19E-06
 Optimization of the real space projectors (new method)

[...]

   l    n(q)    QCUT    max X(q) W(low)/X(q) W(high)/X(q)  e(spline)
   2      9    11.864    60.317    0.21E-03    0.51E-03    0.25E-06
   2      9    11.864    55.921    0.21E-03    0.51E-03    0.26E-06
   0      9    11.864    51.690    0.22E-03    0.30E-04    0.17E-06
   0      9    11.864    30.015    0.20E-03    0.28E-04    0.15E-06
   1      9    11.864    18.849    0.76E-04    0.33E-03    0.17E-06
   1      9    11.864    14.624    0.60E-04    0.28E-03    0.15E-06
 Optimization of the real space projectors (new method)

 maximal supplied QI-value         = 34.20
 optimisation between [QCUT,QGAM] = [ 11.97, 23.94] = [ 40.13,160.53] Ry
 Optimized for a Real-space Cutoff    1.18 Angstroem

   l    n(q)    QCUT    max X(q) W(low)/X(q) W(high)/X(q)  e(spline)
   0      8    11.971    19.460    0.15E-03    0.31E-03    0.25E-06
   0      8    11.971    12.209    0.13E-03    0.29E-03    0.25E-06
   1      8    11.971     4.655    0.22E-03    0.24E-03    0.21E-06
  PAW_PBE Pt 04Feb2005                  :
  PAW_PBE Fe 06Sep2000                  :
  PAW_PBE Co 02Aug2007                  :
  PAW_PBE Cu 22Jun2005                  :
  PAW_PBE Ni 02Aug2007                  :
  PAW_PBE H 15Jun2001                   :

 POSCAR: 10.66
  positions in direct lattice
  velocities in cartesian coordinates
 exchange correlation table for  LEXCH =        8
   RHO(1)=    0.500       N(1)  =     2000
   RHO(2)=  100.500       N(2)  =     4000

 ion  position               nearest neighbor table
   1  0.787  0.879  0.317-  49 2.62  28 2.62  59 2.64  19 2.66  33 2.68  61 2.68  29 2.70  60 2.70
                             2 2.74  11 2.76   4 2.84  12 2.84
   2  0.042  0.882  0.316-  79 2.56  77 2.60  60 2.65  30 2.66  28 2.67  52 2.69  33 2.69  22 2.71
                             1 2.74   6 2.79   4 2.87  16 2.94
   3  0.279  0.381  0.319-  64 2.57  39 2.59  33 2.61  31 2.63  68 2.71  19 2.73  43 2.73  30 2.73
                             5 2.77  13 2.79  25 2.84  18 2.84
   4  0.870  0.964  0.425-  17 2.63  11 2.64   9 2.67  12 2.70   6 2.72  16 2.74  60 2.83   1 2.84
                             2 2.87
   5  0.121  0.462  0.426-  16 2.63  12 2.64  10 2.65   7 2.65  13 2.70  25 2.70  39 2.71  33 2.72
                             3 2.77
   6  0.125  0.964  0.422-   8 2.63  10 2.65   9 2.68  14 2.69   4 2.72  16 2.74   2 2.79  52 2.80
                            22 2.86
   7  0.874  0.460  0.425-  81 1.76   9 2.64  15 2.64   5 2.65  10 2.66  12 2.66  39 2.69  27 2.69
                            75 2.75  29 2.79
   8  0.374  0.960  0.419-  43 2.60   6 2.63  14 2.64  27 2.65  13 2.66  11 2.67  10 2.67  52 2.68
                            61 2.71
   9  0.872  0.213  0.419-  81 1.88  15 2.64   7 2.64  17 2.66  75 2.66   4 2.67   6 2.68  10 2.69
                            60 2.71  22 2.80
  10  0.125  0.212  0.421-  13 2.64   5 2.65   6 2.65   7 2.66  39 2.66   8 2.67   9 2.69  43 2.72
                            22 2.77
  11  0.624  0.961  0.422-   4 2.64  13 2.66  27 2.66  12 2.66   8 2.67  17 2.67   1 2.76  19 2.81
                            61 2.82
  12  0.873  0.710  0.424-   5 2.64   7 2.66  27 2.66  11 2.66  33 2.69  16 2.69   4 2.70  29 2.78
                             1 2.84
  13  0.374  0.209  0.423-  10 2.64  11 2.66   8 2.66  17 2.67  25 2.69   5 2.70  43 2.75   3 2.79
                            19 2.81
  14  0.377  0.712  0.422-  27 2.61   8 2.64  15 2.65  44 2.67  25 2.68   6 2.69  16 2.70  52 2.73
                            30 2.75
  15  0.626  0.462  0.421-  81 1.87   9 2.64   7 2.64  27 2.65  14 2.65  25 2.68  17 2.68  44 2.69
                            75 2.71  18 2.76
  16  0.127  0.707  0.427-  25 2.63   5 2.63  12 2.69  14 2.70  33 2.71   4 2.74   6 2.74  30 2.84
                             2 2.94
  17  0.624  0.211  0.421-   4 2.63   9 2.66  25 2.66  11 2.67  13 2.67  15 2.68  18 2.75  60 2.77
                            19 2.85
  18  0.548  0.376  0.316-  67 2.56  60 2.62  75 2.63  68 2.65  26 2.66  44 2.66  30 2.74  17 2.75
                            19 2.75  15 2.76   3 2.84  25 2.86
  19  0.534  0.125  0.314-  80 2.55  68 2.57  43 2.58  59 2.60   1 2.66  61 2.66   3 2.73  18 2.75
                            60 2.78  13 2.81  11 2.81  17 2.85
  20  0.549  0.122  0.042-  37 2.55  57 2.55  48 2.57  62 2.66  63 2.70  34 2.71  45 2.73  47 2.74
                            56 2.74
  21  0.120  0.460  0.128-  40 2.52  36 2.53  47 2.53  42 2.60  64 2.62  69 2.62  70 2.66  50 2.67
                            31 2.71  58 2.71  57 2.74  74 2.75
  22  0.044  0.136  0.314-  65 2.52  55 2.54  77 2.57  43 2.60  39 2.61  75 2.64   2 2.71  60 2.71
                            52 2.75  10 2.77   9 2.80   6 2.86  31 3.41
  23  0.042  0.131  0.034-  70 2.57  40 2.60  41 2.61  45 2.64  62 2.65  76 2.65  24 2.69  35 2.76
                            53 2.81
  24  0.131  0.958  0.132-  79 2.52  77 2.55  35 2.57  53 2.58  55 2.59  70 2.64  38 2.66  58 2.66
                            73 2.67  23 2.69  66 2.73  41 2.75
  25  0.375  0.461  0.424-  16 2.63  17 2.66  15 2.68  14 2.68  13 2.69   5 2.70  30 2.82   3 2.84
                            18 2.86
  26  0.455  0.546  0.219-  73 2.50  74 2.54  51 2.55  79 2.63  64 2.65  30 2.66  18 2.66  68 2.69
                            78 2.69  32 2.70  44 2.74  67 2.75
  27  0.622  0.712  0.423-  14 2.61   8 2.65  15 2.65  11 2.66  12 2.66   7 2.69  44 2.70  61 2.77
                            29 2.78
  28  0.956  0.789  0.221-  58 2.56  66 2.58  50 2.58  42 2.61   1 2.62  49 2.64  64 2.66   2 2.67
                            33 2.70  59 2.74  79 2.80  77 2.81
  29  0.794  0.623  0.319-  42 2.56  39 2.56  75 2.60  32 2.62  44 2.67  33 2.67  49 2.68  61 2.70
                             1 2.70  12 2.78  27 2.78   7 2.79
  30  0.290  0.631  0.318-  79 2.56  64 2.61  52 2.63  26 2.66  44 2.66   2 2.66  33 2.67   3 2.73
                            18 2.74  14 2.75  25 2.82  16 2.84
  31  0.202  0.280  0.225-  70 2.51  55 2.58  43 2.58  65 2.59  57 2.60   3 2.63  39 2.66  21 2.71
                            80 2.72  42 2.74  68 2.79  64 2.83  22 3.41
  32  0.706  0.550  0.221-  54 2.53  69 2.56  51 2.58  49 2.60  29 2.62  42 2.62  78 2.64  65 2.65
                            75 2.68  44 2.69  26 2.70  67 2.72
  33  0.040  0.632  0.325-   3 2.61  30 2.67  39 2.67  29 2.67   1 2.68  12 2.69   2 2.69  28 2.70
                            64 2.70  16 2.71   5 2.72  42 2.73
  34  0.796  0.862  0.044-  50 2.39  66 2.51  48 2.52  36 2.55  71 2.58  63 2.62  20 2.71  62 2.79
                            35 2.80
  35  0.057  0.865  0.039-  58 2.54  72 2.55  36 2.56  24 2.57  66 2.62  53 2.68  23 2.76  62 2.76
                            34 2.80
  36  0.044  0.632  0.039-  21 2.53  34 2.55  35 2.56  58 2.58  50 2.59  47 2.67  72 2.69  71 2.74
                            40 2.76
  37  0.628  0.224  0.129-  51 2.51  67 2.52  56 2.52  74 2.53  20 2.55  68 2.56  59 2.56  41 2.57
                            62 2.59  66 2.69  57 2.76  48 2.95
  38  0.383  0.954  0.131-  53 2.46  45 2.47  80 2.47  78 2.53  73 2.56  63 2.56  48 2.56  54 2.58
                            55 2.58  57 2.65  24 2.66  70 2.70
  39  0.035  0.384  0.324-  29 2.56   3 2.59  75 2.60  22 2.61  42 2.65  10 2.66  31 2.66  33 2.67
                             7 2.69   5 2.71  65 2.74  43 2.82
  40  0.028  0.381  0.039-  69 2.42  21 2.52  71 2.54  76 2.54  70 2.56  23 2.60  36 2.76  45 2.84
                            47 2.85
  41  0.872  0.215  0.129-  76 2.45  65 2.52  77 2.53  67 2.53  37 2.57  62 2.57  69 2.59  23 2.61
                            51 2.61  70 2.68  66 2.68  24 2.75
  42  0.955  0.545  0.224-  50 2.55  29 2.56  69 2.60  21 2.60  28 2.61  32 2.62  49 2.65  39 2.65
                            65 2.65  64 2.69  33 2.73  31 2.74
  43  0.296  0.116  0.320-  55 2.52  52 2.57  31 2.58  19 2.58  61 2.59   8 2.60  22 2.60  80 2.64
                            10 2.72   3 2.73  13 2.75  39 2.82
  44  0.541  0.629  0.321-  61 2.59  52 2.60  78 2.63  30 2.66  18 2.66  14 2.67  29 2.67  75 2.68
                            15 2.69  32 2.69  27 2.70  26 2.74
  45  0.296  0.116  0.041-  38 2.47  70 2.49  57 2.57  53 2.58  23 2.64  63 2.65  20 2.73  47 2.83
                            40 2.84
  46  0.549  0.625  0.045-  51 2.38  73 2.39  54 2.41  71 2.57  53 2.59  63 2.60  76 2.62  56 2.63
                            72 2.66
  47  0.294  0.382  0.040-  74 2.41  21 2.53  57 2.64  72 2.65  56 2.66  36 2.67  20 2.74  45 2.83
                            40 2.85
  48  0.626  0.948  0.133-  49 2.39  54 2.48  80 2.49  34 2.52  59 2.56  63 2.56  38 2.56  20 2.57
                            50 2.58  57 2.68  66 2.72  37 2.95
  49  0.707  0.793  0.220-  48 2.39  50 2.47  54 2.48  80 2.57  32 2.60   1 2.62  61 2.63  28 2.64
                            78 2.64  42 2.65  29 2.68  59 2.73
  50  0.865  0.704  0.130-  34 2.39  71 2.42  49 2.47  54 2.49  42 2.55  48 2.58  28 2.58  69 2.58
[...]
   0.372E+02 -.977E+01 -.152E+04   -.388E+02 0.100E+02 0.151E+04   0.169E+01 -.262E+00 0.205E+01   -.167E-01 -.201E-01 0.301E-02
   -.387E+01 0.338E+02 -.290E+04   0.405E+01 -.336E+02 0.289E+04   -.154E+00 -.180E+00 0.884E+00   -.791E-02 0.306E-04 0.244E-01
   -.171E+02 0.585E+01 -.289E+04   0.165E+02 -.543E+01 0.288E+04   0.547E+00 -.395E+00 0.153E+01   -.653E-03 -.295E-01 -.460E-03
   0.134E+01 0.795E+01 -.288E+04   -.134E+01 -.821E+01 0.288E+04   -.218E-01 0.180E+00 0.105E+01   0.181E-01 0.172E-01 0.150E-01
   -.318E+02 -.986E+01 -.291E+04   0.325E+02 0.989E+01 0.291E+04   -.780E+00 -.833E-01 0.915E+00   -.118E-01 0.394E-02 -.186E-01
   0.123E+02 -.201E+02 -.290E+04   -.126E+02 0.202E+02 0.290E+04   0.322E+00 -.786E-01 0.187E+01   -.182E-01 0.105E-01 0.389E-02
   -.226E+02 0.272E+02 -.290E+04   0.224E+02 -.278E+02 0.290E+04   0.183E+00 0.652E+00 0.721E+00   0.119E-01 0.222E-01 -.190E-01
   -.999E+01 -.272E+01 -.286E+04   0.107E+02 0.281E+01 0.286E+04   -.622E+00 -.741E-01 0.183E+01   -.170E-02 -.587E-03 -.167E-01
   -.785E+01 -.505E+01 -.291E+04   0.813E+01 0.485E+01 0.291E+04   -.290E+00 0.151E+00 0.818E+00   0.110E-02 -.278E-02 0.123E-01
   -.165E+02 -.459E+01 -.289E+04   0.167E+02 0.427E+01 0.289E+04   -.229E+00 0.332E+00 0.118E+01   -.227E-01 -.733E-03 0.108E-01
   0.405E+01 -.211E+02 -.289E+04   -.434E+01 0.208E+02 0.289E+04   0.315E+00 0.346E+00 0.964E+00   -.131E-01 0.109E-01 -.972E-02
   0.280E+02 0.614E+01 -.290E+04   -.275E+02 -.601E+01 0.289E+04   -.506E+00 -.139E+00 0.150E+01   0.219E-01 0.523E-02 0.577E-02
   0.313E+02 -.195E+02 -.289E+04   -.318E+02 0.201E+02 0.289E+04   0.531E+00 -.630E+00 0.941E+00   0.258E-01 0.793E-03 -.167E-01
   -.113E+01 -.165E+01 -.289E+04   0.863E+00 0.123E+01 0.288E+04   0.265E+00 0.440E+00 0.122E+01   -.139E-03 0.198E-02 0.445E-01
   0.289E+02 -.720E+01 -.289E+04   -.291E+02 0.720E+01 0.289E+04   0.151E+00 -.421E-01 0.123E+01   -.898E-02 0.152E-02 0.368E-02
   0.670E+02 -.683E+02 -.152E+04   -.655E+02 0.686E+02 0.152E+04   -.141E+01 -.332E+00 0.163E+01   0.171E-02 -.127E-01 -.931E-02
   0.284E+02 -.438E+02 -.150E+04   -.295E+02 0.434E+02 0.150E+04   0.111E+01 0.423E+00 0.249E+01   -.133E-01 -.116E-02 -.142E-01
   0.377E+02 0.173E+02 0.299E+04   -.377E+02 -.175E+02 -.299E+04   0.158E-01 0.361E+00 -.253E+01   -.499E-02 -.278E-01 0.474E-02
   0.257E+02 -.227E+01 0.159E+04   -.265E+02 0.296E+01 -.160E+04   0.961E+00 -.675E+00 0.860E+00   -.243E-01 0.118E-01 0.138E-01
   -.668E+02 0.848E+01 -.147E+04   0.676E+02 -.771E+01 0.147E+04   -.754E+00 -.761E+00 0.255E+01   0.267E-01 -.387E-02 -.143E-01
   -.543E+02 0.528E+02 0.305E+04   0.550E+02 -.518E+02 -.305E+04   -.708E+00 -.982E+00 -.224E+01   0.246E-02 -.333E-01 0.316E-02
   0.499E+01 -.557E+02 0.157E+04   -.474E+01 0.552E+02 -.157E+04   -.303E+00 0.464E+00 -.819E+00   0.104E-01 0.962E-02 -.145E-01
   0.162E+02 -.569E+00 -.289E+04   -.163E+02 0.633E+00 0.289E+04   0.154E+00 -.252E-01 0.809E+00   -.139E-01 -.243E-01 0.795E-02
   -.181E+02 -.333E+01 0.127E+02   0.181E+02 0.358E+01 -.140E+02   -.707E-01 -.295E+00 0.122E+01   -.575E-02 -.725E-02 0.141E-01
   -.118E+02 0.107E+02 -.290E+04   0.112E+02 -.105E+02 0.289E+04   0.574E+00 -.195E+00 0.152E+01   0.171E-03 -.259E-01 -.142E-01
   0.153E+02 0.593E+02 0.155E+02   -.163E+02 -.605E+02 -.157E+02   0.109E+01 0.118E+01 0.234E+00   -.346E-01 -.431E-02 -.261E-01
   -.614E+02 0.893E+01 -.148E+04   0.619E+02 -.103E+02 0.148E+04   -.442E+00 0.148E+01 0.269E+01   -.808E-02 0.310E-03 -.250E-01
   0.278E+02 0.282E+02 -.152E+04   -.275E+02 -.275E+02 0.152E+04   -.269E+00 -.700E+00 0.229E+01   -.276E-03 0.662E-02 0.331E-02
   0.138E+02 -.651E+02 -.679E+02   -.147E+02 0.645E+02 0.682E+02   0.106E+01 0.554E+00 -.309E+00   -.205E-01 -.203E-01 -.716E-02
   -.228E+02 -.177E+02 -.596E+01   0.235E+02 0.185E+02 0.529E+01   -.797E+00 -.808E+00 0.703E+00   0.483E-01 0.181E-01 -.277E-02
   0.190E+02 0.147E+02 -.122E+04   -.191E+02 -.151E+02 0.122E+04   0.981E-01 0.434E+00 0.423E+00   -.154E-01 -.577E-02 -.144E-01
   -.635E+02 -.543E+01 0.241E+04   0.638E+02 0.415E+01 -.240E+04   -.338E+00 0.131E+01 -.277E+01   -.471E-02 -.499E-02 0.159E-01
   0.327E+02 -.165E+02 0.244E+04   -.326E+02 0.150E+02 -.244E+04   -.558E-01 0.156E+01 -.244E+01   0.721E-02 0.539E-02 -.470E-03
   0.173E+02 0.626E+01 0.244E+04   -.175E+02 -.562E+01 -.244E+04   0.187E+00 -.762E+00 -.298E+01   -.773E-02 0.179E-01 0.577E-02
   0.144E+02 0.539E+02 0.128E+04   -.135E+02 -.531E+02 -.128E+04   -.906E+00 -.773E+00 -.752E-01   -.509E-02 -.262E-01 0.682E-03
   0.311E+02 -.610E+02 0.126E+04   -.310E+02 0.608E+02 -.126E+04   -.104E+00 0.238E+00 -.422E+00   0.345E-02 0.812E-02 -.457E-02
   -.513E+02 -.240E+02 -.122E+04   0.514E+02 0.242E+02 0.122E+04   -.117E+00 -.214E+00 0.699E+00   -.470E-02 -.468E-02 -.104E-01
   -.110E+03 0.207E+02 0.245E+04   0.110E+03 -.205E+02 -.245E+04   0.541E+00 -.224E+00 -.280E+01   -.236E-02 0.812E-02 0.778E-02
   -.347E+02 0.473E+02 0.128E+04   0.339E+02 -.468E+02 -.128E+04   0.838E+00 -.532E+00 -.440E+00   0.178E-01 -.121E-01 0.423E-02
   -.471E+02 0.315E+01 -.426E+02   0.468E+02 -.277E+01 0.426E+02   0.234E+00 -.410E+00 -.863E-01   -.146E-01 0.990E-02 -.144E-01
   0.143E+02 -.813E+02 -.123E+04   -.145E+02 0.811E+02 0.123E+04   0.159E+00 0.212E+00 0.103E+01   -.140E-01 -.260E-02 -.161E-01
   0.106E+02 0.324E+02 -.122E+04   -.108E+02 -.325E+02 0.122E+04   0.126E+00 0.519E-02 0.337E+00   0.143E-01 0.510E-02 0.794E-02
   0.571E+01 -.629E+02 0.242E+04   -.647E+01 0.620E+02 -.242E+04   0.809E+00 0.995E+00 -.287E+01   -.484E-02 -.238E-01 0.389E-02
   0.826E+01 -.147E+02 0.272E+04   -.835E+01 0.149E+02 -.272E+04   0.922E-01 -.239E+00 -.239E+01   0.127E-01 0.328E-01 -.134E-01
   0.119E+03 0.347E+02 0.276E+04   -.119E+03 -.338E+02 -.276E+04   0.412E+00 -.837E+00 -.273E+01   -.645E-02 -.180E-02 -.368E-02
   -.418E+02 -.388E+02 0.140E+04   0.413E+02 0.377E+02 -.140E+04   0.463E+00 0.111E+01 -.402E+00   -.192E-03 -.233E-01 0.655E-02
   -.610E+02 0.632E+02 0.206E+02   0.610E+02 -.631E+02 -.213E+02   -.260E-01 -.218E+00 0.748E+00   0.162E-01 -.662E-03 -.271E-01
   -.969E+02 0.174E+02 0.139E+04   0.965E+02 -.170E+02 -.139E+04   0.483E+00 -.513E+00 -.149E+00   -.187E-01 0.850E-02 0.106E-01
   -.170E+02 0.926E+01 0.137E+04   0.172E+02 -.953E+01 -.137E+04   -.133E+00 0.313E+00 -.156E+00   0.247E-01 0.119E-02 0.202E-02
   0.448E+02 0.513E+01 -.138E+04   -.447E+02 -.534E+01 0.138E+04   -.215E+00 0.226E+00 0.139E+01   0.271E-02 0.269E-01 -.107E-01
   0.565E+02 -.800E+02 0.273E+04   -.561E+02 0.798E+02 -.273E+04   -.415E+00 0.203E+00 -.249E+01   -.651E-02 0.138E-01 -.971E-02
   -.133E+02 0.549E+01 0.136E+04   0.134E+02 -.530E+01 -.136E+04   -.132E+00 -.262E+00 -.432E+00   0.455E-01 0.219E-01 -.263E-02
   0.249E+02 -.718E+02 -.148E+02   -.241E+02 0.712E+02 0.151E+02   -.884E+00 0.589E+00 -.354E+00   0.290E-03 0.183E-01 -.369E-02
   0.458E+02 0.349E+02 0.340E+04   -.458E+02 -.340E+02 -.340E+04   -.833E-01 -.886E+00 -.390E+01   -.636E-02 -.759E-02 -.224E-01
   0.599E+02 -.229E+01 0.173E+04   -.601E+02 0.165E+01 -.173E+04   0.111E+00 0.766E+00 -.192E+00   -.108E-01 -.298E-01 0.105E-01
   0.105E+03 -.280E+02 0.170E+04   -.105E+03 0.280E+02 -.170E+04   -.150E+00 -.192E-01 -.296E-01   -.282E-01 0.228E-01 -.184E-01
   0.162E+02 0.664E+02 0.912E+02   -.169E+02 -.661E+02 -.918E+02   0.620E+00 -.301E+00 0.550E+00   -.209E-01 -.315E-01 -.186E-01
   0.115E+02 0.501E+02 -.169E+04   -.110E+02 -.496E+02 0.169E+04   -.587E+00 -.501E+00 0.134E+01   -.240E-02 -.289E-03 -.105E-01
[...]
   0.555E+02 -.321E+02 0.104E+02   -.549E+02 0.317E+02 -.106E+02   -.625E+00 0.423E+00 0.251E+00   -.175E-01 -.212E-01 0.266E-02
   -.755E+02 0.478E+01 0.153E+04   0.750E+02 -.468E+01 -.153E+04   0.446E+00 -.815E-01 -.185E+00   0.206E-01 0.227E-01 0.181E-01
   -.166E+02 0.148E+02 0.160E+04   0.170E+02 -.151E+02 -.160E+04   -.386E+00 0.272E+00 -.457E+00   -.240E-02 -.148E-01 0.240E-01
   -.103E+03 -.211E+01 0.305E+04   0.104E+03 0.214E+01 -.305E+04   -.553E+00 -.438E-01 -.150E+01   0.926E-02 0.226E-01 0.182E-01
   0.738E+02 -.367E+02 0.305E+04   -.742E+02 0.372E+02 -.305E+04   0.345E+00 -.640E+00 -.102E+01   -.955E-02 0.360E-01 -.168E-01
   0.194E+02 -.326E+02 0.153E+04   -.190E+02 0.323E+02 -.153E+04   -.388E+00 0.199E+00 -.394E-01   0.458E-03 0.403E-01 -.300E-01
   0.577E+02 0.726E+01 0.159E+04   -.573E+02 -.730E+01 -.159E+04   -.479E+00 0.698E-01 -.146E+00   -.221E-01 -.306E-02 -.200E-02
   -.379E+02 -.674E+02 -.156E+04   0.378E+02 0.674E+02 0.156E+04   0.103E+00 -.737E-01 0.906E+00   0.145E-01 0.316E-02 -.271E-02
   -.500E+02 0.299E+02 0.303E+04   0.504E+02 -.293E+02 -.303E+04   -.413E+00 -.596E+00 -.192E+01   0.165E-01 0.159E-03 0.284E-03
   -.479E+02 0.749E+02 0.790E+02   0.483E+02 -.746E+02 -.790E+02   -.371E+00 -.392E+00 -.313E-01   0.207E-01 0.206E-02 -.132E-01
   -.561E+00 0.601E+02 -.903E+01   0.509E+00 -.594E+02 0.892E+01   0.644E-01 -.835E+00 -.705E-02   0.179E-01 0.377E-01 -.956E-03
   0.532E+02 0.232E+01 -.262E+02   -.529E+02 -.176E+01 0.262E+02   -.387E+00 -.633E+00 -.323E-01   -.220E-02 0.400E-01 -.400E-02
   0.177E+02 -.562E+02 0.326E+02   -.181E+02 0.558E+02 -.327E+02   0.335E+00 0.440E+00 0.747E-01   -.537E-02 -.606E-02 -.184E-01
   0.146E+01 0.186E+01 -.346E+03   -.157E+01 -.196E+01 0.348E+03   0.114E+00 0.731E-01 -.164E+01   0.564E-03 0.505E-03 -.154E-02
   -.239E+01 -.102E+01 -.278E+01   -.767E-12 -.917E-13 0.279E-11   0.247E+01 0.976E+00 0.301E+01   -.456E-01 0.259E-01 -.236E+00

 POSITION                                       TOTAL-FORCE (eV/Angst)
     13.06765      8.11019      6.95940        -0.006473      0.012876      0.007298
      5.15586      8.14612      6.91925         0.030450      0.005428     -0.009984
      5.00962      3.51392      7.00416         0.012521     -0.018337      0.021675
     14.44868      8.88438      9.26850         0.011034     -0.016349      0.027891
      3.76561      4.27554      9.36509         0.000904     -0.029595     -0.000982
      6.45958      8.87371      9.23392        -0.025125     -0.018070      0.006334
     11.79853      4.27863      9.41113        -0.029250     -0.017754      0.011016
      9.10543      8.86670      9.22218        -0.009420     -0.003095     -0.011503
     10.44553      1.92235      9.28715         0.007443      0.014552      0.002256
      2.47764      1.94657      9.24990         0.004660     -0.008655      0.005587
     11.77704      8.87078      9.29281         0.028266     -0.018586     -0.012144
     13.11029      6.57294      9.34853        -0.001929      0.005399     -0.019782
      5.10637      1.93194      9.31138         0.000780      0.036202     -0.004811
      7.79903      6.57870      9.28578         0.012737      0.005561     -0.013834
      9.09509      4.27289      9.32716         0.024969     -0.015972      0.011388
      5.11383      6.56232      9.32842         0.005889      0.030968      0.020447
      7.76974      1.93412      9.24381        -0.011560     -0.007284      0.009875
      7.85650      3.47682      6.97329        -0.001686     -0.014140      0.014394
      6.36489      1.15325      6.91902        -0.003982      0.017802     -0.001497
      6.49878      1.12701      0.91783        -0.021741      0.019666      0.000187
      3.73329      4.24365      2.82304         0.016885     -0.011465     -0.030671
      1.18576      1.26125      6.90145         0.017166     -0.004252      0.013129
      1.14169      1.20489      0.75465        -0.014549      0.002936     -0.021984
      6.49937      8.84078      2.91411         0.006669      0.012413     -0.010009
      6.44280      4.25537      9.33702        -0.006132      0.025375     -0.007496
      7.76721      5.03652      4.81427        -0.012977      0.003334     -0.008193
     10.42575      6.59160      9.27364        -0.001074      0.001372      0.024319
     14.39588      7.27931      4.85538         0.006094     -0.009028     -0.032063
     11.80022      5.73293      7.02049        -0.027551     -0.006218     -0.009987
      6.47086      5.82660      6.98346         0.008287     -0.002931     -0.010342
      3.64270      2.57988      4.95805         0.005361     -0.002805     -0.017415
     10.46036      5.07278      4.87007         0.012494     -0.002712      0.008614
      3.79828      5.82365      7.13110         0.004454     -0.005508     -0.010368
     13.07897      7.95618      0.95883        -0.003566     -0.002046      0.038159
      5.21380      7.98656      0.86284         0.004140      0.012991      0.020382
      3.83131      5.83197      0.85600         0.023606     -0.018455     -0.012571
      7.88243      2.06346      2.84612        -0.016816     -0.003140      0.037794
      9.16289      8.80794      2.87612         0.006724      0.013044      0.011547
      2.42598      3.53186      7.12506         0.000364     -0.000592      0.004616
      2.32870      3.51838      0.86299         0.021830      0.015709     -0.035562
     10.44688      1.98709      2.84009        -0.013420      0.015371      0.002462
     13.08414      5.02180      4.92632        -0.003814      0.002871     -0.002101
      3.78202      1.06792      7.05373         0.005643      0.013530     -0.002601
      9.12066      5.80925      7.07453         0.009960      0.005991     -0.003830
      3.77122      1.06783      0.90415        -0.005556      0.018944      0.000956
      9.18715      5.77316      0.99286        -0.003682      0.017026     -0.028126
      5.17420      3.52548      0.87003         0.020499      0.008567      0.039791
     11.72362      8.75176      2.92245        -0.012025      0.003492      0.030071
     11.76935      7.32450      4.84349        -0.000111      0.000462      0.000134
     12.97800      6.50322      2.85234         0.013080     -0.019127     -0.032019
      9.13171      4.24465      2.81404         0.020944     -0.003121     -0.007663
      7.83762      8.07971      6.98442         0.000580     -0.001486     -0.001589
      7.89763      8.01872      0.91379         0.000272      0.013043      0.016193
     10.49038      6.60126      2.83869        -0.007164     -0.035440      0.042143
      2.55578      0.25210      5.00293         0.001710     -0.005797     -0.007853
      7.83460      3.52101      0.79067        -0.025372      0.005174      0.001389
      5.12642      1.88462      2.93503        -0.018269      0.017588      0.007059
      5.21667      6.50564      2.92065         0.023599     -0.006212     -0.038622
      7.78489      0.46862      4.84918         0.004154      0.001015     -0.004130
      9.14931      1.19969      6.96881        -0.009408      0.000530     -0.006063
[...]
      9.17088      2.67917      4.92500         0.005073     -0.002775     -0.001397
      6.43816      2.69739      4.86042        -0.008678     -0.009366     -0.006969
     11.76877      4.21925      2.83668        -0.026326     -0.014631     -0.019839
      2.46431      1.90348      2.84561        -0.013271      0.016626      0.001680
     11.75684      5.74003      0.91295        -0.012515      0.009722     -0.019413
      6.52258      5.80409      0.95833         0.001350     -0.025774      0.000149
      7.91412      6.57792      2.85270        -0.001884     -0.014093      0.002043
      6.48211      4.16784      2.79146        -0.006043     -0.003546      0.005743
     10.47711      3.50180      7.07917         0.008954      0.010238     -0.004424
     10.44539      3.47942      0.90065        -0.004814     -0.008554     -0.026638
     10.46846      0.49425      4.87186        -0.000627     -0.003222      0.010446
      9.13732      7.34995      4.94692         0.006949      0.001435     -0.000236
      6.54637      7.36071      4.93688         0.003020     -0.002408      0.017547
      5.09029      0.27232      4.89606         0.000615      0.004441      0.008027
     10.44096      3.45318     10.32130         0.001289     -0.021810      0.011732
    total drift:                                0.029245     -0.017904     -0.008963

  FREE ENERGIE OF THE ION-ELECTRON SYSTEM (eV)
  free  energy   TOTEN  =      -510.25967502 eV

  energy  without entropy=     -510.28117826  energy(sigma->0) =     -510.26684277

 d Force = 0.1768077E-02[-0.471E-04, 0.358E-02]  d Energy = 0.1765514E-02 0.256E-05
 d Force =-0.8965877E+01[-0.893E+01,-0.900E+01]  d Ewald  =-0.8965920E+01 0.426E-04

 Conjugate gradient step on ions:
 trial-energy change:   -0.001766  1 .order   -0.001768   -0.003583    0.000047
  (g-gl).g = 0.252E-02      g.g   = 0.248E-02  gl.gl    = 0.338E-02
 g(Force)  = 0.248E-02   g(Stress)= 0.000E+00 ortho     =-0.286E-03
 gamma     =   0.74713
 trial     =   1.58101
 opt step  =   1.56048  (harmonic =   1.56048) maximal distance =0.01004075
 next E    =  -510.259678   (d E  =  -0.00177)

 reached required accuracy - stopping structural energy minimisation