 vasp.5.4.4.18Apr17-6-g9f103f2a35 (build Oct 25 2019 11:13:22) complex

 executed on             LinuxIFC date 2022.02.13  02:53:44

 INCAR:
 POTCAR:    PAW_PBE Pt 04Feb2005
 POTCAR:    PAW_PBE Co 02Aug2007
 POTCAR:    PAW_PBE Ni 02Aug2007
 POTCAR:    PAW_PBE H 15Jun2001

 POTCAR:    PAW_PBE Pt 04Feb2005
   VRHFIN =Pt: s1d9

   TITEL  = PAW_PBE Pt 04Feb2005
   POMASS =  195.080; ZVAL   =   10.000    mass and valenz
   ENMAX  =  230.283; ENMIN  =  172.712 eV

 POTCAR:    PAW_PBE Co 02Aug2007
   VRHFIN =Co: d8 s1

   TITEL  = PAW_PBE Co 02Aug2007
   POMASS =   58.933; ZVAL   =    9.000    mass and valenz
   ENMAX  =  267.968; ENMIN  =  200.976 eV

 POTCAR:    PAW_PBE Ni 02Aug2007
   VRHFIN =Ni:

   TITEL  = PAW_PBE Ni 02Aug2007
   POMASS =   58.690; ZVAL   =   10.000    mass and valenz
   ENMAX  =  269.532; ENMIN  =  202.149 eV

 POTCAR:    PAW_PBE H 15Jun2001
   VRHFIN =H: ultrasoft test

   TITEL  = PAW_PBE H 15Jun2001
   POMASS =    1.000; ZVAL   =    1.000    mass and valenz
   ENMAX  =  250.000; ENMIN  =  200.000 eV

 Optimization of the real space projectors (new method)

 maximal supplied QI-value         = 14.36
 optimisation between [QCUT,QGAM] = [ 11.92, 23.98] = [ 39.79,161.09] Ry
 Optimized for a Real-space Cutoff    1.49 Angstroem

   l    n(q)    QCUT    max X(q) W(low)/X(q) W(high)/X(q)  e(spline)
   2     10    11.920    66.195    0.79E-04    0.18E-03    0.24E-06
   2     10    11.920    64.643    0.81E-04    0.19E-03    0.24E-06
   0     11    11.920    95.520    0.28E-04    0.54E-04    0.18E-06
   0     11    11.920    63.403    0.27E-04    0.52E-04    0.17E-06
   1     10    11.920    19.961    0.18E-04    0.11E-03    0.23E-06
   1     10    11.920    13.289    0.25E-04    0.87E-04    0.19E-06
 Optimization of the real space projectors (new method)

[...]

   l    n(q)    QCUT    max X(q) W(low)/X(q) W(high)/X(q)  e(spline)
   2      9    11.864    60.317    0.21E-03    0.51E-03    0.25E-06
   2      9    11.864    55.921    0.21E-03    0.51E-03    0.26E-06
   0      9    11.864    51.690    0.22E-03    0.30E-04    0.17E-06
   0      9    11.864    30.015    0.20E-03    0.28E-04    0.15E-06
   1      9    11.864    18.849    0.76E-04    0.33E-03    0.17E-06
   1      9    11.864    14.624    0.60E-04    0.28E-03    0.15E-06
 Optimization of the real space projectors (new method)

 maximal supplied QI-value         = 34.20
 optimisation between [QCUT,QGAM] = [ 11.97, 23.94] = [ 40.13,160.53] Ry
 Optimized for a Real-space Cutoff    1.18 Angstroem

   l    n(q)    QCUT    max X(q) W(low)/X(q) W(high)/X(q)  e(spline)
   0      8    11.971    19.460    0.15E-03    0.31E-03    0.25E-06
   0      8    11.971    12.209    0.13E-03    0.29E-03    0.25E-06
   1      8    11.971     4.655    0.22E-03    0.24E-03    0.21E-06
  PAW_PBE Pt 04Feb2005                  :
  PAW_PBE Co 02Aug2007                  :
  PAW_PBE Ni 02Aug2007                  :
  PAW_PBE H 15Jun2001                   :

 POSCAR: 11.26
  positions in cartesian coordinates
 exchange correlation table for  LEXCH =        8
   RHO(1)=    0.500       N(1)  =     2000
   RHO(2)=  100.500       N(2)  =     4000

 ion  position               nearest neighbor table
   1  0.788  0.879  0.302-  49 2.48  59 2.57  60 2.64  28 2.71   4 2.74  29 2.74   2 2.75  19 2.78
                            12 2.85  61 2.87  11 2.89  33 2.95
   2  0.032  0.880  0.292-  79 2.48  77 2.55  60 2.72  28 2.74   1 2.75   4 2.77   6 2.86  16 2.91
                            30 2.92  33 3.00  22 3.17  52 3.26
   3  0.277  0.361  0.311-  64 2.54  68 2.61  31 2.62  39 2.68   5 2.71  33 2.71  13 2.73  30 2.75
                            25 2.78  43 2.81  19 2.81  18 2.86
   4  0.882  0.963  0.398-  60 2.70   6 2.72   9 2.73   1 2.74  16 2.75   2 2.77  17 2.77  12 2.85
                            11 2.95
   5  0.116  0.466  0.410-  39 2.61  33 2.70   3 2.71  12 2.72  16 2.77   7 2.78  10 2.79  25 2.83
                            13 2.91
   6  0.130  0.951  0.397-  52 2.58  22 2.72   4 2.72  16 2.76   8 2.78  14 2.79   2 2.86  10 2.94
                             9 2.95
   7  0.872  0.457  0.412-  75 2.55  39 2.58   5 2.78   9 2.79  10 2.79  27 2.79  29 2.81  15 2.86
                            12 2.90
   8  0.374  0.953  0.415-  52 2.53  43 2.54  61 2.70   6 2.78  13 2.79  27 2.79  11 2.83  10 2.85
                            14 2.87
   9  0.867  0.213  0.397-  75 2.60  22 2.67   4 2.73  17 2.74  15 2.76   7 2.79  60 2.83  10 2.92
                             6 2.95
  10  0.126  0.213  0.413-  22 2.63  13 2.70  43 2.71  39 2.78   5 2.79   7 2.79   8 2.85   9 2.92
                             6 2.94
  11  0.627  0.950  0.412-  81 1.77  61 2.67  27 2.72  12 2.74  19 2.76   8 2.83  17 2.85  13 2.86
                             1 2.89   4 2.95
  12  0.878  0.712  0.408-  29 2.67  16 2.70   5 2.72  11 2.74  33 2.79   4 2.85   1 2.85  27 2.85
                             7 2.90
  13  0.371  0.203  0.413-  43 2.66  10 2.70   3 2.73  19 2.75   8 2.79  25 2.81  11 2.86  17 2.90
                             5 2.91
  14  0.375  0.699  0.400-  52 2.53  44 2.55  15 2.73  25 2.78   6 2.79  16 2.81  30 2.86   8 2.87
                            27 2.89
  15  0.619  0.457  0.399-  75 2.53  44 2.60  14 2.73   9 2.76  25 2.77  17 2.80   7 2.86  18 2.87
                            27 2.88
  16  0.118  0.711  0.401-  30 2.66  12 2.70  33 2.74   4 2.75   6 2.76   5 2.77  14 2.81  25 2.90
                             2 2.91
  17  0.629  0.203  0.406-  81 1.73  18 2.72   9 2.74   4 2.77  15 2.80  25 2.81  19 2.83  11 2.85
                            60 2.85  13 2.90
  18  0.538  0.345  0.300-  67 2.46  26 2.60  68 2.64  60 2.67  19 2.68  17 2.72  25 2.82   3 2.86
                            15 2.87  30 2.95  75 3.21
  19  0.529  0.112  0.309-  59 2.48  80 2.52  68 2.59  43 2.61  61 2.63  18 2.68  13 2.75  11 2.76
                             1 2.78   3 2.81  17 2.83  60 2.91
  20  0.546  0.126  0.067-  48 2.50  57 2.52  47 2.52  62 2.53  37 2.60  56 2.66  34 2.70  63 2.89

  21  0.118  0.408  0.119-  47 2.44  40 2.48  36 2.49  69 2.60  57 2.64  42 2.67  64 2.70  70 2.72
                            31 2.74  50 3.30
  22  0.055  0.148  0.310-  77 2.42  65 2.51  55 2.51  43 2.57  39 2.63  10 2.63   9 2.67   6 2.72
                            75 2.90  31 3.04  52 3.05   2 3.17  60 3.24
  23  0.009  0.102  0.049-  40 2.49  62 2.55  70 2.57  41 2.59  45 2.66  76 2.69  24 2.70  35 2.74
                            53 3.07
  24  0.138  0.927  0.142-  79 2.46  35 2.50  77 2.54  58 2.54  53 2.56  55 2.59  38 2.59  73 2.64
                            70 2.65  23 2.70  66 2.83
  25  0.375  0.451  0.406-  30 2.75  15 2.77   3 2.78  14 2.78  13 2.81  17 2.81  18 2.82   5 2.83
                            16 2.90
  26  0.480  0.554  0.230-  74 2.50  44 2.51  73 2.52  51 2.59  79 2.60  18 2.60  30 2.62  78 2.62
                            32 2.66  67 2.70
  27  0.626  0.708  0.413-  44 2.49  61 2.68  11 2.72   7 2.79   8 2.79  29 2.80  12 2.85  15 2.88
                            14 2.89
  28  0.953  0.759  0.204-  58 2.53  50 2.61  66 2.61  42 2.62  36 2.63  33 2.66   1 2.71   2 2.74
                            64 2.80  49 2.88  34 3.22  59 3.23  35 3.30
  29  0.796  0.632  0.311-  39 2.60  49 2.61  32 2.61  75 2.62  42 2.63  33 2.64  44 2.66  12 2.67
                             1 2.74  27 2.80   7 2.81  61 2.82
  30  0.274  0.606  0.302-  79 2.43  33 2.60  64 2.61  26 2.62  16 2.66  25 2.75   3 2.75  14 2.86
                             2 2.92  18 2.95  52 3.30
  31  0.187  0.262  0.225-  70 2.52  57 2.57  65 2.58  55 2.59   3 2.62  39 2.62  43 2.63  42 2.72
                            80 2.73  21 2.74  68 2.76  64 2.79  22 3.04
  32  0.711  0.561  0.214-  69 2.53  51 2.56  54 2.61  29 2.61  49 2.62  26 2.66  65 2.66  50 2.66
                            42 2.68  75 2.69  78 2.71  67 2.73  44 2.74
  33  0.042  0.608  0.305-  42 2.46  39 2.51  64 2.51  30 2.60  29 2.64  28 2.66   5 2.70   3 2.71
                            16 2.74  12 2.79   1 2.95   2 3.00
  34  0.782  0.884  0.080-  48 2.38  35 2.38  50 2.53  66 2.54  36 2.55  62 2.67  20 2.70  28 3.22

  35  0.002  0.866  0.072-  36 2.37  34 2.38  66 2.43  24 2.50  58 2.60  23 2.74  62 2.75  28 3.30

  36  0.006  0.657  0.094-  50 2.33  35 2.37  58 2.38  21 2.49  34 2.55  28 2.63
  37  0.628  0.234  0.150-  41 2.41  56 2.42  59 2.43  67 2.44  62 2.45  68 2.50  51 2.50  74 2.51
                            20 2.60  66 2.60
  38  0.361  0.942  0.135-  53 2.40  45 2.41  63 2.42  57 2.43  48 2.45  55 2.45  54 2.46  78 2.48
                            80 2.54  73 2.59  24 2.59  70 2.83
  39  0.023  0.396  0.316-  42 2.46  33 2.51   7 2.58  75 2.58  65 2.58  29 2.60   5 2.61  31 2.62
                            22 2.63   3 2.68  10 2.78
  40  0.013  0.321  0.044-  69 2.32  76 2.45  21 2.48  23 2.49  70 2.51  45 2.63  71 2.93
  41  0.844  0.228  0.139-  67 2.35  76 2.37  77 2.38  37 2.41  62 2.44  51 2.48  69 2.48  66 2.49
                            65 2.58  23 2.59  70 2.61
  42  0.967  0.520  0.219-  39 2.46  33 2.46  50 2.48  64 2.48  65 2.50  28 2.62  29 2.63  69 2.65
                            21 2.67  32 2.68  31 2.72
  43  0.303  0.099  0.320-  52 2.45  80 2.47  55 2.52   8 2.54  22 2.57  61 2.58  19 2.61  31 2.63
                            13 2.66  10 2.71   3 2.81
  44  0.552  0.647  0.317-  61 2.46  78 2.48  27 2.49  26 2.51  14 2.55  52 2.55  15 2.60  29 2.66
                            75 2.73  32 2.74
  45  0.251  0.091  0.049-  38 2.41  57 2.45  53 2.48  70 2.50  63 2.54  40 2.63  23 2.66
  46  0.529  0.612  0.047-  54 2.37  73 2.44  51 2.45  71 2.47  72 2.53  53 2.63  56 2.72  76 2.87
                            63 3.07
  47  0.334  0.361  0.072-  74 2.29  56 2.44  21 2.44  57 2.50  72 2.50  20 2.52
  48  0.581  0.937  0.137-  49 2.29  63 2.35  34 2.38  54 2.38  80 2.38  38 2.45  59 2.46  20 2.50
                            57 2.63  50 2.74
  49  0.677  0.809  0.223-  48 2.29  50 2.34  61 2.46  78 2.47   1 2.48  59 2.54  80 2.57  29 2.61
                            32 2.62  54 2.79  28 2.88
  50  0.810  0.679  0.140-  36 2.33  49 2.34  54 2.38  71 2.39  42 2.48  69 2.52  34 2.53  28 2.61
                            32 2.66  48 2.74  21 3.30
  51  0.629  0.454  0.133-  56 2.40  76 2.44  46 2.45  41 2.48  37 2.50  67 2.53  32 2.56  26 2.59
                            74 2.59  69 2.66  73 2.78  54 2.83
  52  0.322  0.872  0.316-  55 2.36  79 2.41  61 2.42  78 2.44  43 2.45  14 2.53   8 2.53  44 2.55
                             6 2.58  22 3.05   2 3.26  30 3.30
  53  0.299  0.850  0.050-  73 2.39  38 2.40  45 2.48  24 2.56  63 2.58  46 2.63  72 2.82  23 3.07

  54  0.581  0.726  0.124-  46 2.37  50 2.38  48 2.38  73 2.40  71 2.42  63 2.42  38 2.46  78 2.50
                            32 2.61  49 2.79  51 2.83
  55  0.229  0.013  0.230-  52 2.36  80 2.44  79 2.44  38 2.45  22 2.51  43 2.52  78 2.56  24 2.59
                            31 2.59  77 2.61  70 2.62
  56  0.549  0.361  0.055-  51 2.40  37 2.42  47 2.44  74 2.52  76 2.56  62 2.60  72 2.61  20 2.66
                            46 2.72
  57  0.344  0.167  0.132-  38 2.43  45 2.45  80 2.47  47 2.50  20 2.52  68 2.55  31 2.57  48 2.63
[...]
     12.89855      6.59993      3.08536        -0.000089     -0.007754      0.022745
      9.60902      4.40928      2.93166        -0.002490     -0.016195      0.022240
      8.50794      8.47894      6.96059         0.008253     -0.018086     -0.042539
      8.12654      8.25967      1.10014        -0.016648      0.025832     -0.017653
     10.59532      7.05732      2.72628         0.004730      0.005806      0.016380
      2.64345      0.12582      5.05287         0.016470     -0.040192     -0.030659
      8.18206      3.50560      1.21995        -0.006649     -0.037051     -0.016552
      4.79851      1.62222      2.89617        -0.012882     -0.003766      0.029889
      5.80940      6.64990      3.24762        -0.009701      0.003891     -0.022927
      7.65468      0.41297      4.68699        -0.034947      0.006828      0.061047
      9.45745      1.13023      6.52238        -0.007164      0.006717     -0.012098
[...]
      9.85949      3.06130      5.05334         0.002318      0.008482      0.018337
      6.31739      2.58312      4.70295         0.004694     -0.082586      0.019775
     12.25313      4.17493      2.83324        -0.009164     -0.003835     -0.010709
      2.09525      1.75623      3.07324         0.026040      0.002790      0.026554
     11.83128      5.72145      1.13423         0.023196     -0.006992     -0.004662
      6.85743      5.74904      1.30355        -0.007808     -0.001402      0.022561
      8.21979      6.81570      3.00225         0.016906     -0.020855      0.007752
      7.04013      4.41026      3.27464        -0.001370      0.016863      0.009467
     11.12822      3.89765      6.90397        -0.007365     -0.009575     -0.012954
     10.73608      3.41609      1.01158         0.016822     -0.007480      0.010500
     11.35396      0.81935      4.88330         0.017645      0.009305     -0.019558
      9.67608      7.72321      4.95729         0.004682     -0.001241     -0.025208
      7.20385      7.63915      5.11888        -0.003995      0.008877     -0.021711
      5.07803      0.26935      4.93904         0.022516      0.001028      0.050602
      7.49719      0.81582     10.00923         0.004214      0.004804      0.122166
    total drift:                               -0.014434      0.035476     -0.023170

  FREE ENERGIE OF THE ION-ELECTRON SYSTEM (eV)
  free  energy   TOTEN  =      -503.46166645 eV

  energy  without entropy=     -503.46166645  energy(sigma->0) =     -503.46166645

 d Force =-0.8925548E-03[-0.366E-02, 0.188E-02]  d Energy =-0.4059536E-03-0.487E-03
 d Force =-0.1000157E+02[-0.100E+02,-0.999E+01]  d Ewald  =-0.1000177E+02 0.208E-03

 Finite differences progress:
  Degree of freedom:   3/  3
  Displacement:        2/  2
  Total:               6/  6

 SECOND DERIVATIVES (NOT SYMMETRIZED)
              81X         81Y         81Z
 81X    -0.945961   -1.587571    0.408856
 81Y    -1.613836   -2.877723    0.540438
 81Z     0.412666    0.527630   -6.160958

 Eigenvectors and eigenvalues of the dynamical matrix

   1 f  =   39.352790 THz   247.260870 2PiTHz 1312.667727 cm-1   162.750114 meV
             X         Y         Z           dx          dy          dz
     13.777435  8.545046  6.640553            0           0           0
      5.290874  8.548627  6.414237            0           0           0
      5.130985  3.508569  6.834064            0           0           0
     15.299593  9.361057  8.763950            0           0           0
      3.914116  4.529403  9.024475            0           0           0
      6.796668  9.240458  8.740172            0           0           0
     12.355716  4.442184  9.069893            0           0           0
      9.543814  9.264415  9.135971            0           0           0
     10.926999  2.073234  8.744527            0           0           0
      2.605486  2.071677  9.096576            0           0           0
     12.371839  9.233896  9.072192            0           0           0
     13.847038  6.924424  8.984479            0           0           0
      5.303812  1.977114  9.092116            0           0           0
      8.125208  6.792810  8.802022            0           0           0
      9.510751  4.438108  8.775632            0           0           0
      5.316496  6.907924  8.813921            0           0           0
      8.198027  1.972420  8.941754            0           0           0
      7.980184  3.356475  6.606244            0           0           0
      6.559857  1.088228  6.808724            0           0           0
      6.833851  1.229252  1.470327            0           0           0
      3.612352  3.964682  2.619950            0           0           0
      1.441409  1.435686  6.825721            0           0           0
      0.671266  0.989103  1.081883            0           0           0
      6.748073  9.008785  3.123421            0           0           0
      6.743091  4.380562  8.923344            0           0           0
      8.493301  5.384394  5.053784            0           0           0
     10.998006  6.880841  9.089968            0           0           0
     14.948842  7.376730  4.492489            0           0           0
     12.480388  6.138921  6.833362            0           0           0
      6.479761  5.892649  6.647253            0           0           0
      3.574220  2.546241  4.958776            0           0           0
     11.126137  5.452511  4.710247            0           0           0
      3.880452  5.911849  6.708887            0           0           0
     13.734382  8.588522  1.762771            0           0           0
      4.876633  8.413947  1.577885            0           0           0
      3.758771  6.384136  2.060921            0           0           0
      8.358503  2.272242  3.294054            0           0           0
      9.333665  9.158858  2.963491            0           0           0
      2.480055  3.846803  6.956969            0           0           0
      1.948917  3.123684  0.977335            0           0           0
     10.751866  2.212205  3.056235            0           0           0
     13.777989  5.058683  4.814702            0           0           0
      3.961975  0.963296  7.029023            0           0           0
      9.828010  6.292773  6.976430            0           0           0
      3.327475  0.887173  1.073320            0           0           0
      9.370381  5.944442  1.033549            0           0           0
      5.774364  3.511196  1.588832            0           0           0
     11.780804  9.102106  3.012746            0           0           0
     12.142208  7.864851  4.907167            0           0           0
     12.898551  6.599928  3.085357            0           0           0
      9.609021  4.409279  2.931659            0           0           0
      8.507944  8.478944  6.960589            0           0           0
      8.126536  8.259675  1.100142            0           0           0
     10.595320  7.057317  2.726279            0           0           0
      2.643452  0.125819  5.052866            0           0           0
      8.182065  3.505601  1.219953            0           0           0
      4.798505  1.622219  2.896171            0           0           0
      5.809398  6.649898  3.247617            0           0           0
      7.654684  0.412970  4.686986            0           0           0
      9.457447  1.130233  6.522384            0           0           0
[...]
      9.859490  3.061300  5.053340            0           0           0
      6.317386  2.583125  4.702954            0           0           0
     12.253127  4.174930  2.833240            0           0           0
      2.095248  1.756232  3.073240            0           0           0
     11.831281  5.721446  1.134235            0           0           0
      6.857430  5.749036  1.303551            0           0           0
      8.219787  6.815704  3.002248            0           0           0
      7.040131  4.410259  3.274640            0           0           0
     11.128218  3.897650  6.903973            0           0           0
     10.736077  3.416087  1.011578            0           0           0
     11.353957  0.819354  4.883300            0           0           0
      9.676082  7.723209  4.957292            0           0           0
      7.203849  7.639146  5.118877            0           0           0
      5.078032  0.269348  4.939043            0           0           0
      7.497188  0.815815 10.024230    -0.136891   -0.212730    0.967474

[...]

   3 f  =    3.157530 THz    19.839346 2PiTHz  105.323860 cm-1    13.058499 meV
             X         Y         Z           dx          dy          dz
     13.777435  8.545046  6.640553            0           0           0
      5.290874  8.548627  6.414237            0           0           0
      5.130985  3.508569  6.834064            0           0           0
     15.299593  9.361057  8.763950            0           0           0
      3.914116  4.529403  9.024475            0           0           0
      6.796668  9.240458  8.740172            0           0           0
     12.355716  4.442184  9.069893            0           0           0
      9.543814  9.264415  9.135971            0           0           0
     10.926999  2.073234  8.744527            0           0           0
      2.605486  2.071677  9.096576            0           0           0
     12.371839  9.233896  9.072192            0           0           0
     13.847038  6.924424  8.984479            0           0           0
      5.303812  1.977114  9.092116            0           0           0
      8.125208  6.792810  8.802022            0           0           0
      9.510751  4.438108  8.775632            0           0           0
      5.316496  6.907924  8.813921            0           0           0
      8.198027  1.972420  8.941754            0           0           0
      7.980184  3.356475  6.606244            0           0           0
      6.559857  1.088228  6.808724            0           0           0
      6.833851  1.229252  1.470327            0           0           0
      3.612352  3.964682  2.619950            0           0           0
      1.441409  1.435686  6.825721            0           0           0
      0.671266  0.989103  1.081883            0           0           0
      6.748073  9.008785  3.123421            0           0           0
      6.743091  4.380562  8.923344            0           0           0
      8.493301  5.384394  5.053784            0           0           0
     10.998006  6.880841  9.089968            0           0           0
     14.948842  7.376730  4.492489            0           0           0
     12.480388  6.138921  6.833362            0           0           0
      6.479761  5.892649  6.647253            0           0           0
      3.574220  2.546241  4.958776            0           0           0
     11.126137  5.452511  4.710247            0           0           0
      3.880452  5.911849  6.708887            0           0           0
     13.734382  8.588522  1.762771            0           0           0
      4.876633  8.413947  1.577885            0           0           0
      3.758771  6.384136  2.060921            0           0           0
      8.358503  2.272242  3.294054            0           0           0
      9.333665  9.158858  2.963491            0           0           0
      2.480055  3.846803  6.956969            0           0           0
      1.948917  3.123684  0.977335            0           0           0
     10.751866  2.212205  3.056235            0           0           0
     13.777989  5.058683  4.814702            0           0           0
      3.961975  0.963296  7.029023            0           0           0
      9.828010  6.292773  6.976430            0           0           0
      3.327475  0.887173  1.073320            0           0           0
      9.370381  5.944442  1.033549            0           0           0
      5.774364  3.511196  1.588832            0           0           0
     11.780804  9.102106  3.012746            0           0           0
     12.142208  7.864851  4.907167            0           0           0
     12.898551  6.599928  3.085357            0           0           0
      9.609021  4.409279  2.931659            0           0           0
      8.507944  8.478944  6.960589            0           0           0
      8.126536  8.259675  1.100142            0           0           0
     10.595320  7.057317  2.726279            0           0           0
      2.643452  0.125819  5.052866            0           0           0
      8.182065  3.505601  1.219953            0           0           0
      4.798505  1.622219  2.896171            0           0           0
      5.809398  6.649898  3.247617            0           0           0
      7.654684  0.412970  4.686986            0           0           0
      9.457447  1.130233  6.522384            0           0           0
[...]
      9.859490  3.061300  5.053340            0           0           0
      6.317386  2.583125  4.702954            0           0           0
     12.253127  4.174930  2.833240            0           0           0
      2.095248  1.756232  3.073240            0           0           0
     11.831281  5.721446  1.134235            0           0           0
      6.857430  5.749036  1.303551            0           0           0
      8.219787  6.815704  3.002248            0           0           0
      7.040131  4.410259  3.274640            0           0           0
     11.128218  3.897650  6.903973            0           0           0
     10.736077  3.416087  1.011578            0           0           0
     11.353957  0.819354  4.883300            0           0           0
      9.676082  7.723209  4.957292            0           0           0
      7.203849  7.639146  5.118877            0           0           0
      5.078032  0.269348  4.939043            0           0           0
      7.497188  0.815815 10.024230     0.872093   -0.489083    0.015855

 Finite differences POTIM=  1.500000000000000E-002
  LATTYP: Found a hexagonal cell.
 ALAT       =    11.2227001190
 C/A-ratio  =     1.9603125600

  Lattice vectors:

 A1 = (   5.6113500595,  -9.7191434021,   0.0000000000)
 A2 = ( -11.2227001190,   0.0000000000,   0.0000000000)
 A3 = (   0.0000000000,   0.0000000000, -22.0000000000)

Analysis of symmetry for initial positions (statically):
 Subroutine PRICEL returns:
 Original cell was already a primitive cell.

[...]

The static configuration has the point symmetry C_1 .

Analysis of symmetry for dynamics (positions and initial velocities):
 Subroutine PRICEL returns:
 Original cell was already a primitive cell.

[...]

The dynamic configuration has the point symmetry C_1 .

Analysis of constrained symmetry for selective dynamics:
 Subroutine PRICEL returns:
 Original cell was already a primitive cell.

[...]

The constrained configuration has the point symmetry C_1 .

Analysis of structural, dynamic, and magnetic symmetry:
 Subroutine PRICEL returns:
 Original cell was already a primitive cell.

 Routine SETGRP: Setting up the symmetry group for a
 hexagonal supercell.

 Subroutine GETGRP returns: Found  1 space group operations
 (whereof  1 operations were pure point group operations)
 out of a pool of 24 trial point group operations.

The magnetic configuration has the point symmetry C_1 .

 Subroutine INISYM returns: Found  1 space group operations
 (whereof  1 operations are pure point group operations),
 and found     1 'primitive' translations

 KPOINTS: mesh auto

Automatic generation of k-mesh.
Space group operators:
 irot       det(A)        alpha          n_x          n_y          n_z        tau_x        tau_y        tau_z
    1     1.000000     0.000000     1.000000     0.000000     0.000000     0.000000     0.000000     0.000000

 Subroutine IBZKPT returns following result:

 Found      4 irreducible k-points:

 Following reciprocal coordinates:
            Coordinates               Weight
  0.000000  0.000000  0.000000      1.000000
  0.500000  0.000000  0.000000      1.000000
  0.000000  0.500000  0.000000      1.000000
  0.500000  0.500000  0.000000      1.000000

 Following cartesian coordinates:
            Coordinates               Weight
  0.000000  0.000000  0.000000      1.000000
  0.044553 -0.025722  0.000000      1.000000
  0.000000  0.051445  0.000000      1.000000
  0.044553  0.025722  0.000000      1.000000

 TETIRR: Found     12 inequivalent tetrahedra from       24
 BZINTS: Fermi energy:  1.513588;778.000000 electrons
         Band energy:-899.393811;  BLOECHL correction: -0.235963