 vasp.5.4.4.18Apr17-6-g9f103f2a35 (build Oct 25 2019 11:13:22) complex

 executed on             LinuxIFC date 2021.10.16  19:29:39

 INCAR:
 POTCAR:    PAW_PBE Pt 04Feb2005
 POTCAR:    PAW_PBE Fe 06Sep2000
 POTCAR:    PAW_PBE Co 02Aug2007
 POTCAR:    PAW_PBE Cu 22Jun2005
 POTCAR:    PAW_PBE Ni 02Aug2007
 POTCAR:    PAW_PBE H 15Jun2001
 POTCAR:    PAW_PBE Pt 04Feb2005
   VRHFIN =Pt: s1d9

   TITEL  = PAW_PBE Pt 04Feb2005
   POMASS =  195.080; ZVAL   =   10.000    mass and valenz
   ENMAX  =  230.283; ENMIN  =  172.712 eV

 POTCAR:    PAW_PBE Fe 06Sep2000
   VRHFIN =Fe:  d7 s1

   TITEL  = PAW_PBE Fe 06Sep2000
   POMASS =   55.847; ZVAL   =    8.000    mass and valenz
   ENMAX  =  267.882; ENMIN  =  200.911 eV

 POTCAR:    PAW_PBE Co 02Aug2007
   VRHFIN =Co: d8 s1

   TITEL  = PAW_PBE Co 02Aug2007
   POMASS =   58.933; ZVAL   =    9.000    mass and valenz
   ENMAX  =  267.968; ENMIN  =  200.976 eV

 POTCAR:    PAW_PBE Cu 22Jun2005
   VRHFIN =Cu: d10 p1

   TITEL  = PAW_PBE Cu 22Jun2005
   POMASS =   63.546; ZVAL   =   11.000    mass and valenz
   ENMAX  =  295.446; ENMIN  =  221.585 eV

 POTCAR:    PAW_PBE Ni 02Aug2007
   VRHFIN =Ni:

   TITEL  = PAW_PBE Ni 02Aug2007
   POMASS =   58.690; ZVAL   =   10.000    mass and valenz
   ENMAX  =  269.532; ENMIN  =  202.149 eV

 POTCAR:    PAW_PBE H 15Jun2001
   VRHFIN =H: ultrasoft test

   TITEL  = PAW_PBE H 15Jun2001
   POMASS =    1.000; ZVAL   =    1.000    mass and valenz
   ENMAX  =  250.000; ENMIN  =  200.000 eV

 Optimization of the real space projectors (new method)

 maximal supplied QI-value         = 14.36
 optimisation between [QCUT,QGAM] = [ 11.92, 23.98] = [ 39.79,161.09] Ry
 Optimized for a Real-space Cutoff    1.49 Angstroem

   l    n(q)    QCUT    max X(q) W(low)/X(q) W(high)/X(q)  e(spline)
   2     10    11.920    66.195    0.79E-04    0.18E-03    0.24E-06
   2     10    11.920    64.643    0.81E-04    0.19E-03    0.24E-06
   0     11    11.920    95.520    0.28E-04    0.54E-04    0.18E-06
   0     11    11.920    63.403    0.27E-04    0.52E-04    0.17E-06
   1     10    11.920    19.961    0.18E-04    0.11E-03    0.23E-06
   1     10    11.920    13.289    0.25E-04    0.87E-04    0.19E-06
 Optimization of the real space projectors (new method)

[...]

   l    n(q)    QCUT    max X(q) W(low)/X(q) W(high)/X(q)  e(spline)
   2      9    11.864    60.317    0.21E-03    0.51E-03    0.25E-06
   2      9    11.864    55.921    0.21E-03    0.51E-03    0.26E-06
   0      9    11.864    51.690    0.22E-03    0.30E-04    0.17E-06
   0      9    11.864    30.015    0.20E-03    0.28E-04    0.15E-06
   1      9    11.864    18.849    0.76E-04    0.33E-03    0.17E-06
   1      9    11.864    14.624    0.60E-04    0.28E-03    0.15E-06
 Optimization of the real space projectors (new method)

 maximal supplied QI-value         = 34.20
 optimisation between [QCUT,QGAM] = [ 11.97, 23.94] = [ 40.13,160.53] Ry
 Optimized for a Real-space Cutoff    1.18 Angstroem

   l    n(q)    QCUT    max X(q) W(low)/X(q) W(high)/X(q)  e(spline)
   0      8    11.971    19.460    0.15E-03    0.31E-03    0.25E-06
   0      8    11.971    12.209    0.13E-03    0.29E-03    0.25E-06
   1      8    11.971     4.655    0.22E-03    0.24E-03    0.21E-06
  PAW_PBE Pt 04Feb2005                  :
  PAW_PBE Fe 06Sep2000                  :
  PAW_PBE Co 02Aug2007                  :
  PAW_PBE Cu 22Jun2005                  :
  PAW_PBE Ni 02Aug2007                  :
  PAW_PBE H 15Jun2001                   :

 POSCAR: 11.06
  positions in direct lattice
  velocities in cartesian coordinates
 exchange correlation table for  LEXCH =        8
   RHO(1)=    0.500       N(1)  =     2000
   RHO(2)=  100.500       N(2)  =     4000

 ion  position               nearest neighbor table
   1  0.788  0.880  0.311-  49 2.57  59 2.62  28 2.65  11 2.76  19 2.76  33 2.76  61 2.77  29 2.78
                            60 2.78   4 2.79   2 2.83  12 2.85
   2  0.044  0.880  0.308-  79 2.55  77 2.60  28 2.73  30 2.73  33 2.75  60 2.76  52 2.79   6 2.82
                             1 2.83  22 2.84   4 2.88  16 2.95
   3  0.280  0.378  0.315-  64 2.55  68 2.65  31 2.66  39 2.67   5 2.74  33 2.75  13 2.77  25 2.80
                            43 2.81  19 2.81  30 2.84  18 2.96
   4  0.871  0.965  0.415-  81 1.83  17 2.71  60 2.72  11 2.75   9 2.76   1 2.79  12 2.80   6 2.83
                            16 2.85   2 2.88
   5  0.118  0.466  0.417-  39 2.64  33 2.70  12 2.71   7 2.71  16 2.71   3 2.74  10 2.74  25 2.80
                            13 2.87
   6  0.128  0.962  0.414-  52 2.67   8 2.71  10 2.77  22 2.79  14 2.79   9 2.81   2 2.82   4 2.83
                            16 2.84
   7  0.878  0.457  0.418-  39 2.63  75 2.66   5 2.71   9 2.72  15 2.72  10 2.74  29 2.75  12 2.79
                            27 2.82
   8  0.375  0.959  0.414-  43 2.56  52 2.63  61 2.68   6 2.71  14 2.74  27 2.74  13 2.75  10 2.77
                            11 2.77
   9  0.872  0.214  0.412-  75 2.63  60 2.67   7 2.72  15 2.72  17 2.74   4 2.76  22 2.78   6 2.81
                            10 2.83
  10  0.128  0.212  0.415-  39 2.64  43 2.68  13 2.72  22 2.73   7 2.74   5 2.74   8 2.77   6 2.77
                             9 2.83
  11  0.626  0.958  0.414-  81 1.79  61 2.71  12 2.74  27 2.75  13 2.75   4 2.75   1 2.76   8 2.77
                            17 2.78  19 2.78
  12  0.874  0.711  0.417-  81 1.82  33 2.69  29 2.70   5 2.71  11 2.74  27 2.77  16 2.78   7 2.79
                             4 2.80   1 2.85
  13  0.378  0.206  0.416-  43 2.68  10 2.72   8 2.75  11 2.75  19 2.76  17 2.77   3 2.77  25 2.78
                             5 2.87
  14  0.380  0.710  0.415-  44 2.61  52 2.65  27 2.70   8 2.74  15 2.74  30 2.76   6 2.79  25 2.80
                            16 2.81
  15  0.629  0.462  0.415-  44 2.62  75 2.64   9 2.72  27 2.72   7 2.72  18 2.73  14 2.74  17 2.81
                            25 2.83
  16  0.128  0.706  0.418-  33 2.66   5 2.71  25 2.72  30 2.76  12 2.78  14 2.81   6 2.84   4 2.85
                             2 2.95
  17  0.626  0.210  0.413-   4 2.71  18 2.71  60 2.73   9 2.74  13 2.77  25 2.78  11 2.78  19 2.81
                            15 2.81
  18  0.547  0.378  0.315-  67 2.54  68 2.61  26 2.67  17 2.71  44 2.73  15 2.73  60 2.74  75 2.76
                            25 2.79  30 2.83  19 2.86   3 2.96
  19  0.535  0.125  0.311-  80 2.53  68 2.56  59 2.57  43 2.66  13 2.76   1 2.76  61 2.77  11 2.78
                             3 2.81  17 2.81  18 2.86  60 2.89
  20  0.552  0.124  0.052-  37 2.54  57 2.54  48 2.56  62 2.67  63 2.77  47 2.79  34 2.81  56 2.83
                            45 2.95
  21  0.117  0.448  0.127-  47 2.51  36 2.52  40 2.52  42 2.62  70 2.69  69 2.70  64 2.70  31 2.74
                            50 2.78  57 2.79  74 3.04  58 3.09
  22  0.048  0.135  0.312-  65 2.53  77 2.54  55 2.56  43 2.69  39 2.70  10 2.73   9 2.78   6 2.79
                            75 2.81   2 2.84  52 2.84  60 2.84  31 3.35
  23  0.032  0.132  0.039-  70 2.56  41 2.58  40 2.58  62 2.69  76 2.70  24 2.71  45 2.77  35 2.89
                            53 2.93
  24  0.132  0.957  0.136-  79 2.51  35 2.56  77 2.57  53 2.57  55 2.59  70 2.65  58 2.68  23 2.71
                            73 2.74  38 2.74  66 2.81  41 2.91
  25  0.374  0.460  0.417-  16 2.72  17 2.78  13 2.78  30 2.78  18 2.79   5 2.80  14 2.80   3 2.80
                            15 2.83
  26  0.458  0.551  0.220-  74 2.50  73 2.52  51 2.55  79 2.63  30 2.64  18 2.67  44 2.68  32 2.73
                            78 2.74  68 2.81  67 2.84  64 2.85
  27  0.623  0.712  0.416-  44 2.64  61 2.68  14 2.70  15 2.72   8 2.74  11 2.75  29 2.77  12 2.77
                             7 2.82
  28  0.955  0.779  0.215-  58 2.56  50 2.56  66 2.61   1 2.65  42 2.65  33 2.67  49 2.68   2 2.73
                            64 2.75  59 2.94  77 3.16  79 3.16
  29  0.800  0.624  0.317-  42 2.55  32 2.63  39 2.63  49 2.64  75 2.68  12 2.70  33 2.73   7 2.75
                            27 2.77   1 2.78  61 2.79  44 2.83
  30  0.288  0.630  0.314-  79 2.53  64 2.63  26 2.64  33 2.71   2 2.73  52 2.75  16 2.76  14 2.76
                            25 2.78  44 2.80  18 2.83   3 2.84
  31  0.197  0.274  0.226-  70 2.49  43 2.57  57 2.57  55 2.61  39 2.62  65 2.63   3 2.66  21 2.74
                            42 2.80  80 2.84  64 2.96  68 3.01  22 3.35
  32  0.704  0.554  0.222-  54 2.55  69 2.55  51 2.59  49 2.63  29 2.63  44 2.66  78 2.67  75 2.67
                            65 2.72  42 2.73  26 2.73  67 2.77
  33  0.041  0.635  0.319-  16 2.66  28 2.67  64 2.68  12 2.69   5 2.70  30 2.71  42 2.71  29 2.73
                             2 2.75   3 2.75   1 2.76  39 2.80
  34  0.794  0.860  0.055-  50 2.37  48 2.43  66 2.54  36 2.60  63 2.69  71 2.72  20 2.81  35 2.85

  35  0.050  0.863  0.048-  36 2.43  58 2.54  24 2.56  66 2.58  72 2.69  34 2.85  23 2.89  53 2.90
                            62 2.92
  36  0.046  0.646  0.053-  35 2.43  21 2.52  58 2.52  50 2.58  34 2.60  72 2.68  47 2.90  71 3.06

  37  0.627  0.234  0.134-  67 2.50  56 2.50  51 2.50  20 2.54  59 2.54  74 2.55  68 2.55  62 2.57
                            41 2.59  66 2.76
  38  0.383  0.952  0.134-  45 2.42  53 2.43  80 2.46  55 2.52  78 2.52  63 2.54  73 2.58  54 2.59
                            48 2.62  24 2.74  57 2.75  70 2.83
  39  0.035  0.384  0.321-  42 2.60  31 2.62   7 2.63  29 2.63  10 2.64   5 2.64   3 2.67  65 2.68
                            75 2.68  22 2.70  33 2.80  43 2.96
  40  0.009  0.376  0.044-  69 2.35  76 2.47  21 2.52  23 2.58  70 2.59  71 2.60  45 3.03
  41  0.868  0.220  0.132-  76 2.44  77 2.46  67 2.52  65 2.54  62 2.56  23 2.58  37 2.59  69 2.60
                            51 2.66  66 2.68  70 2.71  24 2.91
  42  0.958  0.538  0.223-  50 2.48  29 2.55  39 2.60  21 2.62  69 2.62  28 2.65  65 2.66  33 2.71
                            32 2.73  64 2.76  49 2.77  31 2.80
  43  0.301  0.114  0.319-  55 2.51   8 2.56  31 2.57  80 2.58  19 2.66  10 2.68  52 2.68  13 2.68
                            61 2.68  22 2.69   3 2.81  39 2.96
  44  0.543  0.626  0.320-  14 2.61  78 2.62  15 2.62  27 2.64  32 2.66  26 2.68  61 2.71  75 2.71
                            52 2.71  18 2.73  30 2.80  29 2.83
  45  0.291  0.112  0.049-  38 2.42  70 2.44  53 2.53  57 2.59  63 2.71  23 2.77  20 2.95  40 3.03
                            47 3.10
  46  0.550  0.626  0.049-  54 2.38  51 2.39  73 2.40  71 2.55  76 2.70  56 2.73  53 2.75  63 2.76
                            72 2.80
  47  0.309  0.384  0.051-  74 2.30  21 2.51  56 2.59  57 2.60  72 2.60  20 2.79  36 2.90  45 3.10

  48  0.625  0.943  0.137-  49 2.35  34 2.43  80 2.48  54 2.52  63 2.52  20 2.56  59 2.58  38 2.62
                            50 2.70  57 2.82  66 2.91
  49  0.707  0.789  0.221-  48 2.35  50 2.43  54 2.50   1 2.57  61 2.62  32 2.63  29 2.64  80 2.66
                            78 2.67  28 2.68  42 2.77  59 2.93
  50  0.857  0.689  0.133-  71 2.36  34 2.37  49 2.43  42 2.48  54 2.49  69 2.53  28 2.56  36 2.58
                            48 2.70  21 2.78
  51  0.628  0.460  0.130-  46 2.39  76 2.43  37 2.50  56 2.51  26 2.55  32 2.59  67 2.62  69 2.64
                            41 2.66  74 2.68  73 2.76  54 2.82
[...]

 FORCES acting on ions
    electron-ion (+dipol)            ewald-force                    non-local-force                 convergence-correction
   -.586E+02 0.697E+02 -.138E+04   0.583E+02 -.698E+02 0.137E+04   0.285E+00 0.188E+00 0.234E+01   0.236E-01 -.275E-01 0.152E-01
   0.473E+02 0.581E+02 -.130E+04   -.469E+02 -.584E+02 0.130E+04   -.346E+00 0.298E+00 0.240E+01   -.745E-03 0.829E-03 -.477E-02
   0.417E+02 -.149E+02 -.143E+04   -.433E+02 0.149E+02 0.143E+04   0.159E+01 -.123E+00 0.196E+01   0.176E-01 0.556E-01 0.979E-02
   -.132E+02 0.352E+02 -.275E+04   0.143E+02 -.345E+02 0.275E+04   -.109E+01 -.738E+00 0.102E+01   0.560E-01 -.286E-01 -.823E-02
   -.262E+02 0.899E+01 -.276E+04   0.254E+02 -.833E+01 0.276E+04   0.792E+00 -.707E+00 0.211E+01   0.231E-01 0.542E-01 0.204E-01
   0.182E+02 -.236E+01 -.276E+04   -.181E+02 0.193E+01 0.276E+04   -.465E-01 0.431E+00 0.176E+01   -.488E-01 -.337E-01 -.192E-01
   -.264E+02 -.439E+01 -.282E+04   0.266E+02 0.361E+01 0.282E+04   -.180E+00 0.769E+00 0.222E+01   0.144E-01 -.133E-01 -.240E-01
   0.160E+02 -.276E+02 -.281E+04   -.164E+02 0.278E+02 0.281E+04   0.501E+00 -.225E+00 0.259E+01   -.578E-01 -.154E-01 0.136E-01
   -.296E+02 0.267E+02 -.279E+04   0.291E+02 -.264E+02 0.279E+04   0.380E+00 -.260E+00 0.184E+01   0.247E-01 -.344E-01 -.275E-01
   -.364E+01 -.377E-01 -.277E+04   0.436E+01 0.312E+00 0.276E+04   -.648E+00 -.241E+00 0.247E+01   -.513E-01 -.108E-01 0.123E-01
   -.147E+02 -.169E+02 -.278E+04   0.145E+02 0.168E+02 0.278E+04   0.170E+00 0.915E-01 0.815E+00   0.547E-01 -.430E-02 0.322E-01
   -.248E+02 0.539E+00 -.276E+04   0.249E+02 -.163E+01 0.276E+04   -.181E+00 0.112E+01 0.149E+01   0.528E-01 -.144E-01 0.226E-01
   0.860E+00 -.369E+02 -.278E+04   -.116E+01 0.363E+02 0.278E+04   0.293E+00 0.642E+00 0.179E+01   -.274E-02 0.288E-01 0.270E-01
   0.435E+02 0.216E+02 -.279E+04   -.426E+02 -.213E+02 0.279E+04   -.884E+00 -.380E+00 0.218E+01   -.671E-01 0.677E-02 -.114E-01
   0.396E+02 -.387E+01 -.281E+04   -.389E+02 0.428E+01 0.281E+04   -.691E+00 -.386E+00 0.219E+01   -.256E-01 -.189E-01 -.268E-01
   0.669E+01 -.825E+01 -.275E+04   -.663E+01 0.745E+01 0.275E+04   -.882E-01 0.767E+00 0.191E+01   0.109E-01 0.246E-01 -.260E-01
   0.319E+02 -.421E+00 -.279E+04   -.319E+02 0.115E+01 0.279E+04   -.821E-01 -.756E+00 0.205E+01   0.412E-01 -.726E-02 0.305E-02
   0.769E+02 -.525E+02 -.146E+04   -.757E+02 0.527E+02 0.146E+04   -.119E+01 -.241E+00 0.154E+01   0.273E-01 0.296E-01 0.205E-01
   0.161E+02 -.349E+02 -.142E+04   -.173E+02 0.344E+02 0.142E+04   0.112E+01 0.550E+00 0.227E+01   0.456E-01 0.249E-03 0.351E-01
   0.594E+02 0.339E+02 0.281E+04   -.591E+02 -.341E+02 -.281E+04   -.355E+00 0.116E+00 -.282E+01   -.492E-01 0.117E+00 -.107E-03
   -.138E+02 -.320E+02 0.164E+04   0.126E+02 0.325E+02 -.164E+04   0.120E+01 -.471E+00 0.129E+01   0.124E+00 -.267E-01 -.653E-01
   -.517E+02 0.212E+02 -.141E+04   0.526E+02 -.207E+02 0.141E+04   -.829E+00 -.435E+00 0.234E+01   -.660E-01 -.235E-02 0.385E-01
   -.708E+02 0.943E+02 0.293E+04   0.713E+02 -.927E+02 -.293E+04   -.481E+00 -.164E+01 -.271E+01   -.117E-02 0.189E-01 -.161E-01
   0.407E+02 -.476E+02 0.151E+04   -.404E+02 0.470E+02 -.151E+04   -.353E+00 0.605E+00 -.733E+00   -.629E-01 0.162E-01 0.661E-01
   0.113E+02 -.495E+00 -.277E+04   -.117E+02 0.382E+00 0.277E+04   0.445E+00 0.368E-01 0.170E+01   -.234E-01 0.638E-01 0.135E-02
   0.114E+02 0.107E+02 -.465E+01   -.113E+02 -.104E+02 0.374E+01   -.201E+00 -.360E+00 0.793E+00   -.297E-01 -.233E-01 0.755E-01
   -.246E+02 0.106E+02 -.281E+04   0.236E+02 -.108E+02 0.280E+04   0.107E+01 0.255E+00 0.230E+01   -.132E-01 -.242E-01 -.975E-02
   -.775E+01 0.283E+02 0.143E+03   0.667E+01 -.299E+02 -.143E+03   0.117E+01 0.167E+01 -.826E-01   -.165E-01 0.557E-02 0.409E-01
   -.773E+02 -.441E+01 -.143E+04   0.781E+02 0.334E+01 0.142E+04   -.778E+00 0.111E+01 0.257E+01   0.156E-01 0.664E-02 0.723E-02
   0.472E+02 0.265E+02 -.144E+04   -.472E+02 -.256E+02 0.144E+04   0.131E-01 -.805E+00 0.209E+01   0.791E-02 0.158E-01 0.390E-01
   -.205E+02 -.750E+02 -.489E+02   0.195E+02 0.744E+02 0.492E+02   0.105E+01 0.479E+00 -.271E+00   0.992E-02 0.605E-01 -.674E-02
   -.355E+02 -.225E+02 -.662E+01   0.360E+02 0.232E+02 0.608E+01   -.486E+00 -.733E+00 0.436E+00   0.289E-01 -.416E-02 0.945E-01
   0.162E+02 0.405E+01 -.114E+04   -.161E+02 -.417E+01 0.114E+04   -.405E-01 0.171E+00 0.191E+00   0.147E-01 0.170E-01 0.242E-01
   -.852E+02 0.566E+01 0.224E+04   0.857E+02 -.687E+01 -.224E+04   -.435E+00 0.124E+01 -.285E+01   -.914E-03 0.164E-01 0.144E-01
   0.369E+02 -.119E+02 0.231E+04   -.373E+02 0.101E+02 -.230E+04   0.524E+00 0.195E+01 -.305E+01   -.340E-01 -.864E-02 0.379E-02
   0.597E+02 0.346E+02 0.225E+04   -.591E+02 -.329E+02 -.225E+04   -.640E+00 -.168E+01 -.292E+01   0.318E-01 -.879E-01 0.768E-02
   0.476E+02 0.814E+02 0.119E+04   -.466E+02 -.806E+02 -.119E+04   -.952E+00 -.831E+00 -.683E-01   -.471E-01 -.116E-02 -.585E-02
   0.211E+02 -.881E+02 0.121E+04   -.210E+02 0.876E+02 -.121E+04   -.127E+00 0.448E+00 -.541E+00   0.429E-01 0.413E-01 0.102E-01
   -.673E+02 -.220E+02 -.117E+04   0.675E+02 0.221E+02 0.117E+04   -.124E+00 -.197E+00 0.280E+00   -.320E-01 0.161E-01 0.252E-01
   -.200E+03 -.368E+01 0.236E+04   0.197E+03 0.333E+01 -.236E+04   0.212E+01 0.319E+00 -.380E+01   0.879E-01 0.194E-03 -.108E-01
   -.437E+02 0.704E+02 0.123E+04   0.428E+02 -.698E+02 -.123E+04   0.926E+00 -.641E+00 -.534E+00   -.207E-01 -.224E-01 0.457E-01
   -.834E+02 -.992E+01 -.163E+02   0.831E+02 0.103E+02 0.164E+02   0.229E+00 -.422E+00 -.198E+00   0.979E-03 0.241E-01 0.216E-01
   0.145E+02 -.840E+02 -.119E+04   -.146E+02 0.839E+02 0.119E+04   0.146E+00 0.174E+00 0.612E+00   -.180E-01 -.128E-02 0.407E-01
   0.180E+02 0.210E+02 -.119E+04   -.181E+02 -.211E+02 0.119E+04   0.123E+00 0.661E-01 -.230E+00   -.133E-01 -.168E-01 0.186E-01
   -.222E+02 -.106E+03 0.230E+04   0.209E+02 0.104E+03 -.230E+04   0.120E+01 0.211E+01 -.330E+01   0.723E-01 0.970E-01 -.139E-01
   0.304E+02 -.369E+02 0.263E+04   -.302E+02 0.371E+02 -.263E+04   -.215E+00 -.109E+00 -.296E+01   -.274E-02 -.358E-01 -.323E-01
   0.202E+03 0.429E+02 0.261E+04   -.201E+03 -.420E+02 -.261E+04   -.774E+00 -.943E+00 -.314E+01   -.940E-02 -.256E-01 -.111E-01
   -.790E+02 -.579E+02 0.131E+04   0.783E+02 0.568E+02 -.131E+04   0.676E+00 0.112E+01 -.157E+00   0.348E-01 0.871E-02 0.359E-01
   -.102E+03 0.309E+02 0.182E+02   0.102E+03 -.309E+02 -.185E+02   -.251E-01 -.797E-01 0.334E+00   0.412E-01 -.110E-01 0.393E-01
   -.169E+03 -.471E+01 0.135E+04   0.169E+03 0.528E+01 -.135E+04   0.667E-01 -.612E+00 -.128E+00   0.266E-01 0.142E-01 0.703E-01
   -.587E+01 -.122E+02 0.133E+04   0.611E+01 0.119E+02 -.133E+04   -.196E+00 0.470E+00 -.250E+00   -.363E-01 -.435E-01 0.425E-01
   0.522E+02 -.597E+00 -.136E+04   -.522E+02 0.613E+00 0.136E+04   -.104E+00 0.556E-01 0.752E+00   -.581E-01 -.284E-01 0.416E-01
   0.826E+02 -.599E+02 0.264E+04   -.818E+02 0.601E+02 -.264E+04   -.868E+00 -.277E+00 -.331E+01   0.139E-02 0.312E-01 -.273E-01
   -.306E+02 -.227E+01 0.134E+04   0.306E+02 0.260E+01 -.134E+04   -.105E+00 -.348E+00 -.557E+00   0.680E-01 0.180E-01 0.671E-01
   0.466E+02 -.905E+02 -.236E+02   -.457E+02 0.901E+02 0.239E+02   -.823E+00 0.480E+00 -.458E+00   -.510E-01 -.182E-02 0.508E-01
   0.687E+02 0.360E+02 0.328E+04   -.686E+02 -.351E+02 -.328E+04   0.918E-01 -.907E+00 -.417E+01   -.188E+00 -.526E-01 -.719E-02
   0.642E+02 -.120E+02 0.163E+04   -.646E+02 0.113E+02 -.163E+04   0.300E+00 0.596E+00 0.707E-02   0.430E-01 0.127E+00 -.121E+00
   0.186E+03 -.421E+02 0.154E+04   -.186E+03 0.426E+02 -.154E+04   -.202E+00 -.516E+00 -.620E-01   -.561E-01 -.605E-01 0.530E-01
   0.296E+02 0.916E+02 0.118E+03   -.302E+02 -.913E+02 -.118E+03   0.580E+00 -.472E+00 -.263E-01   0.279E-01 -.283E-01 0.208E-01
   0.135E+02 0.747E+02 -.160E+04   -.131E+02 -.748E+02 0.160E+04   -.443E+00 0.117E+00 0.774E+00   0.455E-01 -.515E-02 0.195E-01
[...]
   0.743E+02 0.411E-01 0.474E+01   -.736E+02 -.125E+00 -.432E+01   -.793E+00 0.564E-01 -.377E+00   0.345E-02 0.268E-01 -.219E-01
   -.118E+03 -.105E+02 0.148E+04   0.118E+03 0.107E+02 -.148E+04   0.575E+00 -.219E+00 -.577E+00   0.442E-01 0.380E-02 0.588E-01
   -.548E+02 0.495E+01 0.155E+04   0.552E+02 -.533E+01 -.155E+04   -.446E+00 0.358E+00 -.574E+00   0.399E-01 0.452E-01 0.431E-02
   -.165E+03 -.286E+02 0.296E+04   0.164E+03 0.285E+02 -.295E+04   0.382E-01 0.113E+00 -.265E+01   0.491E-01 0.780E-02 -.106E-01
   0.940E+02 -.662E+02 0.294E+04   -.946E+02 0.668E+02 -.293E+04   0.848E+00 -.319E+00 -.162E+01   -.109E+00 -.170E+00 -.125E-01
   0.281E+02 -.304E+02 0.153E+04   -.277E+02 0.303E+02 -.153E+04   -.365E+00 0.149E+00 0.104E-01   -.416E-01 -.403E-01 0.680E-01
   0.101E+03 0.987E+01 0.148E+04   -.100E+03 -.978E+01 -.148E+04   -.831E+00 0.567E-01 -.566E+00   -.129E+00 -.884E-01 -.100E+00
   -.327E+02 -.431E+02 -.150E+04   0.327E+02 0.432E+02 0.150E+04   0.473E-01 -.143E+00 0.203E+00   0.401E-03 -.149E-01 0.138E-01
   -.475E+02 0.196E+02 0.294E+04   0.479E+02 -.190E+02 -.293E+04   -.383E+00 -.565E+00 -.196E+01   -.163E-01 -.285E-01 -.204E-01
   -.465E+02 0.134E+03 0.782E+02   0.469E+02 -.133E+03 -.778E+02   -.430E+00 -.353E+00 -.456E+00   -.275E-01 -.430E-02 0.687E-01
   -.436E+01 0.516E+02 -.399E+02   0.428E+01 -.508E+02 0.397E+02   0.639E-01 -.818E+00 -.161E-02   0.284E-01 -.388E-01 0.861E-01
   0.120E+03 -.147E+02 -.500E+02   -.119E+03 0.153E+02 0.501E+02   -.429E+00 -.666E+00 -.315E+00   -.599E-01 -.208E-01 0.968E-01
   -.252E+02 -.934E+02 0.175E+02   0.247E+02 0.930E+02 -.175E+02   0.378E+00 0.454E+00 -.928E-01   0.634E-01 -.156E-01 0.190E-03
   -.393E+01 -.110E+01 -.326E+03   0.416E+01 0.118E+01 0.328E+03   -.212E+00 -.359E-01 -.142E+01   0.651E-02 -.208E-02 -.980E-03
   -.152E+01 0.209E+00 0.290E+01   0.174E-12 -.103E-11 -.247E-10   0.163E+01 -.730E-01 -.411E+01   -.119E+00 -.128E+00 0.122E+01

 POSITION                                       TOTAL-FORCE (eV/Angst)
     13.58278      8.43286      6.85154         0.009688     -0.015789     -0.029235
      5.34760      8.43240      6.74649         0.007234      0.003705      0.000081
      5.18556      3.62087      6.92334         0.003158     -0.007790      0.007522
     15.05455      9.24077      9.10483        -0.006995      0.005034     -0.016457
      3.89207      4.45727      9.18149         0.004480      0.000972     -0.002319
      6.70527      9.18905      9.06663        -0.004489     -0.006122     -0.046773
     12.22739      4.37464      9.20048         0.008154     -0.010467      0.008191
      9.44099      9.18479      9.10465         0.027119     -0.010818      0.004148
     10.83445      2.02564      9.05632         0.018497      0.005957     -0.013420
      2.59484      2.02768      9.11829        -0.004180      0.005443     -0.004545
     12.20148      9.20207      9.14279        -0.017266      0.000465      0.026498
     13.61073      6.77218      9.21442        -0.016037     -0.011425      0.019339
      5.30983      1.98108      9.15152        -0.009924     -0.004504      0.002322
      8.10710      6.81796      9.13312         0.005168     -0.000643     -0.017131
      9.49939      4.41928      9.13940        -0.015670     -0.015858      0.003227
      5.32626      6.79973      9.15267        -0.006423     -0.005096     -0.035310
      8.08904      2.03074      9.09458         0.015972     -0.008093      0.001646
      8.14197      3.61859      6.91807        -0.003584     -0.016049      0.004341
      6.60669      1.20479      6.84487        -0.003207     -0.000007     -0.001059
      6.78710      1.18523      1.14924         0.007087     -0.003239     -0.011784
      3.76654      4.28943      2.79191        -0.013714     -0.021454      0.010836
      1.27639      1.28881      6.85052         0.001337     -0.006888     -0.007079
      1.08322      1.26580      0.86116        -0.008322     -0.018264     -0.013066
      6.75769      9.17044      2.98650         0.005289     -0.007134      0.007378
      6.66898      4.40473      9.16775        -0.010716     -0.003787     -0.010576
      8.11381      5.27353      4.83171        -0.008108      0.008573     -0.014621
     10.79986      6.79486      9.14400         0.001564      0.009776      0.015391
     14.86749      7.46195      4.73691        -0.013307      0.015452      0.071236
     12.29660      5.97837      6.96971        -0.002426     -0.008194     -0.036185
      6.67388      6.03294      6.90388        -0.005230      0.024028      0.014237
      3.69611      2.62221      4.96528        -0.000670      0.008055     -0.026202
     10.84750      5.30333      4.87795         0.025537      0.010394     -0.016214
      3.96573      6.07326      7.01520        -0.019432     -0.012699     -0.009757
     13.54014      8.23685      1.21769        -0.000487     -0.006828      0.016437
      5.32877      8.26421      1.06683         0.013613     -0.011305     -0.016385
      4.07872      6.18644      1.16963        -0.000329     -0.007000     -0.005257
      8.23293      2.23943      2.94956        -0.001349     -0.001639      0.009743
      9.50197      9.12028      2.95366        -0.009637      0.003289      0.000650
      2.51529      3.67773      7.05660         0.009316      0.003040      0.002768
      2.17813      3.60438      0.95905        -0.007632      0.000382      0.003057
     10.81855      2.10616      2.90557        -0.005838     -0.003091      0.004646
     13.56981      5.15767      4.91632         0.013108      0.007133      0.007221
      3.95952      1.09299      7.01363         0.018184     -0.004711     -0.006108
      9.46361      6.00007      7.03593        -0.004634      0.000494      0.002883
      3.84082      1.07508      1.08740        -0.008555     -0.003683      0.008374
      9.54360      5.99174      1.07418        -0.025977      0.020739      0.001583
      5.53326      3.67383      1.11237        -0.009383      0.019110      0.004185
     12.12391      9.03535      3.02482         0.003683      0.016398      0.003732
     12.19001      7.56078      4.85800         0.032543      0.002278      0.048113
     13.29175      6.60251      2.91585         0.013154      0.014610     -0.000854
      9.48696      4.40599      2.86728        -0.002300      0.024146     -0.000737
      8.12834      8.36908      6.98185         0.011443      0.003228     -0.015581
      8.22572      8.40044      1.02038         0.017855     -0.011873      0.013109
     10.81470      6.88846      2.87925        -0.008963      0.020147      0.010289
      2.70342      0.21102      5.02247         0.007781     -0.015365      0.009766
      8.11520      3.66906      0.89878        -0.003544      0.001335     -0.014113
      5.28377      1.95964      3.04932        -0.005408      0.006954     -0.000101
      5.61899      6.74656      3.08047        -0.005439     -0.006625      0.014310
      8.07791      0.54162      4.83808         0.001838     -0.023538      0.043263
      9.48872      1.23546      6.88895        -0.011254      0.004123      0.002868
[...]
      9.57359      2.84462      4.96726        -0.007790     -0.013098     -0.007412
      6.69370      2.85116      4.88285         0.025927     -0.001697     -0.019759
     12.12773      4.35211      2.88488        -0.010254     -0.003782      0.006897
      2.46536      1.93297      2.91282         0.020674     -0.000308      0.000722
     12.08907      5.94123      0.99380        -0.009381     -0.013336     -0.008273
      6.74616      5.97802      1.08730         0.012594      0.004073      0.013737
      8.23740      6.87147      2.88707         0.011362     -0.008967     -0.014199
      6.80581      4.34717      2.90754         0.009438      0.010768      0.007326
     10.89428      3.69486      7.01146         0.002594      0.008140      0.008108
     10.76626      3.58716      0.97095        -0.011641     -0.006189      0.004923
     10.88657      0.63149      4.87040        -0.000158     -0.021030      0.004567
      9.52479      7.61651      4.98098        -0.016295     -0.001422     -0.008528
      6.95958      7.62760      4.96170        -0.006344      0.025265     -0.019210
      5.23455      0.23107      4.94671         0.011404      0.002006     -0.002237
     13.60092      8.45365     10.02199         0.018346      0.043725      0.014082
    total drift:                               -0.008464      0.007990      0.019819

  FREE ENERGIE OF THE ION-ELECTRON SYSTEM (eV)
  free  energy   TOTEN  =      -504.63269870 eV

  energy  without entropy=     -504.64040224  energy(sigma->0) =     -504.63526655

 d Force = 0.9146534E-03[ 0.377E-03, 0.145E-02]  d Energy = 0.9094833E-03 0.517E-05
 d Force =-0.6970163E+01[-0.697E+01,-0.697E+01]  d Ewald  =-0.6970164E+01 0.510E-06

 reached required accuracy - stopping structural energy minimisation