 vasp.5.4.4.18Apr17-6-g9f103f2a35 (build Oct 25 2019 11:13:22) complex

 executed on             LinuxIFC date 2022.02.12  02:29:01

 INCAR:
 POTCAR:    PAW_PBE Pt 04Feb2005
 POTCAR:    PAW_PBE Co 02Aug2007
 POTCAR:    PAW_PBE Ni 02Aug2007
 POTCAR:    PAW_PBE H 15Jun2001
 POTCAR:    PAW_PBE Pt 04Feb2005
   VRHFIN =Pt: s1d9

   TITEL  = PAW_PBE Pt 04Feb2005
   POMASS =  195.080; ZVAL   =   10.000    mass and valenz
   ENMAX  =  230.283; ENMIN  =  172.712 eV

 POTCAR:    PAW_PBE Co 02Aug2007
   VRHFIN =Co: d8 s1

   TITEL  = PAW_PBE Co 02Aug2007
   POMASS =   58.933; ZVAL   =    9.000    mass and valenz
   ENMAX  =  267.968; ENMIN  =  200.976 eV

 POTCAR:    PAW_PBE Ni 02Aug2007
   VRHFIN =Ni:

   TITEL  = PAW_PBE Ni 02Aug2007
   POMASS =   58.690; ZVAL   =   10.000    mass and valenz
   ENMAX  =  269.532; ENMIN  =  202.149 eV

 POTCAR:    PAW_PBE H 15Jun2001
   VRHFIN =H: ultrasoft test

   TITEL  = PAW_PBE H 15Jun2001
   POMASS =    1.000; ZVAL   =    1.000    mass and valenz
   ENMAX  =  250.000; ENMIN  =  200.000 eV

 Optimization of the real space projectors (new method)

 maximal supplied QI-value         = 14.36
 optimisation between [QCUT,QGAM] = [ 11.92, 23.98] = [ 39.79,161.09] Ry
 Optimized for a Real-space Cutoff    1.49 Angstroem

   l    n(q)    QCUT    max X(q) W(low)/X(q) W(high)/X(q)  e(spline)
   2     10    11.920    66.195    0.79E-04    0.18E-03    0.24E-06
   2     10    11.920    64.643    0.81E-04    0.19E-03    0.24E-06
   0     11    11.920    95.520    0.28E-04    0.54E-04    0.18E-06
   0     11    11.920    63.403    0.27E-04    0.52E-04    0.17E-06
   1     10    11.920    19.961    0.18E-04    0.11E-03    0.23E-06
   1     10    11.920    13.289    0.25E-04    0.87E-04    0.19E-06
 Optimization of the real space projectors (new method)

[...]

   l    n(q)    QCUT    max X(q) W(low)/X(q) W(high)/X(q)  e(spline)
   2      9    11.864    60.317    0.21E-03    0.51E-03    0.25E-06
   2      9    11.864    55.921    0.21E-03    0.51E-03    0.26E-06
   0      9    11.864    51.690    0.22E-03    0.30E-04    0.17E-06
   0      9    11.864    30.015    0.20E-03    0.28E-04    0.15E-06
   1      9    11.864    18.849    0.76E-04    0.33E-03    0.17E-06
   1      9    11.864    14.624    0.60E-04    0.28E-03    0.15E-06
 Optimization of the real space projectors (new method)

 maximal supplied QI-value         = 34.20
 optimisation between [QCUT,QGAM] = [ 11.97, 23.94] = [ 40.13,160.53] Ry
 Optimized for a Real-space Cutoff    1.18 Angstroem

   l    n(q)    QCUT    max X(q) W(low)/X(q) W(high)/X(q)  e(spline)
   0      8    11.971    19.460    0.15E-03    0.31E-03    0.25E-06
   0      8    11.971    12.209    0.13E-03    0.29E-03    0.25E-06
   1      8    11.971     4.655    0.22E-03    0.24E-03    0.21E-06
  PAW_PBE Pt 04Feb2005                  :
  PAW_PBE Co 02Aug2007                  :
  PAW_PBE Ni 02Aug2007                  :
  PAW_PBE H 15Jun2001                   :

 POSCAR: 11.26
  positions in direct lattice
  velocities in cartesian coordinates
 exchange correlation table for  LEXCH =        8
   RHO(1)=    0.500       N(1)  =     2000
   RHO(2)=  100.500       N(2)  =     4000

 ion  position               nearest neighbor table
   1  0.789  0.879  0.301-  49 2.47  59 2.56  60 2.64  28 2.69   4 2.73   2 2.74  29 2.75  19 2.80
                            11 2.85  12 2.85  61 2.89  33 2.94
   2  0.033  0.879  0.293-  79 2.49  77 2.57  60 2.72   1 2.74  28 2.76   4 2.81   6 2.89  30 2.90
                            16 2.94  33 2.99  22 3.17  52 3.23
   3  0.276  0.362  0.311-  64 2.54  68 2.62  31 2.63  39 2.67  33 2.70   5 2.71  30 2.76  13 2.76
                            25 2.78  19 2.81  43 2.82  18 2.87
   4  0.875  0.964  0.400-  60 2.71   9 2.72  17 2.72   1 2.73   6 2.79  16 2.79  12 2.81   2 2.81
                            11 2.83
   5  0.113  0.467  0.410-  39 2.60  33 2.70   3 2.71  12 2.72  16 2.73  10 2.76   7 2.77  25 2.85
                            13 2.98
   6  0.125  0.959  0.400-  52 2.62  22 2.70   4 2.79   8 2.83  16 2.86   9 2.88   2 2.89  10 2.90
                            14 2.91
   7  0.873  0.455  0.412-  75 2.54  39 2.58   5 2.77  10 2.79  27 2.80   9 2.80  29 2.82  15 2.84
                            12 2.93
   8  0.377  0.956  0.415-  43 2.53  52 2.56  61 2.68  13 2.75  27 2.80  11 2.81   6 2.83  10 2.84
                            14 2.90
   9  0.864  0.211  0.396-  75 2.60  22 2.67   4 2.72  17 2.73  15 2.74  60 2.77   7 2.80   6 2.88
                            10 3.01
  10  0.129  0.214  0.413-  22 2.64  43 2.69  13 2.72   5 2.76  39 2.77   7 2.79   8 2.84   6 2.90
                             9 3.01
  11  0.629  0.952  0.410-  61 2.65  12 2.71  19 2.73  27 2.76  17 2.79  13 2.81   8 2.81   4 2.83
                             1 2.85
  12  0.875  0.714  0.408-  29 2.66  16 2.68  11 2.71   5 2.72   4 2.81  33 2.81  27 2.83   1 2.85
                             7 2.93
  13  0.378  0.200  0.413-  81 1.51  43 2.70  10 2.72  19 2.73   8 2.75   3 2.76  25 2.78  17 2.80
                            11 2.81   5 2.98
  14  0.381  0.696  0.403-  52 2.55  44 2.56  15 2.69  25 2.81  27 2.84  30 2.88  16 2.90   8 2.90
                             6 2.91
  15  0.620  0.456  0.399-  75 2.53  44 2.61  14 2.69   9 2.74  25 2.79  17 2.83   7 2.84  18 2.85
                            27 2.87
  16  0.116  0.709  0.404-  12 2.68  30 2.69   5 2.73  33 2.76   4 2.79   6 2.86  14 2.90  25 2.92
                             2 2.94
  17  0.627  0.201  0.404-  18 2.69   4 2.72   9 2.73  19 2.79  11 2.79  25 2.79  13 2.80  60 2.82
                            15 2.83
  18  0.538  0.348  0.301-  67 2.46  26 2.59  68 2.67  17 2.69  60 2.69  19 2.70  25 2.82  15 2.85
                             3 2.87  30 2.95  75 3.20
  19  0.527  0.113  0.308-  59 2.47  80 2.51  68 2.57  43 2.61  61 2.63  18 2.70  13 2.73  11 2.73
                            17 2.79   1 2.80   3 2.81  60 2.92
  20  0.546  0.126  0.067-  48 2.50  57 2.52  47 2.52  62 2.53  37 2.60  56 2.66  34 2.70  63 2.89

  21  0.118  0.408  0.119-  47 2.44  40 2.48  36 2.49  69 2.60  57 2.64  42 2.67  64 2.70  70 2.72
                            31 2.74  50 3.30
  22  0.055  0.148  0.310-  77 2.43  65 2.51  55 2.51  43 2.57  39 2.62  10 2.64   9 2.67   6 2.70
                            75 2.90  31 3.04  52 3.05   2 3.17  60 3.23
  23  0.009  0.102  0.049-  40 2.49  62 2.55  70 2.57  41 2.59  45 2.66  76 2.69  24 2.70  35 2.74
                            53 3.07
  24  0.138  0.927  0.142-  79 2.46  35 2.50  77 2.54  58 2.54  53 2.56  55 2.59  38 2.59  73 2.64
                            70 2.65  23 2.70  66 2.83
  25  0.376  0.448  0.407-  81 1.54  30 2.76  13 2.78   3 2.78  15 2.79  17 2.79  14 2.81  18 2.82
                             5 2.85  16 2.92
  26  0.480  0.554  0.230-  74 2.50  73 2.52  44 2.52  51 2.59  18 2.59  79 2.60  78 2.62  30 2.63
                            32 2.66  67 2.70
  27  0.627  0.707  0.413-  44 2.49  61 2.70  11 2.76   7 2.80   8 2.80  29 2.80  12 2.83  14 2.84
                            15 2.87
  28  0.953  0.759  0.204-  58 2.53  50 2.61  66 2.61  42 2.62  36 2.63  33 2.66   1 2.69   2 2.76
                            64 2.80  49 2.88  34 3.22  59 3.23  35 3.30
  29  0.797  0.631  0.311-  39 2.59  32 2.61  49 2.62  75 2.62  42 2.63  33 2.64  44 2.65  12 2.66
                             1 2.75  27 2.80   7 2.82  61 2.84
  30  0.274  0.608  0.304-  79 2.43  33 2.60  26 2.63  64 2.65  16 2.69  25 2.76   3 2.76  14 2.88
                             2 2.90  18 2.95  52 3.26
  31  0.187  0.262  0.225-  70 2.52  57 2.57  65 2.58  55 2.59  39 2.62   3 2.63  43 2.63  42 2.72
                            80 2.73  21 2.74  68 2.76  64 2.79  22 3.04
  32  0.711  0.561  0.214-  69 2.53  51 2.56  54 2.61  29 2.61  49 2.62  26 2.66  65 2.66  50 2.66
                            42 2.68  75 2.69  78 2.71  67 2.73  44 2.73
  33  0.042  0.609  0.305-  42 2.47  64 2.50  39 2.51  30 2.60  29 2.64  28 2.66   5 2.70   3 2.70
                            16 2.76  12 2.81   1 2.94   2 2.99
  34  0.782  0.884  0.080-  48 2.38  35 2.38  50 2.53  66 2.54  36 2.55  62 2.67  20 2.70  28 3.22

  35  0.002  0.866  0.072-  36 2.37  34 2.38  66 2.43  24 2.50  58 2.60  23 2.74  62 2.75  28 3.30

  36  0.006  0.657  0.094-  50 2.33  35 2.37  58 2.38  21 2.49  34 2.55  28 2.63
  37  0.628  0.234  0.150-  41 2.41  56 2.42  59 2.43  67 2.44  62 2.45  68 2.50  51 2.50  74 2.51
                            20 2.60  66 2.60
  38  0.361  0.942  0.135-  53 2.40  45 2.41  63 2.42  57 2.43  48 2.45  55 2.45  54 2.46  78 2.48
                            80 2.54  73 2.59  24 2.59  70 2.83
  39  0.024  0.396  0.316-  42 2.46  33 2.51   7 2.58  75 2.58  65 2.58  29 2.59   5 2.60  31 2.62
                            22 2.62   3 2.67  10 2.77
  40  0.013  0.321  0.044-  69 2.32  76 2.45  21 2.48  23 2.49  70 2.51  45 2.63  71 2.93
  41  0.844  0.228  0.139-  67 2.35  76 2.37  77 2.38  37 2.41  62 2.44  51 2.48  69 2.48  66 2.49
                            65 2.58  23 2.59  70 2.61
  42  0.967  0.520  0.219-  39 2.46  33 2.47  50 2.48  64 2.48  65 2.50  28 2.62  29 2.63  69 2.65
                            21 2.67  32 2.68  31 2.72
  43  0.303  0.099  0.319-  52 2.45  80 2.46  55 2.51   8 2.53  61 2.56  22 2.57  19 2.61  31 2.63
                            10 2.69  13 2.70   3 2.82
  44  0.553  0.648  0.317-  61 2.45  78 2.47  27 2.49  26 2.52  14 2.56  52 2.57  15 2.61  29 2.65
                            75 2.73  32 2.73
  45  0.251  0.091  0.049-  38 2.41  57 2.45  53 2.48  70 2.50  63 2.54  40 2.63  23 2.66
  46  0.529  0.612  0.047-  54 2.37  73 2.44  51 2.45  71 2.47  72 2.53  53 2.63  56 2.72  76 2.87
                            63 3.07
  47  0.334  0.361  0.072-  74 2.29  56 2.44  21 2.44  57 2.50  72 2.50  20 2.52
  48  0.581  0.937  0.137-  49 2.29  63 2.35  34 2.38  54 2.38  80 2.38  38 2.45  59 2.46  20 2.50
                            57 2.63  50 2.74
  49  0.677  0.809  0.223-  48 2.29  50 2.34  61 2.46  78 2.47   1 2.47  59 2.54  80 2.57  29 2.62
                            32 2.62  54 2.79  28 2.88
  50  0.810  0.679  0.140-  36 2.33  49 2.34  54 2.38  71 2.39  42 2.48  69 2.52  34 2.53  28 2.61
                            32 2.66  48 2.74  21 3.30
  51  0.629  0.454  0.133-  56 2.40  76 2.44  46 2.45  41 2.48  37 2.50  67 2.53  32 2.56  26 2.59
                            74 2.59  69 2.66  73 2.78  54 2.83
  52  0.320  0.872  0.317-  55 2.38  79 2.41  61 2.43  43 2.45  78 2.46  14 2.55   8 2.56  44 2.57
                             6 2.62  22 3.05   2 3.23  30 3.26
  53  0.299  0.850  0.050-  73 2.39  38 2.40  45 2.48  24 2.56  63 2.58  46 2.63  72 2.82  23 3.07

  54  0.581  0.726  0.124-  46 2.37  50 2.38  48 2.38  73 2.40  71 2.42  63 2.42  38 2.46  78 2.50
                            32 2.61  49 2.79  51 2.83
  55  0.229  0.013  0.230-  52 2.38  80 2.44  79 2.44  38 2.45  43 2.51  22 2.51  78 2.56  24 2.59
                            31 2.59  77 2.61  70 2.62
  56  0.549  0.361  0.055-  51 2.40  37 2.42  47 2.44  74 2.52  76 2.56  62 2.60  72 2.61  20 2.66
                            46 2.72
  57  0.344  0.167  0.132-  38 2.43  45 2.45  80 2.47  47 2.50  20 2.52  68 2.55  31 2.57  48 2.63
[...]
   -.670E+02 -.445E+02 -.148E+04   0.659E+02 0.448E+02 0.148E+04   0.114E+01 -.280E+00 0.196E+01   -.145E-01 -.216E-02 -.110E-01
   -.409E+02 0.180E+02 -.271E+04   0.413E+02 -.174E+02 0.271E+04   -.484E+00 -.654E+00 0.152E+01   -.234E-02 0.656E-03 0.189E-01
   -.709E+02 -.252E+02 -.283E+04   0.694E+02 0.263E+02 0.282E+04   0.154E+01 -.110E+01 0.274E+01   -.600E-02 0.345E-02 -.802E-02
   0.991E+02 0.936E+01 -.271E+04   -.985E+02 -.102E+02 0.271E+04   -.527E+00 0.910E+00 0.208E+01   0.155E-01 -.181E-01 -.442E-02
   0.120E+02 -.751E+00 -.291E+04   -.120E+02 -.349E+00 0.291E+04   -.468E-01 0.112E+01 0.274E+01   0.747E-02 -.938E-02 -.530E-05
   0.543E+02 0.113E+02 -.297E+04   -.545E+02 -.106E+02 0.296E+04   0.262E+00 -.595E+00 0.336E+01   -.367E-01 -.140E-01 -.363E-01
   0.225E+02 0.758E+02 -.273E+04   -.233E+02 -.751E+02 0.273E+04   0.765E+00 -.658E+00 0.198E+01   0.724E-05 -.732E-02 -.634E-02
   0.520E+02 0.123E+02 -.288E+04   -.512E+02 -.119E+02 0.287E+04   -.704E+00 -.367E+00 0.271E+01   0.499E-02 -.269E-01 -.211E-01
   -.997E+02 -.198E+02 -.284E+04   0.993E+02 0.191E+02 0.283E+04   0.465E+00 0.675E+00 0.172E+01   -.891E-02 -.265E-01 -.160E-01
   -.599E+02 -.349E+02 -.279E+04   0.601E+02 0.349E+02 0.279E+04   -.253E+00 -.224E-01 0.184E+01   0.379E-02 0.405E-02 0.151E-01
   -.373E+02 -.537E+02 -.285E+04   0.373E+02 0.534E+02 0.285E+04   0.578E-02 0.369E+00 0.718E+00   -.460E-01 -.411E-01 -.169E-01
   0.105E+03 0.503E+02 -.275E+04   -.104E+03 -.505E+02 0.275E+04   -.560E+00 0.167E+00 0.246E+01   0.135E-01 0.350E-01 -.238E-02
   0.894E+02 0.423E+02 -.274E+04   -.887E+02 -.413E+02 0.274E+04   -.684E+00 -.981E+00 0.211E+01   -.251E-02 0.462E-01 -.217E-02
   -.279E+02 -.314E+02 -.269E+04   0.273E+02 0.312E+02 0.269E+04   0.507E+00 0.197E+00 0.167E+01   0.463E-01 0.258E-02 0.367E-02
   -.243E+02 -.276E+02 -.275E+04   0.253E+02 0.267E+02 0.275E+04   -.953E+00 0.840E+00 0.227E+01   0.120E-01 -.116E-01 -.234E-01
   0.480E+02 -.630E+02 -.133E+04   -.470E+02 0.620E+02 0.133E+04   -.980E+00 0.962E+00 0.200E+01   0.218E-01 0.157E-01 0.244E-02
   -.107E+03 -.847E+02 -.149E+04   0.105E+03 0.843E+02 0.148E+04   0.129E+01 0.375E+00 0.220E+01   -.280E-01 -.212E-01 0.126E-01
   0.596E+02 0.539E+02 0.278E+04   -.589E+02 -.536E+02 -.278E+04   -.648E+00 -.422E+00 -.194E+01   -.151E-01 0.623E-01 -.241E-01
   -.119E+03 -.144E+03 0.197E+04   0.119E+03 0.144E+03 -.197E+04   -.155E+00 -.359E+00 0.133E+01   -.254E-01 -.187E-01 -.384E-01
   0.749E+02 0.662E+02 -.154E+04   -.741E+02 -.657E+02 0.154E+04   -.895E+00 -.421E+00 0.170E+01   0.284E-01 -.237E-01 -.203E-01
   0.780E+01 0.188E+03 0.297E+04   -.749E+01 -.187E+03 -.297E+04   -.215E+00 -.164E+01 -.202E+01   0.140E-01 0.342E-01 0.563E-02
   0.158E+03 0.255E+02 0.147E+04   -.157E+03 -.264E+02 -.147E+04   -.774E+00 0.941E+00 -.372E+00   0.163E-02 -.122E-01 0.350E-02
   -.311E+02 -.420E+02 -.274E+04   0.309E+02 0.413E+02 0.274E+04   0.170E+00 0.668E+00 -.114E+00   0.239E-01 0.570E-01 -.319E-01
   0.109E+03 0.909E+02 -.233E+03   -.109E+03 -.906E+02 0.233E+03   0.635E-01 -.315E+00 0.162E+00   -.539E-02 0.236E-01 -.521E-02
   -.752E+01 0.423E+02 -.293E+04   0.757E+01 -.420E+02 0.292E+04   -.741E-01 -.389E+00 0.276E+01   -.126E-01 0.533E-02 -.755E-02
   -.447E+02 -.453E+02 0.333E+03   0.445E+02 0.441E+02 -.333E+03   0.166E+00 0.123E+01 -.117E+00   0.471E-01 -.199E-01 0.911E-02
   -.857E+02 -.513E+02 -.145E+04   0.861E+02 0.507E+02 0.145E+04   -.390E+00 0.615E+00 0.200E+01   -.156E-01 -.352E-02 0.722E-02
   0.100E+02 0.829E+01 -.133E+04   -.107E+02 -.803E+01 0.133E+04   0.645E+00 -.238E+00 0.177E+01   -.169E-02 0.369E-01 0.498E-03
   -.681E+02 -.103E+03 -.258E+02   0.678E+02 0.102E+03 0.255E+02   0.432E+00 0.572E+00 0.262E+00   -.183E-01 -.108E-01 0.273E-02
   -.222E+02 -.293E+02 0.126E+03   0.228E+02 0.293E+02 -.127E+03   -.507E+00 -.651E-01 0.839E+00   -.201E-01 -.217E-01 -.760E-02
   -.687E+02 -.123E+03 -.120E+04   0.687E+02 0.122E+03 0.120E+04   0.405E-01 0.880E+00 0.711E+00   0.819E-02 -.112E-02 -.619E-02
   -.197E+01 0.110E+03 0.236E+04   0.322E+01 -.110E+03 -.236E+04   -.114E+01 -.359E+00 -.152E+01   0.380E-01 -.773E-02 -.111E-01
   0.783E+01 0.138E+03 0.248E+04   -.904E+01 -.137E+03 -.248E+04   0.106E+01 -.749E+00 -.241E+01   0.774E-01 -.421E-02 -.813E-02
   -.735E+01 0.877E+02 0.223E+04   0.718E+01 -.860E+02 -.223E+04   0.735E-01 -.137E+01 -.214E+01   0.422E-01 -.431E-01 -.279E-02
   0.127E+03 0.694E+02 0.108E+04   -.127E+03 -.695E+02 -.108E+04   -.272E+00 0.126E-01 0.220E-01   0.317E-01 0.332E-01 -.101E-01
   0.489E+02 -.604E+02 0.143E+04   -.483E+02 0.603E+02 -.143E+04   -.518E+00 0.309E-01 -.346E+00   -.498E-01 0.410E-02 0.968E-02
   -.708E+02 0.116E+02 -.140E+04   0.707E+02 -.113E+02 0.140E+04   0.104E+00 -.302E+00 0.290E+00   0.139E-01 -.134E-01 0.205E-03
   -.256E+03 -.128E+03 0.278E+04   0.255E+03 0.126E+03 -.277E+04   0.152E+01 0.154E+01 -.398E+01   -.470E-02 -.311E-02 -.280E-02
   -.164E+02 0.986E+02 0.132E+04   0.160E+02 -.985E+02 -.132E+04   0.419E+00 -.258E+00 -.667E+00   0.252E-01 0.103E-01 -.248E-01
   -.970E+02 -.855E+02 0.137E+03   0.969E+02 0.857E+02 -.136E+03   0.206E-01 -.173E+00 -.334E+00   0.747E-02 -.146E-01 -.105E-01
   0.107E+02 -.133E+03 -.147E+04   -.109E+02 0.133E+03 0.147E+04   0.180E+00 0.537E+00 0.386E+00   -.157E-01 -.158E-01 0.109E-01
   0.835E+02 0.133E+03 -.142E+04   -.835E+02 -.133E+03 0.142E+04   -.303E-01 -.637E+00 -.681E+00   -.195E-01 0.167E-01 0.862E-02
   -.798E+02 -.139E+03 0.273E+04   0.781E+02 0.137E+03 -.272E+04   0.157E+01 0.162E+01 -.329E+01   -.406E-01 0.418E-01 0.639E-03
   0.167E+02 -.253E+02 0.276E+04   -.173E+02 0.253E+02 -.276E+04   0.395E+00 -.132E+00 -.332E+01   -.223E-01 -.182E-01 0.242E-02
   0.228E+03 -.396E+02 0.247E+04   -.226E+03 0.394E+02 -.247E+04   -.130E+01 0.241E+00 -.200E+01   -.114E-01 0.266E-01 -.130E-01
   -.186E+03 -.301E+02 0.146E+04   0.186E+03 0.302E+02 -.146E+04   0.264E+00 -.137E-01 0.200E+00   -.498E-01 0.146E-01 0.879E-02
   -.192E+03 0.590E+02 0.628E+01   0.191E+03 -.587E+02 -.589E+01   0.364E+00 -.389E+00 -.483E+00   -.130E-01 -.204E-01 0.288E-01
   -.188E+03 -.404E+02 0.139E+04   0.188E+03 0.409E+02 -.139E+04   -.962E-01 -.437E+00 0.488E+00   -.202E-02 -.709E-01 0.278E-02
   0.267E+02 -.682E+02 0.135E+04   -.267E+02 0.679E+02 -.135E+04   -.608E-01 0.513E+00 -.274E-01   0.426E-02 -.133E-04 -.121E-01
   0.192E+03 0.448E+02 -.147E+04   -.191E+03 -.449E+02 0.147E+04   -.694E+00 0.149E+00 -.279E-01   -.179E-02 -.307E-02 -.101E-02
   0.180E+03 0.564E+01 0.274E+04   -.178E+03 -.575E+01 -.273E+04   -.186E+01 0.106E+00 -.325E+01   -.304E-01 -.130E-01 0.943E-02
   -.976E+02 0.354E+02 0.159E+04   0.977E+02 -.350E+02 -.159E+04   -.171E+00 -.421E+00 0.297E+00   -.363E-01 -.372E-01 -.616E-02
   0.112E+03 -.576E+02 -.992E+02   -.112E+03 0.576E+02 0.992E+02   -.380E+00 0.829E-01 -.119E+00   -.178E-01 -.878E-02 0.905E-02
   0.134E+03 0.310E+02 0.297E+04   -.134E+03 -.306E+02 -.297E+04   -.161E+00 -.321E+00 -.152E+01   0.509E-02 0.291E-01 -.700E-02
   -.532E+02 -.163E+03 0.172E+04   0.533E+02 0.163E+03 -.172E+04   -.762E-01 0.325E+00 0.149E+00   -.404E-01 0.302E-01 -.162E-01
   0.192E+03 -.922E+01 0.134E+04   -.193E+03 0.930E+01 -.134E+04   0.410E+00 -.420E-01 0.456E+00   0.336E-01 0.921E-02 -.885E-02
   -.123E+03 0.261E+02 0.198E+03   0.122E+03 -.260E+02 -.198E+03   0.365E+00 -.710E-01 -.299E+00   0.227E-01 0.235E-01 0.319E-01
   0.562E+01 0.573E+02 -.127E+04   -.560E+01 -.574E+02 0.127E+04   -.391E-01 0.140E+00 0.553E+00   0.172E-01 0.178E-02 -.366E-02
[...]
   -.101E+02 -.955E+02 0.167E+03   0.105E+02 0.954E+02 -.167E+03   -.487E+00 -.535E-02 -.305E+00   -.120E-01 0.242E-01 -.236E-02
   -.170E+03 -.110E+03 0.165E+04   0.170E+03 0.110E+03 -.165E+04   0.288E-01 -.186E+00 -.316E+00   0.125E-01 -.390E-01 -.522E-01
   -.706E+02 0.624E+01 0.148E+04   0.710E+02 -.618E+01 -.148E+04   -.241E+00 -.124E+00 -.701E+00   -.149E-01 0.139E-01 -.397E-01
   -.272E+03 -.156E+03 0.302E+04   0.270E+03 0.155E+03 -.302E+04   0.224E+01 0.136E+01 -.367E+01   -.227E-02 -.622E-01 -.516E-02
   0.296E+03 -.677E+02 0.296E+04   -.294E+03 0.669E+02 -.296E+04   -.219E+01 0.768E+00 -.282E+01   -.230E-02 0.590E-02 0.432E-02
   0.872E+02 0.283E+02 0.151E+04   -.872E+02 -.285E+02 -.151E+04   0.938E-01 0.192E+00 0.949E-02   -.357E-01 -.648E-02 0.150E-02
   0.141E+03 0.129E+02 0.120E+04   -.141E+03 -.128E+02 -.119E+04   0.112E+00 -.176E-01 -.315E+00   0.564E-03 0.406E-01 -.271E-01
   0.901E+02 0.208E+02 -.156E+04   -.900E+02 -.207E+02 0.156E+04   -.156E+00 -.899E-01 -.262E+00   -.353E-02 0.591E-02 -.455E-02
   -.799E+00 -.100E+02 0.308E+04   0.740E+00 0.105E+02 -.308E+04   -.652E-01 -.404E+00 -.174E+01   0.427E-01 -.128E-01 0.518E-02
   0.643E+02 0.175E+03 -.489E+02   -.648E+02 -.176E+03 0.496E+02   0.456E+00 0.260E+00 -.830E+00   0.175E-01 -.120E-01 -.493E-02
   0.597E+01 0.971E+02 -.277E+02   -.614E+01 -.965E+02 0.277E+02   0.263E+00 -.650E+00 -.149E+00   -.581E-01 -.720E-02 0.269E-01
   0.228E+03 0.545E+02 -.243E+03   -.229E+03 -.541E+02 0.244E+03   0.321E+00 -.419E+00 -.491E+00   -.485E-02 0.407E-02 -.913E-02
   -.642E+02 -.117E+03 -.894E+01   0.644E+02 0.117E+03 0.863E+01   -.124E+00 0.271E+00 0.192E+00   -.536E-01 0.116E-01 0.397E-01
   -.507E+01 -.367E+01 -.330E+03   0.510E+01 0.352E+01 0.332E+03   -.112E-01 0.137E+00 -.176E+01   -.507E-03 0.199E-03 0.333E-02
   -.240E+01 -.189E+01 -.509E+01   0.529E-12 0.127E-12 -.146E-10   0.242E+01 0.187E+01 0.540E+01   -.430E-01 0.503E-01 -.329E+00

 POSITION                                       TOTAL-FORCE (eV/Angst)
     13.78466      8.54608      6.62810        -0.002667     -0.001582     -0.001371
      5.29413      8.55809      6.41227         0.005922     -0.029112      0.027080
      5.12095      3.49088      6.86283         0.019137      0.026082      0.005570
     15.27532      9.36155      8.78451        -0.005720      0.006608     -0.008815
      3.86332      4.56295      9.01419        -0.015667      0.016798      0.011011
      6.79712      9.23909      8.74492         0.035675     -0.014235      0.018614
     12.34378      4.41104      9.07152        -0.024437      0.027109      0.003717
      9.56414      9.26583      9.12886        -0.000144      0.012531     -0.020791
     10.90000      2.07436      8.74944        -0.002906     -0.021765      0.004517
      2.62201      2.06452      9.08486         0.016702      0.001885      0.015400
     12.40006      9.23978      9.00874         0.007346     -0.002242      0.016733
     13.85031      6.95433      8.97547        -0.032024      0.000761      0.009026
      5.35169      1.90605      9.15627        -0.010700     -0.018127     -0.006569
      8.12060      6.79541      8.80517         0.006382     -0.009615     -0.004197
      9.52401      4.45827      8.79103         0.000443     -0.018224     -0.009913
      5.31646      6.92515      8.80452         0.002925      0.004150     -0.004410
      8.20987      1.91690      8.86332         0.016836      0.016412      0.028268
      7.98098      3.37181      6.61495        -0.008218     -0.000146     -0.002140
      6.54207      1.09981      6.79765         0.002490      0.009284     -0.026192
      6.83385      1.22925      1.47033        -0.002374      0.033504      0.001089
      3.61235      3.96468      2.61995        -0.004259      0.009903     -0.005129
      1.41991      1.42339      6.83297         0.001634      0.006073     -0.027777
      0.67127      0.98910      1.08188        -0.009429     -0.015305     -0.002526
      6.74807      9.00879      3.12342        -0.022766     -0.011335     -0.027303
      6.73772      4.42086      8.96743        -0.002853      0.010360      0.013090
      8.49330      5.38439      5.05378         0.017686      0.003517      0.018540
     11.00897      6.87183      9.09514        -0.020995      0.008042     -0.004230
     14.94884      7.37673      4.49249         0.011420     -0.017487     -0.014885
     12.47714      6.13386      6.83988         0.004549      0.003872     -0.014285
      6.46540      5.88245      6.63642         0.007368      0.003200      0.021471
      3.57422      2.54624      4.95878         0.012396      0.015029     -0.047013
     11.12614      5.45251      4.71025         0.014386     -0.001757      0.013466
      3.87355      5.89981      6.70038         0.025118     -0.012964      0.007689
     13.73438      8.58852      1.76277        -0.006249     -0.024598     -0.045326
      4.87663      8.41395      1.57788         0.001085      0.012349      0.022045
      3.75877      6.38414      2.06092         0.023125      0.004257      0.017392
      8.35850      2.27224      3.29405        -0.004625      0.001146     -0.003040
      9.33367      9.15886      2.96349         0.008045      0.003345      0.013915
      2.47404      3.83479      6.95497        -0.017743      0.008322     -0.004396
      1.94892      3.12368      0.97734        -0.006389      0.001737      0.009031
     10.75187      2.21221      3.05623        -0.006581      0.009630     -0.002811
     13.77799      5.05868      4.81470        -0.031490      0.011395     -0.021568
      3.94010      0.96189      7.01008         0.011515     -0.026827      0.016474
      9.82581      6.29408      6.97738         0.014533     -0.005548      0.003821
      3.32747      0.88717      1.07332        -0.004772     -0.001569     -0.013073
      9.37038      5.94444      1.03355         0.023778      0.007172     -0.040309
      5.77436      3.51120      1.58883         0.004256      0.006689      0.012796
     11.78080      9.10211      3.01275        -0.009189     -0.005803      0.025438
     12.14221      7.86485      4.90717        -0.000784     -0.007162     -0.008843
     12.89855      6.59993      3.08536        -0.001852     -0.008844      0.019796
      9.60902      4.40928      2.93166        -0.013735     -0.011259     -0.001244
      8.50055      8.47219      6.95943         0.017039      0.024946      0.002493
      8.12654      8.25967      1.10014        -0.017274      0.007198      0.000143
     10.59532      7.05732      2.72628        -0.000761      0.002580      0.011126
      2.64345      0.12582      5.05287         0.010994     -0.000769     -0.001574
      8.18206      3.50560      1.21995        -0.007066     -0.031789      0.008953
      4.79851      1.62222      2.89617        -0.004640     -0.001893      0.022172
      5.80940      6.64990      3.24762        -0.014065      0.001645     -0.023181
      7.65468      0.41297      4.68699        -0.042633      0.018048      0.043034
      9.46201      1.13938      6.52859        -0.002325     -0.000277      0.006274
[...]
      9.85949      3.06130      5.05334         0.004488      0.008593     -0.009587
      6.31739      2.58312      4.70295        -0.023078     -0.020629      0.019784
     12.25313      4.17493      2.83324        -0.005372     -0.007725     -0.002261
      2.09525      1.75623      3.07324         0.013037      0.011901      0.022328
     11.83128      5.72145      1.13423         0.031159      0.003246      0.000733
      6.85743      5.74904      1.30355        -0.003080     -0.005805      0.012005
      8.21979      6.81570      3.00225        -0.000424      0.011620     -0.002819
      7.04013      4.41026      3.27464        -0.005619     -0.001655     -0.001173
     11.11789      3.89771      6.90099        -0.000236     -0.000916     -0.009998
     10.73608      3.41609      1.01158         0.006659     -0.009557      0.005925
     11.35396      0.81935      4.88330        -0.039511      0.020600     -0.088296
      9.67608      7.72321      4.95729         0.014840     -0.016092     -0.018014
      7.20385      7.63915      5.11888         0.025071      0.027265     -0.017192
      5.07803      0.26935      4.93904        -0.006685      0.003350     -0.017683
      6.13849      3.22515     10.04409         0.010427     -0.017466      0.025336
    total drift:                               -0.028339      0.031181     -0.014998

  FREE ENERGIE OF THE ION-ELECTRON SYSTEM (eV)
  free  energy   TOTEN  =      -503.52421428 eV

  energy  without entropy=     -503.55763523  energy(sigma->0) =     -503.53535460

 d Force = 0.4192421E-02[ 0.137E-02, 0.701E-02]  d Energy = 0.4125363E-02 0.671E-04
 d Force = 0.4689602E+02[ 0.468E+02, 0.470E+02]  d Ewald  = 0.4689609E+02-0.707E-04

 Conjugate gradient step on ions:
 trial-energy change:   -0.004125  1 .order   -0.004192   -0.007014   -0.001370
  (g-gl).g = 0.376E-02      g.g   = 0.369E-02  gl.gl    = 0.109E-01
 g(Force)  = 0.369E-02   g(Stress)= 0.000E+00 ortho     = 0.227E-03
 gamma     =   0.34441
 trial     =   1.85954
 opt step  =   2.35587  (harmonic =   2.31105) maximal distance =0.01760863
 next E    =  -503.524396   (d E  =  -0.00431)

 reached required accuracy - stopping structural energy minimisation