 vasp.5.4.4.18Apr17-6-g9f103f2a35 (build Nov 30 2020 22:55:02) complex

 executed on             LinuxIFC date 2022.09.16  21:56:15

 INCAR:
 POTCAR:    PAW_PBE Pt 04Feb2005
 POTCAR:    PAW_PBE Fe 06Sep2000
 POTCAR:    PAW_PBE Co 02Aug2007
 POTCAR:    PAW_PBE Cu 22Jun2005
 POTCAR:    PAW_PBE Ni 02Aug2007
 POTCAR:    PAW_PBE C 08Apr2002

 POTCAR:    PAW_PBE Pt 04Feb2005
   VRHFIN =Pt: s1d9

   TITEL  = PAW_PBE Pt 04Feb2005
   POMASS =  195.080; ZVAL   =   10.000    mass and valenz
   ENMAX  =  230.283; ENMIN  =  172.712 eV

 POTCAR:    PAW_PBE Fe 06Sep2000
   VRHFIN =Fe:  d7 s1

   TITEL  = PAW_PBE Fe 06Sep2000
   POMASS =   55.847; ZVAL   =    8.000    mass and valenz
   ENMAX  =  267.882; ENMIN  =  200.911 eV

 POTCAR:    PAW_PBE Co 02Aug2007
   VRHFIN =Co: d8 s1

   TITEL  = PAW_PBE Co 02Aug2007
   POMASS =   58.933; ZVAL   =    9.000    mass and valenz
   ENMAX  =  267.968; ENMIN  =  200.976 eV

 POTCAR:    PAW_PBE Cu 22Jun2005
   VRHFIN =Cu: d10 p1

   TITEL  = PAW_PBE Cu 22Jun2005
   POMASS =   63.546; ZVAL   =   11.000    mass and valenz
   ENMAX  =  295.446; ENMIN  =  221.585 eV

 POTCAR:    PAW_PBE Ni 02Aug2007
   VRHFIN =Ni:

   TITEL  = PAW_PBE Ni 02Aug2007
   POMASS =   58.690; ZVAL   =   10.000    mass and valenz
   ENMAX  =  269.532; ENMIN  =  202.149 eV

 POTCAR:    PAW_PBE C 08Apr2002
   VRHFIN =C: s2p2

   TITEL  = PAW_PBE C 08Apr2002
   POMASS =   12.011; ZVAL   =    4.000    mass and valenz
   ENMAX  =  400.000; ENMIN  =  300.000 eV

 Optimization of the real space projectors (new method)

 maximal supplied QI-value         = 14.36
 optimisation between [QCUT,QGAM] = [ 11.92, 23.98] = [ 39.79,161.09] Ry
 Optimized for a Real-space Cutoff    1.49 Angstroem

   l    n(q)    QCUT    max X(q) W(low)/X(q) W(high)/X(q)  e(spline)
   2     10    11.920    66.195    0.79E-04    0.18E-03    0.24E-06
   2     10    11.920    64.643    0.81E-04    0.19E-03    0.24E-06
   0     11    11.920    95.520    0.28E-04    0.54E-04    0.18E-06
   0     11    11.920    63.403    0.27E-04    0.52E-04    0.17E-06
   1     10    11.920    19.961    0.18E-04    0.11E-03    0.23E-06
   1     10    11.920    13.289    0.25E-04    0.87E-04    0.19E-06
 Optimization of the real space projectors (new method)

[...]

   l    n(q)    QCUT    max X(q) W(low)/X(q) W(high)/X(q)  e(spline)
   2      9    11.864    60.317    0.21E-03    0.51E-03    0.25E-06
   2      9    11.864    55.921    0.21E-03    0.51E-03    0.26E-06
   0      9    11.864    51.690    0.22E-03    0.30E-04    0.17E-06
   0      9    11.864    30.015    0.20E-03    0.28E-04    0.15E-06
   1      9    11.864    18.849    0.76E-04    0.33E-03    0.17E-06
   1      9    11.864    14.624    0.60E-04    0.28E-03    0.15E-06
 Optimization of the real space projectors (new method)

 maximal supplied QI-value         = 25.13
 optimisation between [QCUT,QGAM] = [ 11.81, 23.88] = [ 39.08,159.64] Ry
 Optimized for a Real-space Cutoff    1.18 Angstroem

   l    n(q)    QCUT    max X(q) W(low)/X(q) W(high)/X(q)  e(spline)
   0      8    11.813   115.676    0.10E-03    0.16E-03    0.35E-06
   0      8    11.813    87.132    0.10E-03    0.16E-03    0.35E-06
   1      8    11.813     4.429    0.16E-03    0.13E-04    0.22E-06
   1      8    11.813     2.733    0.13E-03    0.10E-04    0.18E-06
  PAW_PBE Pt 04Feb2005                  :
  PAW_PBE Fe 06Sep2000                  :
  PAW_PBE Co 02Aug2007                  :
  PAW_PBE Cu 22Jun2005                  :
  PAW_PBE Ni 02Aug2007                  :
  PAW_PBE C 08Apr2002                   :

 POSCAR: 10.56
  positions in cartesian coordinates
 exchange correlation table for  LEXCH =        8
   RHO(1)=    0.500       N(1)  =     2000
   RHO(2)=  100.500       N(2)  =     4000

 ion  position               nearest neighbor table
   1  0.787  0.879  0.317-  49 2.61  28 2.61  19 2.64  59 2.64  61 2.65  33 2.65  29 2.67  60 2.70
                             2 2.73  11 2.77   4 2.78  12 2.89
   2  0.043  0.885  0.317-  79 2.57  60 2.61  77 2.61  30 2.65  52 2.65  22 2.68  28 2.69  33 2.70
                             1 2.73   4 2.81   6 2.81  16 2.91
   3  0.278  0.381  0.320-  39 2.56  64 2.57  33 2.59  31 2.63  19 2.70  43 2.70  30 2.72  68 2.72
                             5 2.79  13 2.80  25 2.82  18 2.83
   4  0.871  0.959  0.423-  11 2.60  12 2.61  17 2.63  16 2.66   9 2.68   6 2.68   1 2.78  60 2.79
                             2 2.81
   5  0.123  0.463  0.429-  10 2.60  16 2.61  12 2.62   7 2.64  25 2.65  13 2.68  33 2.73  39 2.74
                             3 2.79
   6  0.127  0.955  0.428-  81 1.94  14 2.61  16 2.61   4 2.68   8 2.69   9 2.73  10 2.74   2 2.81
                            52 2.89  22 3.01
   7  0.872  0.465  0.425-  12 2.60  27 2.61  15 2.63   5 2.64  39 2.67   9 2.67  10 2.68  75 2.73
                            29 2.76
   8  0.380  0.957  0.418-  43 2.58  27 2.59  11 2.61  14 2.62  13 2.64  52 2.67  61 2.67   6 2.69
                            10 2.70
   9  0.868  0.214  0.428-  81 1.95  15 2.60  17 2.60   7 2.67   4 2.68   6 2.73  10 2.74  75 2.78
                            60 2.81  22 2.98
  10  0.128  0.214  0.430-  81 1.96  13 2.59   5 2.60   7 2.68   8 2.70   6 2.74   9 2.74  39 2.76
                            43 2.83  22 2.94
  11  0.625  0.960  0.423-   4 2.60   8 2.61  13 2.63  17 2.64  12 2.64  27 2.64   1 2.77  19 2.82
                            61 2.84
  12  0.875  0.710  0.428-   7 2.60   4 2.61   5 2.62  16 2.63  11 2.64  27 2.66  33 2.70  29 2.85
                             1 2.89
  13  0.375  0.209  0.425-  10 2.59  11 2.63  17 2.63   8 2.64  25 2.66   5 2.68  43 2.75   3 2.80
                            19 2.82
  14  0.376  0.711  0.424-  27 2.60   6 2.61   8 2.62  15 2.63  25 2.65  16 2.67  44 2.70  30 2.78
                            52 2.79
  15  0.625  0.462  0.423-   9 2.60  27 2.62   7 2.63  14 2.63  25 2.64  17 2.66  44 2.70  75 2.72
                            18 2.76
  16  0.125  0.709  0.428-   5 2.61   6 2.61  25 2.63  12 2.63   4 2.66  14 2.67  33 2.68  30 2.85
                             2 2.91
  17  0.624  0.210  0.423-   9 2.60   4 2.63  13 2.63  11 2.64  25 2.64  15 2.66  18 2.78  60 2.78
                            19 2.86
  18  0.549  0.375  0.317-  67 2.55  60 2.58  75 2.60  44 2.64  68 2.66  26 2.67  30 2.72  19 2.72
                            15 2.76  17 2.78   3 2.83  25 2.86
  19  0.534  0.126  0.315-  80 2.56  68 2.57  43 2.57  59 2.60   1 2.64  61 2.64   3 2.70  18 2.72
                            60 2.78  13 2.82  11 2.82  17 2.86
  20  0.547  0.124  0.040-  37 2.55  57 2.56  48 2.58  62 2.64  63 2.68  47 2.68  45 2.68  56 2.70
                            34 2.71
  21  0.121  0.460  0.128-  40 2.52  36 2.53  47 2.53  42 2.60  69 2.61  64 2.62  70 2.64  50 2.64
                            58 2.67  31 2.70  57 2.71  74 2.72
  22  0.043  0.138  0.314-  65 2.51  55 2.53  39 2.55  43 2.56  77 2.58  75 2.59  60 2.67   2 2.68
                            52 2.73  10 2.94   9 2.98   6 3.01  31 3.38
  23  0.042  0.130  0.033-  70 2.58  40 2.60  41 2.61  45 2.62  62 2.64  76 2.64  24 2.69  35 2.73
                            53 2.78
  24  0.130  0.958  0.132-  79 2.51  77 2.54  35 2.57  53 2.57  55 2.58  70 2.62  38 2.64  58 2.64
                            73 2.65  23 2.69  66 2.70  41 2.72
  25  0.375  0.461  0.425-  16 2.63  17 2.64  15 2.64  14 2.65   5 2.65  13 2.66  30 2.82   3 2.82
                            18 2.86
  26  0.455  0.546  0.219-  73 2.50  74 2.54  51 2.56  79 2.61  64 2.63  30 2.65  18 2.67  68 2.67
                            78 2.67  32 2.68  67 2.72  44 2.75
  27  0.623  0.710  0.424-   8 2.59  14 2.60   7 2.61  15 2.62  11 2.64  12 2.66  44 2.69  29 2.79
                            61 2.80
  28  0.956  0.790  0.221-  58 2.57  66 2.57  50 2.58  42 2.59  49 2.61   1 2.61  64 2.63   2 2.69
                            59 2.70  33 2.73  79 2.76  77 2.77
  29  0.794  0.623  0.319-  42 2.55  39 2.55  75 2.59  32 2.61  33 2.64  44 2.65   1 2.67  61 2.67
                            49 2.68   7 2.76  27 2.79  12 2.85
  30  0.291  0.632  0.318-  79 2.55  64 2.60  52 2.61  44 2.62   2 2.65  26 2.65  33 2.66   3 2.72
                            18 2.72  14 2.78  25 2.82  16 2.85
  31  0.203  0.281  0.225-  70 2.52  55 2.56  65 2.57  43 2.59  57 2.60   3 2.63  39 2.68  80 2.70
                            21 2.70  42 2.71  68 2.75  64 2.79  22 3.38
  32  0.706  0.549  0.221-  54 2.53  69 2.56  51 2.58  49 2.59  42 2.60  29 2.61  78 2.62  65 2.63
                            26 2.68  67 2.70  44 2.70  75 2.72
  33  0.040  0.631  0.326-   3 2.59  29 2.64   1 2.65  39 2.66  30 2.66  16 2.68   2 2.70  12 2.70
                            64 2.71  28 2.73   5 2.73  42 2.74
  34  0.797  0.862  0.042-  50 2.38  66 2.51  48 2.53  36 2.55  71 2.56  63 2.61  20 2.71  35 2.76
                            62 2.76
  35  0.056  0.866  0.038-  58 2.54  72 2.55  36 2.56  24 2.57  66 2.62  53 2.65  23 2.73  62 2.73
                            34 2.76
  36  0.046  0.628  0.037-  21 2.53  34 2.55  35 2.56  58 2.58  50 2.61  47 2.63  72 2.64  40 2.69
                            71 2.72
  37  0.627  0.222  0.129-  51 2.51  74 2.51  67 2.52  56 2.53  41 2.55  20 2.55  68 2.56  59 2.56
                            62 2.59  66 2.66  57 2.73  48 2.89
  38  0.382  0.955  0.130-  53 2.47  80 2.48  45 2.49  78 2.53  48 2.54  73 2.55  63 2.55  54 2.56
                            55 2.59  57 2.62  24 2.64  70 2.67
  39  0.036  0.382  0.325-  22 2.55  29 2.55   3 2.56  75 2.57  33 2.66   7 2.67  31 2.68  42 2.69
                             5 2.74  10 2.76  43 2.76  65 2.76
  40  0.031  0.382  0.038-  69 2.44  21 2.52  71 2.53  76 2.56  70 2.57  23 2.60  36 2.69  45 2.78
                            47 2.78
  41  0.872  0.215  0.128-  76 2.45  65 2.52  77 2.53  67 2.54  37 2.55  69 2.57  62 2.57  51 2.59
                            23 2.61  70 2.65  66 2.66  24 2.72
  42  0.955  0.545  0.224-  29 2.55  50 2.56  28 2.59  21 2.60  32 2.60  69 2.61  49 2.63  65 2.64
                            64 2.65  39 2.69  31 2.71  33 2.74
  43  0.295  0.117  0.322-  52 2.54  55 2.54  22 2.56  19 2.57   8 2.58  61 2.58  31 2.59  80 2.67
                             3 2.70  13 2.75  39 2.76  10 2.83
  44  0.540  0.630  0.322-  61 2.57  52 2.58  30 2.62  18 2.64  78 2.64  29 2.65  75 2.67  27 2.69
                            15 2.70  14 2.70  32 2.70  26 2.75
  45  0.295  0.119  0.039-  70 2.49  38 2.49  57 2.57  53 2.60  23 2.62  63 2.64  20 2.68  47 2.75
                            40 2.78
  46  0.548  0.625  0.044-  51 2.38  73 2.39  54 2.41  71 2.56  53 2.56  63 2.58  76 2.59  56 2.62
                            72 2.64
  47  0.296  0.379  0.039-  74 2.41  21 2.53  57 2.61  72 2.61  56 2.62  36 2.63  20 2.68  45 2.75
                            40 2.78
  48  0.625  0.950  0.132-  49 2.40  80 2.48  54 2.48  34 2.53  38 2.54  59 2.55  50 2.56  63 2.57
                            20 2.58  57 2.65  66 2.68  37 2.89
  49  0.706  0.794  0.220-  48 2.40  50 2.48  54 2.49  80 2.53  32 2.59  61 2.61   1 2.61  28 2.61
                            78 2.61  42 2.63  29 2.68  59 2.69
  50  0.866  0.706  0.129-  34 2.38  71 2.42  54 2.48  49 2.48  42 2.56  48 2.56  69 2.58  28 2.58
[...]
     12.86756      6.45280      2.83379         0.000455      0.289892     -0.164190
      9.04201      4.20780      2.79628         0.009781     -0.057037      0.061559
      7.76929      8.00802      6.98659         0.016227      0.060435     -0.025188
      7.81315      7.93922      0.88653        -0.011249     -0.068946     -0.000367
     10.39144      6.53566      2.82198        -0.037802     -0.005709     -0.063572
      2.51347      0.25826      5.00083         0.060275     -0.001831     -0.058675
      7.74264      3.48454      0.76157         0.008534     -0.035832     -0.040290
      5.07835      1.87760      2.91701        -0.017319     -0.000252      0.009401
      5.16037      6.44715      2.89923        -0.006479     -0.033097     -0.015603
      7.70892      0.45986      4.84799         0.028124      0.046421     -0.020936
      9.08010      1.19693      7.00595         0.005464     -0.000474     -0.003864
[...]
      9.07350      2.65252      4.91360         0.050861     -0.042548      0.030092
      6.37169      2.66558      4.85827         0.009324      0.020104     -0.025115
     11.65891      4.17486      2.81483        -0.032644     -0.004528      0.100407
      2.44098      1.89237      2.83279         0.050833     -0.063967      0.158363
     11.64953      5.68621      0.88546         0.144316      0.191556     -0.060622
      6.44743      5.71949      0.92597        -0.088317      0.050984      0.009689
      7.82927      6.50651      2.83621        -0.007495      0.021993     -0.079096
      6.41922      4.13007      2.78290        -0.028111      0.008483      0.043029
     10.38625      3.45485      7.07778        -0.002441     -0.010313      0.026826
     10.34410      3.45013      0.86804        -0.038918     -0.042444     -0.055201
     10.37063      0.48410      4.87151        -0.053763     -0.100017      0.017661
      9.04079      7.29017      4.93700         0.016450     -0.015308     -0.054364
      6.46265      7.29503      4.94074         0.004231      0.104704      0.038302
      5.04247      0.27633      4.88406         0.031667      0.003336      0.030185
      1.09095      1.15031     10.55233        -0.050912     -0.004274      0.216223
    total drift:                                0.012685     -0.026389     -0.036956

  FREE ENERGIE OF THE ION-ELECTRON SYSTEM (eV)
  free  energy   TOTEN  =      -512.82398688 eV

  energy  without entropy=     -512.82398688  energy(sigma->0) =     -512.82398688

 d Force = 0.5026511E-03[-0.649E-02, 0.749E-02]  d Energy =-0.9970401E-04 0.602E-03
 d Force =-0.4131199E+02[-0.414E+02,-0.413E+02]  d Ewald  =-0.4131277E+02 0.782E-03

 Finite differences progress:
  Degree of freedom:   3/  3
  Displacement:        2/  2
  Total:               6/  6

 SECOND DERIVATIVES (NOT SYMMETRIZED)
              81X         81Y         81Z
 81X   -10.721457    0.104329   -0.169619
 81Y     0.095670  -10.975513   -0.246873
 81Z    -0.192122   -0.304984  -15.531851

 Eigenvectors and eigenvalues of the dynamical matrix

   1 f  =   17.790715 THz   111.782362 2PiTHz  593.434373 cm-1    73.576511 meV
             X         Y         Z           dx          dy          dz
     12.952046  8.041328  6.968891            0           0           0
      5.121565  8.090330  6.982810            0           0           0
      4.953875  3.487025  7.029694            0           0           0
     14.262324  8.771219  9.304989            0           0           0
      3.740782  4.233763  9.430618            0           0           0
      6.384593  8.737449  9.411682            0           0           0
     11.660696  4.255692  9.360979            0           0           0
      9.064463  8.753320  9.193386            0           0           0
     10.298054  1.955668  9.418641            0           0           0
      2.481797  1.959977  9.453246            0           0           0
     11.667055  8.778559  9.307565            0           0           0
     12.987743  6.496594  9.415980            0           0           0
      5.065036  1.908660  9.341062            0           0           0
      7.726602  6.503386  9.335612            0           0           0
      9.034021  4.223838  9.309104            0           0           0
      5.061943  6.483667  9.405033            0           0           0
      7.698254  1.922438  9.304095            0           0           0
      7.783458  3.432341  6.975298            0           0           0
      6.305059  1.148714  6.929875            0           0           0
      6.428579  1.129740  0.878720            0           0           0
      3.705484  4.208436  2.816869            0           0           0
      1.186283  1.260396  6.912623            0           0           0
      1.135691  1.190800  0.725566            0           0           0
      6.436066  8.760995  2.900314            0           0           0
      6.390972  4.218144  9.348005            0           0           0
      7.681351  4.990728  4.814740            0           0           0
     10.329950  6.496527  9.319759            0           0           0
     14.264242  7.225928  4.862987            0           0           0
     11.678148  5.695486  7.011129            0           0           0
      6.412528  5.781580  6.998451            0           0           0
      3.621194  2.565893  4.960228            0           0           0
     10.360912  5.024302  4.856517            0           0           0
      3.755643  5.773191  7.173834            0           0           0
     12.969068  7.879772  0.925674            0           0           0
      5.163396  7.917194  0.830298            0           0           0
      3.807011  5.745024  0.813805            0           0           0
      7.798522  2.032451  2.832513            0           0           0
      9.077547  8.733730  2.857427            0           0           0
      2.399068  3.490639  7.155959            0           0           0
      2.344093  3.490514  0.825101            0           0           0
     10.348141  1.969830  2.822490            0           0           0
     12.960353  4.985870  4.925592            0           0           0
      3.737296  1.073849  7.076713            0           0           0
      9.029245  5.758084  7.089552            0           0           0
      3.748243  1.091821  0.867003            0           0           0
      9.091210  5.718673  0.960427            0           0           0
      5.124479  3.470454  0.855627            0           0           0
     11.620923  8.687580  2.905895            0           0           0
     11.653130  7.264496  4.842290            0           0           0
     12.867560  6.452796  2.833790            0           0           0
      9.042010  4.207796  2.796278            0           0           0
      7.769286  8.008023  6.986595            0           0           0
      7.813155  7.939223  0.886525            0           0           0
     10.391439  6.535663  2.821980            0           0           0
      2.513474  0.258257  5.000827            0           0           0
      7.742638  3.484538  0.761574            0           0           0
      5.078354  1.877603  2.917008            0           0           0
      5.160365  6.447147  2.899226            0           0           0
      7.708921  0.459858  4.847993            0           0           0
      9.080104  1.196934  7.005948            0           0           0
[...]
      9.073503  2.652522  4.913605            0           0           0
      6.371693  2.665576  4.858272            0           0           0
     11.658911  4.174860  2.814827            0           0           0
      2.440982  1.892366  2.832794            0           0           0
     11.649530  5.686214  0.885461            0           0           0
      6.447433  5.719494  0.925972            0           0           0
      7.829267  6.506514  2.836212            0           0           0
      6.419224  4.130068  2.782896            0           0           0
     10.386250  3.454849  7.077778            0           0           0
     10.344097  3.450125  0.868038            0           0           0
     10.370626  0.484098  4.871515            0           0           0
      9.040790  7.290173  4.936995            0           0           0
      6.462653  7.295032  4.940739            0           0           0
      5.042471  0.276335  4.884059            0           0           0
      1.090948  1.150309 10.567327     0.036104    0.059322    0.997586

[...]

   3 f  =   14.736441 THz    92.591786 2PiTHz  491.554729 cm-1    60.945041 meV
             X         Y         Z           dx          dy          dz
     12.952046  8.041328  6.968891            0           0           0
      5.121565  8.090330  6.982810            0           0           0
      4.953875  3.487025  7.029694            0           0           0
     14.262324  8.771219  9.304989            0           0           0
      3.740782  4.233763  9.430618            0           0           0
      6.384593  8.737449  9.411682            0           0           0
     11.660696  4.255692  9.360979            0           0           0
      9.064463  8.753320  9.193386            0           0           0
     10.298054  1.955668  9.418641            0           0           0
      2.481797  1.959977  9.453246            0           0           0
     11.667055  8.778559  9.307565            0           0           0
     12.987743  6.496594  9.415980            0           0           0
      5.065036  1.908660  9.341062            0           0           0
      7.726602  6.503386  9.335612            0           0           0
      9.034021  4.223838  9.309104            0           0           0
      5.061943  6.483667  9.405033            0           0           0
      7.698254  1.922438  9.304095            0           0           0
      7.783458  3.432341  6.975298            0           0           0
      6.305059  1.148714  6.929875            0           0           0
      6.428579  1.129740  0.878720            0           0           0
      3.705484  4.208436  2.816869            0           0           0
      1.186283  1.260396  6.912623            0           0           0
      1.135691  1.190800  0.725566            0           0           0
      6.436066  8.760995  2.900314            0           0           0
      6.390972  4.218144  9.348005            0           0           0
      7.681351  4.990728  4.814740            0           0           0
     10.329950  6.496527  9.319759            0           0           0
     14.264242  7.225928  4.862987            0           0           0
     11.678148  5.695486  7.011129            0           0           0
      6.412528  5.781580  6.998451            0           0           0
      3.621194  2.565893  4.960228            0           0           0
     10.360912  5.024302  4.856517            0           0           0
      3.755643  5.773191  7.173834            0           0           0
     12.969068  7.879772  0.925674            0           0           0
      5.163396  7.917194  0.830298            0           0           0
      3.807011  5.745024  0.813805            0           0           0
      7.798522  2.032451  2.832513            0           0           0
      9.077547  8.733730  2.857427            0           0           0
      2.399068  3.490639  7.155959            0           0           0
      2.344093  3.490514  0.825101            0           0           0
     10.348141  1.969830  2.822490            0           0           0
     12.960353  4.985870  4.925592            0           0           0
      3.737296  1.073849  7.076713            0           0           0
      9.029245  5.758084  7.089552            0           0           0
      3.748243  1.091821  0.867003            0           0           0
      9.091210  5.718673  0.960427            0           0           0
      5.124479  3.470454  0.855627            0           0           0
     11.620923  8.687580  2.905895            0           0           0
     11.653130  7.264496  4.842290            0           0           0
     12.867560  6.452796  2.833790            0           0           0
      9.042010  4.207796  2.796278            0           0           0
      7.769286  8.008023  6.986595            0           0           0
      7.813155  7.939223  0.886525            0           0           0
     10.391439  6.535663  2.821980            0           0           0
      2.513474  0.258257  5.000827            0           0           0
      7.742638  3.484538  0.761574            0           0           0
      5.078354  1.877603  2.917008            0           0           0
      5.160365  6.447147  2.899226            0           0           0
      7.708921  0.459858  4.847993            0           0           0
      9.080104  1.196934  7.005948            0           0           0
[...]
      9.073503  2.652522  4.913605            0           0           0
      6.371693  2.665576  4.858272            0           0           0
     11.658911  4.174860  2.814827            0           0           0
      2.440982  1.892366  2.832794            0           0           0
     11.649530  5.686214  0.885461            0           0           0
      6.447433  5.719494  0.925972            0           0           0
      7.829267  6.506514  2.836212            0           0           0
      6.419224  4.130068  2.782896            0           0           0
     10.386250  3.454849  7.077778            0           0           0
     10.344097  3.450125  0.868038            0           0           0
     10.370626  0.484098  4.871515            0           0           0
      9.040790  7.290173  4.936995            0           0           0
      6.462653  7.295032  4.940739            0           0           0
      5.042471  0.276335  4.884059            0           0           0
      1.090948  1.150309 10.567327     0.932235    0.357649   -0.055006

 Finite differences POTIM=  1.500000000000000E-002
  LATTYP: Found a hexagonal cell.
 ALAT       =    10.5600004196
 C/A-ratio  =     2.0833332505

  Lattice vectors:

 A1 = (   5.2800002098,  -9.1452286274,   0.0000000000)
 A2 = ( -10.5600004196,   0.0000000000,   0.0000000000)
 A3 = (   0.0000000000,   0.0000000000, -22.0000000000)

Analysis of symmetry for initial positions (statically):
 Subroutine PRICEL returns:
 Original cell was already a primitive cell.

[...]

The static configuration has the point symmetry C_1 .

Analysis of symmetry for dynamics (positions and initial velocities):
 Subroutine PRICEL returns:
 Original cell was already a primitive cell.

[...]

The dynamic configuration has the point symmetry C_1 .

Analysis of constrained symmetry for selective dynamics:
 Subroutine PRICEL returns:
 Original cell was already a primitive cell.

[...]

The constrained configuration has the point symmetry C_1 .

Analysis of structural, dynamic, and magnetic symmetry:
 Subroutine PRICEL returns:
 Original cell was already a primitive cell.

 Routine SETGRP: Setting up the symmetry group for a
 hexagonal supercell.

 Subroutine GETGRP returns: Found  1 space group operations
 (whereof  1 operations were pure point group operations)
 out of a pool of 24 trial point group operations.

The magnetic configuration has the point symmetry C_1 .

 Subroutine INISYM returns: Found  1 space group operations
 (whereof  1 operations are pure point group operations),
 and found     1 'primitive' translations

 KPOINTS: mesh auto

Automatic generation of k-mesh.
Space group operators:
 irot       det(A)        alpha          n_x          n_y          n_z        tau_x        tau_y        tau_z
    1     1.000000     0.000001     1.000000     0.000000     0.000000     0.000000     0.000000     0.000000

 Subroutine IBZKPT returns following result:

 Found      4 irreducible k-points:

 Following reciprocal coordinates:
            Coordinates               Weight
  0.000000  0.000000  0.000000      1.000000
  0.500000  0.000000  0.000000      1.000000
  0.000000  0.500000  0.000000      1.000000
  0.500000  0.500000  0.000000      1.000000

 Following cartesian coordinates:
            Coordinates               Weight
  0.000000  0.000000  0.000000      1.000000
  0.047348 -0.027337  0.000000      1.000000
  0.000000  0.054673  0.000000      1.000000
  0.047348  0.027337  0.000000      1.000000

 TETIRR: Found     12 inequivalent tetrahedra from       24
 BZINTS: Fermi energy:  2.057085;781.000000 electrons
         Band energy:-705.576344;  BLOECHL correction: -0.097021