 vasp.5.4.4.18Apr17-6-g9f103f2a35 (build Nov 30 2020 22:55:02) complex

 executed on             LinuxIFC date 2021.11.24  21:08:39

 INCAR:
 POTCAR:    PAW_PBE Pt 04Feb2005
 POTCAR:    PAW_PBE Fe 06Sep2000
 POTCAR:    PAW_PBE Co 02Aug2007
 POTCAR:    PAW_PBE Cu 22Jun2005
 POTCAR:    PAW_PBE Ni 02Aug2007
 POTCAR:    PAW_PBE H 15Jun2001

 POTCAR:    PAW_PBE Pt 04Feb2005
   VRHFIN =Pt: s1d9

   TITEL  = PAW_PBE Pt 04Feb2005
   POMASS =  195.080; ZVAL   =   10.000    mass and valenz
   ENMAX  =  230.283; ENMIN  =  172.712 eV

 POTCAR:    PAW_PBE Fe 06Sep2000
   VRHFIN =Fe:  d7 s1

   TITEL  = PAW_PBE Fe 06Sep2000
   POMASS =   55.847; ZVAL   =    8.000    mass and valenz
   ENMAX  =  267.882; ENMIN  =  200.911 eV

 POTCAR:    PAW_PBE Co 02Aug2007
   VRHFIN =Co: d8 s1

   TITEL  = PAW_PBE Co 02Aug2007
   POMASS =   58.933; ZVAL   =    9.000    mass and valenz
   ENMAX  =  267.968; ENMIN  =  200.976 eV

 POTCAR:    PAW_PBE Cu 22Jun2005
   VRHFIN =Cu: d10 p1

   TITEL  = PAW_PBE Cu 22Jun2005
   POMASS =   63.546; ZVAL   =   11.000    mass and valenz
   ENMAX  =  295.446; ENMIN  =  221.585 eV

 POTCAR:    PAW_PBE Ni 02Aug2007
   VRHFIN =Ni:

   TITEL  = PAW_PBE Ni 02Aug2007
   POMASS =   58.690; ZVAL   =   10.000    mass and valenz
   ENMAX  =  269.532; ENMIN  =  202.149 eV

 POTCAR:    PAW_PBE H 15Jun2001
   VRHFIN =H: ultrasoft test

   TITEL  = PAW_PBE H 15Jun2001
   POMASS =    1.000; ZVAL   =    1.000    mass and valenz
   ENMAX  =  250.000; ENMIN  =  200.000 eV

 Optimization of the real space projectors (new method)

 maximal supplied QI-value         = 14.36
 optimisation between [QCUT,QGAM] = [ 11.92, 23.98] = [ 39.79,161.09] Ry
 Optimized for a Real-space Cutoff    1.49 Angstroem

   l    n(q)    QCUT    max X(q) W(low)/X(q) W(high)/X(q)  e(spline)
   2     10    11.920    66.195    0.79E-04    0.18E-03    0.24E-06
   2     10    11.920    64.643    0.81E-04    0.19E-03    0.24E-06
   0     11    11.920    95.520    0.28E-04    0.54E-04    0.18E-06
   0     11    11.920    63.403    0.27E-04    0.52E-04    0.17E-06
   1     10    11.920    19.961    0.18E-04    0.11E-03    0.23E-06
   1     10    11.920    13.289    0.25E-04    0.87E-04    0.19E-06
 Optimization of the real space projectors (new method)

[...]

   l    n(q)    QCUT    max X(q) W(low)/X(q) W(high)/X(q)  e(spline)
   2      9    11.864    60.317    0.21E-03    0.51E-03    0.25E-06
   2      9    11.864    55.921    0.21E-03    0.51E-03    0.26E-06
   0      9    11.864    51.690    0.22E-03    0.30E-04    0.17E-06
   0      9    11.864    30.015    0.20E-03    0.28E-04    0.15E-06
   1      9    11.864    18.849    0.76E-04    0.33E-03    0.17E-06
   1      9    11.864    14.624    0.60E-04    0.28E-03    0.15E-06
 Optimization of the real space projectors (new method)

 maximal supplied QI-value         = 34.20
 optimisation between [QCUT,QGAM] = [ 11.97, 23.94] = [ 40.13,160.53] Ry
 Optimized for a Real-space Cutoff    1.18 Angstroem

   l    n(q)    QCUT    max X(q) W(low)/X(q) W(high)/X(q)  e(spline)
   0      8    11.971    19.460    0.15E-03    0.31E-03    0.25E-06
   0      8    11.971    12.209    0.13E-03    0.29E-03    0.25E-06
   1      8    11.971     4.655    0.22E-03    0.24E-03    0.21E-06
  PAW_PBE Pt 04Feb2005                  :
  PAW_PBE Fe 06Sep2000                  :
  PAW_PBE Co 02Aug2007                  :
  PAW_PBE Cu 22Jun2005                  :
  PAW_PBE Ni 02Aug2007                  :
  PAW_PBE H 15Jun2001                   :

 POSCAR: 10.56
  positions in cartesian coordinates
 exchange correlation table for  LEXCH =        8
   RHO(1)=    0.500       N(1)  =     2000
   RHO(2)=  100.500       N(2)  =     4000

 ion  position               nearest neighbor table
   1  0.787  0.879  0.317-  49 2.62  28 2.62  19 2.63  59 2.64  61 2.65  33 2.66  29 2.67  60 2.69
                             2 2.72  11 2.79   4 2.80  12 2.84
   2  0.043  0.882  0.317-  79 2.56  77 2.62  60 2.63  30 2.64  52 2.66  28 2.67  22 2.68  33 2.68
                             1 2.72   6 2.80   4 2.81  16 2.90
   3  0.278  0.381  0.320-  39 2.56  33 2.57  64 2.58  31 2.63  30 2.70  19 2.71  43 2.71  68 2.73
                            13 2.78  18 2.82   5 2.82  25 2.90
   4  0.873  0.962  0.423-  17 2.62  11 2.62  16 2.63  12 2.64   9 2.65   6 2.66  60 2.79   1 2.80
                             2 2.81
   5  0.120  0.461  0.430-  82 1.96  10 2.59   7 2.61  12 2.63  16 2.68  13 2.70  25 2.72  33 2.77
                            39 2.77   3 2.82
   6  0.126  0.959  0.425-  81 1.78  16 2.61  14 2.62   8 2.65   4 2.66  10 2.69   9 2.69   2 2.80
                            52 2.85  22 2.91
   7  0.873  0.462  0.426-   5 2.61  15 2.61  12 2.63   9 2.64  27 2.64  10 2.65  39 2.68  75 2.76
                            29 2.78
   8  0.376  0.959  0.420-  14 2.59  43 2.60  13 2.61  27 2.62  11 2.63   6 2.65  10 2.66  52 2.70
                            61 2.71
   9  0.871  0.213  0.424-  81 1.81  15 2.61  17 2.61   7 2.64   4 2.65   6 2.69  10 2.71  75 2.74
                            60 2.78  22 2.88
  10  0.127  0.213  0.424-  81 1.98   5 2.59  13 2.59   7 2.65   8 2.66  39 2.68   6 2.69   9 2.71
                            43 2.74  22 2.81
  11  0.625  0.961  0.425-  13 2.61   4 2.62  12 2.63   8 2.63  17 2.64  27 2.64   1 2.79  19 2.85
                            61 2.85
  12  0.873  0.711  0.426-  11 2.63   5 2.63   7 2.63  27 2.64   4 2.64  16 2.65  33 2.68  29 2.80
                             1 2.84
  13  0.376  0.207  0.423-  10 2.59   8 2.61  11 2.61  17 2.65  25 2.68   5 2.70  43 2.74   3 2.78
                            19 2.80
  14  0.377  0.714  0.422-  27 2.59   8 2.59   6 2.62  15 2.65  44 2.67  25 2.68  16 2.69  52 2.74
                            30 2.75
  15  0.626  0.462  0.422-   9 2.61   7 2.61  27 2.62  25 2.63  14 2.65  17 2.67  44 2.70  75 2.70
                            18 2.75
  16  0.122  0.714  0.429-  82 1.82   6 2.61   4 2.63  12 2.65   5 2.68  14 2.69  25 2.69  33 2.73
                            30 2.88   2 2.90
  17  0.625  0.210  0.422-   9 2.61   4 2.62  25 2.63  11 2.64  13 2.65  15 2.67  18 2.75  60 2.76
                            19 2.85
  18  0.547  0.376  0.317-  67 2.57  60 2.60  75 2.61  44 2.65  68 2.66  26 2.67  30 2.69  19 2.72
                            15 2.75  17 2.75   3 2.82  25 2.90
  19  0.535  0.125  0.315-  80 2.55  68 2.56  43 2.57  59 2.59   1 2.63  61 2.64   3 2.71  18 2.72
                            60 2.76  13 2.80  11 2.85  17 2.85
  20  0.547  0.124  0.040-  37 2.55  57 2.56  48 2.58  62 2.64  63 2.68  47 2.68  45 2.68  56 2.70
                            34 2.71
  21  0.121  0.460  0.128-  40 2.52  36 2.53  47 2.53  42 2.60  69 2.61  64 2.62  70 2.64  50 2.64
                            58 2.67  31 2.70  57 2.71  74 2.72
  22  0.043  0.136  0.315-  65 2.54  55 2.55  39 2.57  77 2.58  43 2.58  75 2.61  60 2.66   2 2.68
                            52 2.73  10 2.81   9 2.88   6 2.91  31 3.41
  23  0.042  0.130  0.033-  70 2.58  40 2.60  41 2.61  45 2.62  62 2.64  76 2.64  24 2.69  35 2.73
                            53 2.78
  24  0.130  0.958  0.132-  79 2.51  77 2.54  35 2.57  53 2.57  55 2.58  70 2.62  38 2.64  58 2.64
                            73 2.65  23 2.69  66 2.70  41 2.72
  25  0.378  0.460  0.429-  82 1.80  17 2.63  15 2.63  14 2.68  13 2.68  16 2.69   5 2.72  30 2.89
                            18 2.90   3 2.90
  26  0.455  0.546  0.219-  73 2.50  74 2.54  51 2.56  79 2.61  64 2.63  30 2.65  18 2.67  68 2.67
                            78 2.67  32 2.68  67 2.72  44 2.74
  27  0.623  0.711  0.424-  14 2.59  15 2.62   8 2.62  12 2.64   7 2.64  11 2.64  44 2.72  61 2.79
                            29 2.79
  28  0.956  0.790  0.221-  58 2.57  66 2.57  50 2.58  42 2.59  49 2.61   1 2.62  64 2.63   2 2.67
                            59 2.70  33 2.73  79 2.76  77 2.77
  29  0.794  0.623  0.319-  39 2.54  42 2.55  75 2.58  32 2.61  44 2.64  33 2.65  61 2.67   1 2.67
                            49 2.68   7 2.78  27 2.79  12 2.80
  30  0.291  0.630  0.318-  79 2.57  64 2.60  52 2.62  44 2.63   2 2.64  33 2.65  26 2.65  18 2.69
                             3 2.70  14 2.75  16 2.88  25 2.89
  31  0.203  0.281  0.225-  70 2.52  55 2.56  65 2.57  43 2.59  57 2.60   3 2.63  39 2.67  80 2.70
                            21 2.70  42 2.71  68 2.75  64 2.79  22 3.41
  32  0.706  0.549  0.221-  54 2.53  69 2.56  51 2.58  49 2.59  42 2.60  29 2.61  78 2.62  65 2.63
                            26 2.68  44 2.68  75 2.69  67 2.70
  33  0.041  0.630  0.326-   3 2.57  39 2.64  29 2.65  30 2.65   1 2.66   2 2.68  12 2.68  64 2.70
                            42 2.73  28 2.73  16 2.73   5 2.77
  34  0.797  0.862  0.042-  50 2.38  66 2.51  48 2.53  36 2.55  71 2.56  63 2.61  20 2.71  35 2.76
                            62 2.76
  35  0.056  0.866  0.038-  58 2.54  72 2.55  36 2.56  24 2.57  66 2.62  53 2.65  23 2.73  62 2.73
                            34 2.76
  36  0.046  0.628  0.037-  21 2.53  34 2.55  35 2.56  58 2.58  50 2.61  47 2.63  72 2.64  40 2.69
                            71 2.72
  37  0.627  0.222  0.129-  51 2.51  74 2.51  67 2.52  56 2.53  41 2.55  20 2.55  68 2.56  59 2.56
                            62 2.59  66 2.66  57 2.73  48 2.89
  38  0.382  0.955  0.130-  53 2.47  80 2.48  45 2.49  78 2.53  48 2.54  73 2.55  63 2.55  54 2.56
                            55 2.59  57 2.62  24 2.64  70 2.67
  39  0.035  0.383  0.324-  29 2.54   3 2.56  22 2.57  75 2.58  33 2.64  42 2.66  31 2.67   7 2.68
                            10 2.68  65 2.74   5 2.77  43 2.79
  40  0.031  0.382  0.038-  69 2.44  21 2.52  71 2.53  76 2.56  70 2.57  23 2.60  36 2.69  45 2.78
                            47 2.78
  41  0.872  0.215  0.128-  76 2.45  65 2.52  77 2.53  67 2.54  37 2.55  69 2.57  62 2.57  51 2.59
                            23 2.61  70 2.65  66 2.66  24 2.72
  42  0.955  0.545  0.224-  29 2.55  50 2.56  28 2.59  21 2.60  32 2.60  69 2.61  49 2.63  65 2.64
                            64 2.65  39 2.66  31 2.71  33 2.73
  43  0.296  0.116  0.321-  55 2.53  52 2.53  61 2.56  19 2.57  22 2.58  31 2.59   8 2.60  80 2.66
                             3 2.71  10 2.74  13 2.74  39 2.79
  44  0.540  0.630  0.321-  61 2.56  52 2.57  78 2.62  30 2.63  29 2.64  18 2.65  75 2.66  14 2.67
                            32 2.68  15 2.70  27 2.72  26 2.74
  45  0.295  0.119  0.039-  70 2.49  38 2.49  57 2.57  53 2.60  23 2.62  63 2.64  20 2.68  47 2.75
                            40 2.78
  46  0.548  0.625  0.044-  51 2.38  73 2.39  54 2.41  71 2.56  53 2.56  63 2.58  76 2.59  56 2.62
                            72 2.64
  47  0.296  0.379  0.039-  74 2.41  21 2.53  57 2.61  72 2.61  56 2.62  36 2.63  20 2.68  45 2.75
                            40 2.78
  48  0.625  0.950  0.132-  49 2.40  80 2.48  54 2.48  34 2.53  38 2.54  59 2.55  50 2.56  63 2.57
                            20 2.58  57 2.65  66 2.68  37 2.89
  49  0.706  0.794  0.220-  48 2.40  50 2.48  54 2.49  80 2.53  32 2.59  28 2.61  78 2.61   1 2.62
                            61 2.62  42 2.63  29 2.68  59 2.69
  50  0.866  0.706  0.129-  34 2.38  71 2.42  54 2.48  49 2.48  42 2.56  48 2.56  69 2.58  28 2.58
[...]
      2.51347      0.25826      5.00083        -0.035792      0.064028      0.037542
      7.74264      3.48454      0.76157         0.002328     -0.009089      0.015969
      5.07835      1.87760      2.91701         0.000848     -0.010895     -0.010797
      5.16037      6.44715      2.89923        -0.016230      0.000465     -0.003084
      7.70892      0.45986      4.84799         0.036814      0.014916     -0.032351
      9.06464      1.19325      6.98140        -0.004946     -0.001949      0.006675
[...]
      6.37169      2.66558      4.85827        -0.011272      0.046600     -0.004412
     11.65891      4.17486      2.81483        -0.018525      0.005343     -0.018007
      2.44098      1.89237      2.83279         0.035396      0.033129      0.023983
     11.64953      5.68621      0.88546         0.005596      0.038917     -0.003902
      6.44743      5.71949      0.92597        -0.000572      0.022024     -0.010411
      7.82927      6.50651      2.83621        -0.012454      0.001044     -0.019024
      6.41922      4.13007      2.78290        -0.026453     -0.016597     -0.007061
     10.37271      3.46573      7.05410        -0.000621      0.002324     -0.023310
     10.34410      3.45013      0.86804         0.011886     -0.028641     -0.037532
     10.37063      0.48410      4.87151        -0.032150     -0.020627      0.065174
      9.04079      7.29017      4.93700         0.019983     -0.025647     -0.029655
      6.46265      7.29503      4.94074        -0.028019      0.054023      0.035644
      5.04247      0.27633      4.88406        -0.038563      0.013896      0.001331
      1.00724      1.09830     10.34452        -0.040431     -0.006853      0.031761
      5.19168      5.03276     10.43956         0.018632      0.005745      0.115732
    total drift:                               -0.007248     -0.010618     -0.035809

  FREE ENERGIE OF THE ION-ELECTRON SYSTEM (eV)
  free  energy   TOTEN  =      -514.65848692 eV

  energy  without entropy=     -514.65848692  energy(sigma->0) =     -514.65848692

 d Force =-0.8007558E-03[-0.347E-02, 0.187E-02]  d Energy =-0.5055100E-03-0.295E-03
 d Force =-0.1046212E+02[-0.105E+02,-0.105E+02]  d Ewald  =-0.1046236E+02 0.246E-03

 Finite differences progress:
  Degree of freedom:   6/  6
  Displacement:        2/  2
  Total:              12/ 12

 SECOND DERIVATIVES (NOT SYMMETRIZED)
              81X         81Y         81Z         82X         82Y         82Z
 81X    -0.956876    0.326556   -0.970135   -0.017628   -0.018474   -0.001248
 81Y     0.317367   -1.881605   -1.150096   -0.009571   -0.008294    0.001266
 81Z    -0.967678   -1.157751   -5.821890    0.002852   -0.008465   -0.021875
 82X    -0.018512   -0.008947    0.000891   -1.124182    0.288752    1.032544
 82Y    -0.019211   -0.007758   -0.008539    0.283730   -1.505142    0.428990
 82Z     0.002062    0.002401   -0.021762    1.029688    0.418233   -5.935993

 Eigenvectors and eigenvalues of the dynamical matrix

   1 f  =   39.165181 THz   246.082093 2PiTHz 1306.409792 cm-1   161.974229 meV
             X         Y         Z           dx          dy          dz
     12.950412  8.040991  6.976664            0           0           0
      5.111658  8.064217  6.969202            0           0           0
      4.948918  3.487864  7.039076            0           0           0
     14.294254  8.794437  9.310271            0           0           0
      3.705659  4.218483  9.466343            0           0           0
      6.395918  8.771753  9.350058            0           0           0
     11.659960  4.220784  9.373927            0           0           0
      9.040410  8.774246  9.232180            0           0           0
     10.320831  1.950348  9.337677            0           0           0
      2.471175  1.949238  9.323037            0           0           0
     11.672353  8.784743  9.339883            0           0           0
     12.972497  6.504217  9.361589            0           0           0
      5.065052  1.891181  9.315515            0           0           0
      7.748746  6.529124  9.283074            0           0           0
      9.050844  4.224541  9.286195            0           0           0
      5.059552  6.528483  9.433555            0           0           0
      7.710596  1.920614  9.279117            0           0           0
      7.764411  3.441672  6.984071            0           0           0
      6.305652  1.144380  6.920399            0           0           0
      6.428579  1.129740  0.878720            0           0           0
      3.705484  4.208436  2.816869            0           0           0
      1.167486  1.242894  6.930816            0           0           0
      1.135691  1.190800  0.725566            0           0           0
      6.436066  8.760995  2.900314            0           0           0
      6.422110  4.204300  9.436932            0           0           0
      7.681351  4.990728  4.814740            0           0           0
     10.335497  6.503205  9.332527            0           0           0
     14.264242  7.225928  4.862987            0           0           0
     11.669638  5.695440  7.013289            0           0           0
      6.401527  5.765062  7.006045            0           0           0
      3.621194  2.565893  4.960228            0           0           0
     10.360912  5.024302  4.856517            0           0           0
      3.754963  5.759851  7.161725            0           0           0
     12.969068  7.879772  0.925674            0           0           0
      5.163396  7.917194  0.830298            0           0           0
      3.807011  5.745024  0.813805            0           0           0
      7.798522  2.032451  2.832513            0           0           0
      9.077547  8.733730  2.857427            0           0           0
      2.389815  3.499748  7.132981            0           0           0
      2.344093  3.490514  0.825101            0           0           0
     10.348141  1.969830  2.822490            0           0           0
     12.960353  4.985870  4.925592            0           0           0
      3.738949  1.062271  7.063054            0           0           0
      9.033086  5.763517  7.067184            0           0           0
      3.748243  1.091821  0.867003            0           0           0
      9.091210  5.718673  0.960427            0           0           0
      5.124479  3.470454  0.855627            0           0           0
     11.620923  8.687580  2.905895            0           0           0
     11.653130  7.264496  4.842290            0           0           0
     12.867560  6.452796  2.833790            0           0           0
      9.042010  4.207796  2.796278            0           0           0
      7.772292  8.002389  6.978260            0           0           0
      7.813155  7.939223  0.886525            0           0           0
     10.391439  6.535663  2.821980            0           0           0
      2.513474  0.258257  5.000827            0           0           0
      7.742638  3.484538  0.761574            0           0           0
      5.078354  1.877603  2.917008            0           0           0
      5.160365  6.447147  2.899226            0           0           0
      7.708921  0.459858  4.847993            0           0           0
      9.064641  1.193251  6.981403            0           0           0
[...]
      6.371693  2.665576  4.858272            0           0           0
     11.658911  4.174860  2.814827            0           0           0
      2.440982  1.892366  2.832794            0           0           0
     11.649530  5.686214  0.885461            0           0           0
      6.447433  5.719494  0.925972            0           0           0
      7.829267  6.506514  2.836212            0           0           0
      6.419224  4.130068  2.782896            0           0           0
     10.372710  3.465729  7.054099            0           0           0
     10.344097  3.450125  0.868038            0           0           0
     10.370626  0.484098  4.871515            0           0           0
      9.040790  7.290173  4.936995            0           0           0
      6.462653  7.295032  4.940739            0           0           0
      5.042471  0.276335  4.884059            0           0           0
      1.007244  1.098299 10.344524     0.157210    0.235755    0.942342
      5.191680  5.032756 10.454565    -0.033689   -0.010774    0.174484

[...]

   6 f  =   11.277582 THz    70.859138 2PiTHz  376.179635 cm-1    46.640347 meV
             X         Y         Z           dx          dy          dz
     12.950412  8.040991  6.976664            0           0           0
      5.111658  8.064217  6.969202            0           0           0
      4.948918  3.487864  7.039076            0           0           0
     14.294254  8.794437  9.310271            0           0           0
      3.705659  4.218483  9.466343            0           0           0
      6.395918  8.771753  9.350058            0           0           0
     11.659960  4.220784  9.373927            0           0           0
      9.040410  8.774246  9.232180            0           0           0
     10.320831  1.950348  9.337677            0           0           0
      2.471175  1.949238  9.323037            0           0           0
     11.672353  8.784743  9.339883            0           0           0
     12.972497  6.504217  9.361589            0           0           0
      5.065052  1.891181  9.315515            0           0           0
      7.748746  6.529124  9.283074            0           0           0
      9.050844  4.224541  9.286195            0           0           0
      5.059552  6.528483  9.433555            0           0           0
      7.710596  1.920614  9.279117            0           0           0
      7.764411  3.441672  6.984071            0           0           0
      6.305652  1.144380  6.920399            0           0           0
      6.428579  1.129740  0.878720            0           0           0
      3.705484  4.208436  2.816869            0           0           0
      1.167486  1.242894  6.930816            0           0           0
      1.135691  1.190800  0.725566            0           0           0
      6.436066  8.760995  2.900314            0           0           0
      6.422110  4.204300  9.436932            0           0           0
      7.681351  4.990728  4.814740            0           0           0
     10.335497  6.503205  9.332527            0           0           0
     14.264242  7.225928  4.862987            0           0           0
     11.669638  5.695440  7.013289            0           0           0
      6.401527  5.765062  7.006045            0           0           0
      3.621194  2.565893  4.960228            0           0           0
     10.360912  5.024302  4.856517            0           0           0
      3.754963  5.759851  7.161725            0           0           0
     12.969068  7.879772  0.925674            0           0           0
      5.163396  7.917194  0.830298            0           0           0
      3.807011  5.745024  0.813805            0           0           0
      7.798522  2.032451  2.832513            0           0           0
      9.077547  8.733730  2.857427            0           0           0
      2.389815  3.499748  7.132981            0           0           0
      2.344093  3.490514  0.825101            0           0           0
     10.348141  1.969830  2.822490            0           0           0
     12.960353  4.985870  4.925592            0           0           0
      3.738949  1.062271  7.063054            0           0           0
      9.033086  5.763517  7.067184            0           0           0
      3.748243  1.091821  0.867003            0           0           0
      9.091210  5.718673  0.960427            0           0           0
      5.124479  3.470454  0.855627            0           0           0
     11.620923  8.687580  2.905895            0           0           0
     11.653130  7.264496  4.842290            0           0           0
     12.867560  6.452796  2.833790            0           0           0
      9.042010  4.207796  2.796278            0           0           0
      7.772292  8.002389  6.978260            0           0           0
      7.813155  7.939223  0.886525            0           0           0
     10.391439  6.535663  2.821980            0           0           0
      2.513474  0.258257  5.000827            0           0           0
      7.742638  3.484538  0.761574            0           0           0
      5.078354  1.877603  2.917008            0           0           0
      5.160365  6.447147  2.899226            0           0           0
      7.708921  0.459858  4.847993            0           0           0
      9.064641  1.193251  6.981403            0           0           0
[...]
      6.371693  2.665576  4.858272            0           0           0
     11.658911  4.174860  2.814827            0           0           0
      2.440982  1.892366  2.832794            0           0           0
     11.649530  5.686214  0.885461            0           0           0
      6.447433  5.719494  0.925972            0           0           0
      7.829267  6.506514  2.836212            0           0           0
      6.419224  4.130068  2.782896            0           0           0
     10.372710  3.465729  7.054099            0           0           0
     10.344097  3.450125  0.868038            0           0           0
     10.370626  0.484098  4.871515            0           0           0
      9.040790  7.290173  4.936995            0           0           0
      6.462653  7.295032  4.940739            0           0           0
      5.042471  0.276335  4.884059            0           0           0
      1.007244  1.098299 10.344524     0.866874    0.417129   -0.249082
      5.191680  5.032756 10.454565    -0.095183   -0.054616   -0.021185

 Finite differences POTIM=  1.500000000000000E-002
  LATTYP: Found a hexagonal cell.
 ALAT       =    10.5600004196
 C/A-ratio  =     2.0833332505

  Lattice vectors:

 A1 = (   5.2800002098,  -9.1452286274,   0.0000000000)
 A2 = ( -10.5600004196,   0.0000000000,   0.0000000000)
 A3 = (   0.0000000000,   0.0000000000, -22.0000000000)

Analysis of symmetry for initial positions (statically):
 Subroutine PRICEL returns:
 Original cell was already a primitive cell.

[...]

The static configuration has the point symmetry C_1 .

Analysis of symmetry for dynamics (positions and initial velocities):
 Subroutine PRICEL returns:
 Original cell was already a primitive cell.

[...]

The dynamic configuration has the point symmetry C_1 .

Analysis of constrained symmetry for selective dynamics:
 Subroutine PRICEL returns:
 Original cell was already a primitive cell.

[...]

The constrained configuration has the point symmetry C_1 .

Analysis of structural, dynamic, and magnetic symmetry:
 Subroutine PRICEL returns:
 Original cell was already a primitive cell.

 Routine SETGRP: Setting up the symmetry group for a
 hexagonal supercell.

 Subroutine GETGRP returns: Found  1 space group operations
 (whereof  1 operations were pure point group operations)
 out of a pool of 24 trial point group operations.

The magnetic configuration has the point symmetry C_1 .

 Subroutine INISYM returns: Found  1 space group operations
 (whereof  1 operations are pure point group operations),
 and found     1 'primitive' translations

 KPOINTS: mesh auto

Automatic generation of k-mesh.
Space group operators:
 irot       det(A)        alpha          n_x          n_y          n_z        tau_x        tau_y        tau_z
    1     1.000000     0.000001     1.000000     0.000000     0.000000     0.000000     0.000000     0.000000

 Subroutine IBZKPT returns following result:

 Found      4 irreducible k-points:

 Following reciprocal coordinates:
            Coordinates               Weight
  0.000000  0.000000  0.000000      1.000000
  0.500000  0.000000  0.000000      1.000000
  0.000000  0.500000  0.000000      1.000000
  0.500000  0.500000  0.000000      1.000000

 Following cartesian coordinates:
            Coordinates               Weight
  0.000000  0.000000  0.000000      1.000000
  0.047348 -0.027337  0.000000      1.000000
  0.000000  0.054673  0.000000      1.000000
  0.047348  0.027337  0.000000      1.000000

 TETIRR: Found     12 inequivalent tetrahedra from       24
 BZINTS: Fermi energy:  2.081344;779.000000 electrons
         Band energy:-672.945838;  BLOECHL correction: -0.254846