 vasp.5.4.4.18Apr17-6-g9f103f2a35 (build Nov 30 2020 22:55:02) complex

 executed on             LinuxIFC date 2021.10.11  16:57:31

 INCAR:
 POTCAR:    PAW_PBE Pt 04Feb2005
 POTCAR:    PAW_PBE Fe 06Sep2000
 POTCAR:    PAW_PBE Co 02Aug2007
 POTCAR:    PAW_PBE Cu 22Jun2005
 POTCAR:    PAW_PBE Ni 02Aug2007
 POTCAR:    PAW_PBE Pt 04Feb2005
   VRHFIN =Pt: s1d9

   TITEL  = PAW_PBE Pt 04Feb2005
   POMASS =  195.080; ZVAL   =   10.000    mass and valenz
   ENMAX  =  230.283; ENMIN  =  172.712 eV

 POTCAR:    PAW_PBE Fe 06Sep2000
   VRHFIN =Fe:  d7 s1

   TITEL  = PAW_PBE Fe 06Sep2000
   POMASS =   55.847; ZVAL   =    8.000    mass and valenz
   ENMAX  =  267.882; ENMIN  =  200.911 eV

 POTCAR:    PAW_PBE Co 02Aug2007
   VRHFIN =Co: d8 s1

   TITEL  = PAW_PBE Co 02Aug2007
   POMASS =   58.933; ZVAL   =    9.000    mass and valenz
   ENMAX  =  267.968; ENMIN  =  200.976 eV

 POTCAR:    PAW_PBE Cu 22Jun2005
   VRHFIN =Cu: d10 p1

   TITEL  = PAW_PBE Cu 22Jun2005
   POMASS =   63.546; ZVAL   =   11.000    mass and valenz
   ENMAX  =  295.446; ENMIN  =  221.585 eV

 POTCAR:    PAW_PBE Ni 02Aug2007
   VRHFIN =Ni:

   TITEL  = PAW_PBE Ni 02Aug2007
   POMASS =   58.690; ZVAL   =   10.000    mass and valenz
   ENMAX  =  269.532; ENMIN  =  202.149 eV

 Optimization of the real space projectors (new method)

 maximal supplied QI-value         = 14.36
 optimisation between [QCUT,QGAM] = [ 11.92, 23.98] = [ 39.79,161.09] Ry
 Optimized for a Real-space Cutoff    1.49 Angstroem

   l    n(q)    QCUT    max X(q) W(low)/X(q) W(high)/X(q)  e(spline)
   2     10    11.920    66.195    0.79E-04    0.18E-03    0.24E-06
   2     10    11.920    64.643    0.81E-04    0.19E-03    0.24E-06
   0     11    11.920    95.520    0.28E-04    0.54E-04    0.18E-06
   0     11    11.920    63.403    0.27E-04    0.52E-04    0.17E-06
   1     10    11.920    19.961    0.18E-04    0.11E-03    0.23E-06
   1     10    11.920    13.289    0.25E-04    0.87E-04    0.19E-06
 Optimization of the real space projectors (new method)

[...]

   l    n(q)    QCUT    max X(q) W(low)/X(q) W(high)/X(q)  e(spline)
   2     10    11.864     4.610    0.10E-03    0.20E-03    0.29E-06
   2     10    11.864     8.522    0.17E-03    0.33E-03    0.50E-06
   0     11    11.864    51.609    0.52E-04    0.55E-04    0.33E-06
   0     11    11.864    27.747    0.46E-04    0.52E-04    0.31E-06
   1     10    11.864    20.408    0.54E-04    0.25E-04    0.21E-06
   1     10    11.864    13.425    0.48E-04    0.22E-04    0.18E-06
 Optimization of the real space projectors (new method)

 maximal supplied QI-value         = 16.25
 optimisation between [QCUT,QGAM] = [ 11.86, 23.89] = [ 39.41,159.82] Ry
 Optimized for a Real-space Cutoff    1.33 Angstroem

   l    n(q)    QCUT    max X(q) W(low)/X(q) W(high)/X(q)  e(spline)
   2      9    11.864    60.317    0.21E-03    0.51E-03    0.25E-06
   2      9    11.864    55.921    0.21E-03    0.51E-03    0.26E-06
   0      9    11.864    51.690    0.22E-03    0.30E-04    0.17E-06
   0      9    11.864    30.015    0.20E-03    0.28E-04    0.15E-06
   1      9    11.864    18.849    0.76E-04    0.33E-03    0.17E-06
   1      9    11.864    14.624    0.60E-04    0.28E-03    0.15E-06
  PAW_PBE Pt 04Feb2005                  :
  PAW_PBE Fe 06Sep2000                  :
  PAW_PBE Co 02Aug2007                  :
  PAW_PBE Cu 22Jun2005                  :
  PAW_PBE Ni 02Aug2007                  :

 POSCAR: 10.96
  positions in direct lattice
  velocities in cartesian coordinates
 exchange correlation table for  LEXCH =        8
   RHO(1)=    0.500       N(1)  =     2000
   RHO(2)=  100.500       N(2)  =     4000

 ion  position               nearest neighbor table
   1  0.785  0.880  0.313-  49 2.58  59 2.62  28 2.64  19 2.73  61 2.74  11 2.74  29 2.75  33 2.76
                            60 2.77   4 2.78  12 2.82   2 2.83
   2  0.043  0.882  0.310-  79 2.54  77 2.58  28 2.68  60 2.72  30 2.72  33 2.75  52 2.75   6 2.76
                            22 2.80   4 2.81   1 2.83  16 2.88
   3  0.279  0.380  0.316-  64 2.55  31 2.65  39 2.66  68 2.67  33 2.70   5 2.74  13 2.77  19 2.79
                            43 2.80  25 2.81  30 2.81  18 2.93
   4  0.874  0.964  0.415-   9 2.71  17 2.72  60 2.72   6 2.73  16 2.75  11 2.76  12 2.77   1 2.78
                             2 2.81
   5  0.118  0.465  0.420-  39 2.67  33 2.69  12 2.70   7 2.71  16 2.72  10 2.73   3 2.74  25 2.77
                            13 2.82
   6  0.125  0.961  0.414-  52 2.69   8 2.72  14 2.73   4 2.73  16 2.75   9 2.75   2 2.76  10 2.76
                            22 2.80
   7  0.875  0.458  0.420-  39 2.65  75 2.67  15 2.70   5 2.71   9 2.72  10 2.72  29 2.75  27 2.77
                            12 2.78
   8  0.373  0.960  0.415-  43 2.58  52 2.65  61 2.69  14 2.70   6 2.72  13 2.72  27 2.73  10 2.74
                            11 2.75
   9  0.873  0.211  0.414-  75 2.65  60 2.68   4 2.71   7 2.72  17 2.73  15 2.73   6 2.75  10 2.78
                            22 2.78
  10  0.126  0.212  0.416-  39 2.65  43 2.69  13 2.70   7 2.72   5 2.73  22 2.74   8 2.74   6 2.76
                             9 2.78
  11  0.624  0.960  0.417-  12 2.72  13 2.73  27 2.73   1 2.74  17 2.74   8 2.75  61 2.76   4 2.76
                            19 2.79
  12  0.873  0.712  0.419-  33 2.69   5 2.70  11 2.72  16 2.73  29 2.74  27 2.76   4 2.77   7 2.78
                             1 2.82
  13  0.375  0.208  0.418-  10 2.70  43 2.70   8 2.72  11 2.73  17 2.75  25 2.77  19 2.77   3 2.77
                             5 2.82
  14  0.376  0.713  0.417-  44 2.65  52 2.67  27 2.69   8 2.70   6 2.73  15 2.74  30 2.75  25 2.77
                            16 2.79
  15  0.626  0.462  0.417-  44 2.64  75 2.66   7 2.70  27 2.71  18 2.73   9 2.73  14 2.74  17 2.77
                            25 2.78
  16  0.123  0.711  0.419-  33 2.63   5 2.72  12 2.73  25 2.74   4 2.75   6 2.75  30 2.76  14 2.79
                             2 2.88
  17  0.625  0.210  0.415-   4 2.72  18 2.72   9 2.73  60 2.74  11 2.74  13 2.75  25 2.76  15 2.77
                            19 2.82
  18  0.547  0.377  0.315-  67 2.55  68 2.61  26 2.67  60 2.71  44 2.71  17 2.72  75 2.72  15 2.73
                            30 2.81  25 2.82  19 2.83   3 2.93
  19  0.533  0.126  0.312-  80 2.54  68 2.56  59 2.59  43 2.64   1 2.73  61 2.75  13 2.77   3 2.79
                            11 2.79  17 2.82  18 2.83  60 2.86
  20  0.553  0.123  0.050-  37 2.54  57 2.56  48 2.56  62 2.65  34 2.75  56 2.75  63 2.76  47 2.77
                            45 2.89
  21  0.118  0.456  0.128-  47 2.53  36 2.53  40 2.54  42 2.61  64 2.67  69 2.68  70 2.74  31 2.74
                            50 2.74  57 2.80  58 2.89  74 2.89
  22  0.046  0.135  0.312-  65 2.52  77 2.55  55 2.56  43 2.67  39 2.68  10 2.74  75 2.76   9 2.78
                             2 2.80   6 2.80  52 2.81  60 2.81  31 3.38
  23  0.033  0.135  0.038-  70 2.57  41 2.58  40 2.63  76 2.64  62 2.68  24 2.70  45 2.76  35 2.89
                            53 2.94
  24  0.132  0.957  0.134-  79 2.51  77 2.56  35 2.57  53 2.57  55 2.60  70 2.66  58 2.70  23 2.70
                            73 2.72  38 2.73  66 2.80  41 2.85
  25  0.373  0.461  0.419-  16 2.74  17 2.76  13 2.77   5 2.77  14 2.77  15 2.78  30 2.79   3 2.81
                            18 2.82
  26  0.457  0.549  0.219-  73 2.51  74 2.53  51 2.55  30 2.64  79 2.65  18 2.67  44 2.70  78 2.72
                            32 2.73  64 2.77  68 2.77  67 2.84
  27  0.622  0.711  0.418-  44 2.66  14 2.69  61 2.70  15 2.71   8 2.73  11 2.73  12 2.76  29 2.76
                             7 2.77
  28  0.955  0.784  0.219-  58 2.56  50 2.56  66 2.59   1 2.64  42 2.65  33 2.67  49 2.67   2 2.68
                            64 2.72  59 2.86  77 3.01  79 3.01
  29  0.797  0.624  0.317-  42 2.55  39 2.61  32 2.63  49 2.64  75 2.66  33 2.72  12 2.74   1 2.75
                             7 2.75  27 2.76  61 2.77  44 2.78
  30  0.289  0.631  0.315-  79 2.54  64 2.60  26 2.64  52 2.71  33 2.72   2 2.72  44 2.74  14 2.75
                            16 2.76  25 2.79   3 2.81  18 2.81
  31  0.199  0.277  0.225-  70 2.49  43 2.57  57 2.58  55 2.61  65 2.62  39 2.64   3 2.65  21 2.74
                            42 2.79  80 2.81  68 2.94  64 2.94  22 3.38
  32  0.704  0.552  0.221-  54 2.54  69 2.56  51 2.58  29 2.63  49 2.63  44 2.67  78 2.67  75 2.68
                            42 2.71  65 2.71  26 2.73  67 2.77
  33  0.040  0.633  0.321-  16 2.63  28 2.67  64 2.68  12 2.69   5 2.69   3 2.70  42 2.71  30 2.72
                            29 2.72   2 2.75  39 2.75   1 2.76
  34  0.792  0.862  0.051-  50 2.37  48 2.47  66 2.53  63 2.61  36 2.62  71 2.63  20 2.75  35 2.88
                            62 2.92
  35  0.054  0.861  0.044-  36 2.46  58 2.54  24 2.57  66 2.62  72 2.67  53 2.83  34 2.88  23 2.89
                            62 2.89
  36  0.046  0.641  0.045-  35 2.46  21 2.53  58 2.56  50 2.62  34 2.62  72 2.68  47 2.85  71 2.92
                            40 3.01
  37  0.628  0.230  0.134-  51 2.49  67 2.49  56 2.50  68 2.54  59 2.54  20 2.54  74 2.56  62 2.58
                            41 2.59  66 2.76  57 2.89
  38  0.383  0.953  0.133-  53 2.44  45 2.46  80 2.47  78 2.53  55 2.54  63 2.56  73 2.58  48 2.59
                            54 2.60  24 2.73  57 2.75  70 2.78
  39  0.034  0.385  0.321-  42 2.61  29 2.61  31 2.64   7 2.65  10 2.65   3 2.66  75 2.66   5 2.67
                            22 2.68  65 2.69  33 2.75  43 2.92
  40  0.016  0.382  0.041-  69 2.39  76 2.53  21 2.54  71 2.58  70 2.62  23 2.63  45 2.99  36 3.01

  41  0.871  0.217  0.132-  76 2.43  77 2.48  67 2.52  65 2.53  62 2.56  23 2.58  37 2.59  51 2.64
                            69 2.65  66 2.71  70 2.72  24 2.85
  42  0.956  0.542  0.224-  50 2.51  29 2.55  69 2.60  21 2.61  39 2.61  28 2.65  65 2.67  32 2.71
                            33 2.71  49 2.72  64 2.76  31 2.79
  43  0.298  0.116  0.319-  55 2.52  31 2.57   8 2.58  80 2.60  19 2.64  52 2.65  61 2.66  22 2.67
                            10 2.69  13 2.70   3 2.80  39 2.92
  44  0.541  0.627  0.320-  78 2.62  15 2.64  14 2.65  27 2.66  32 2.67  61 2.68  52 2.69  26 2.70
                            75 2.71  18 2.71  30 2.74  29 2.78
  45  0.293  0.115  0.046-  38 2.46  70 2.47  53 2.59  57 2.61  63 2.72  23 2.76  20 2.89  47 2.98
                            40 2.99
  46  0.553  0.623  0.048-  51 2.40  54 2.40  73 2.42  71 2.58  76 2.67  53 2.72  63 2.74  56 2.74
                            72 2.79
  47  0.306  0.381  0.047-  74 2.34  21 2.53  56 2.59  57 2.59  72 2.60  20 2.77  36 2.85  45 2.98

  48  0.623  0.946  0.137-  49 2.37  80 2.47  34 2.47  54 2.50  63 2.53  20 2.56  59 2.57  38 2.59
                            50 2.66  57 2.78  66 2.85
  49  0.709  0.790  0.221-  48 2.37  50 2.43  54 2.49   1 2.58  32 2.63  61 2.64  29 2.64  80 2.66
                            28 2.67  78 2.69  42 2.72  59 2.85
  50  0.861  0.698  0.132-  34 2.37  71 2.38  49 2.43  54 2.50  42 2.51  28 2.56  69 2.57  36 2.62
                            48 2.66  21 2.74
  51  0.629  0.457  0.130-  46 2.40  76 2.43  37 2.49  56 2.52  26 2.55  32 2.58  67 2.61  41 2.64
                            69 2.68  74 2.71  73 2.76  54 2.84
[...]
   0.397E+02 -.111E+02 -.147E+04   -.413E+02 0.114E+02 0.146E+04   0.165E+01 -.184E+00 0.193E+01   0.306E-01 -.278E-01 0.162E+00
   -.597E+01 0.371E+02 -.280E+04   0.626E+01 -.367E+02 0.280E+04   -.295E+00 -.383E+00 0.136E+01   0.963E-03 0.177E-01 -.336E-02
   -.220E+02 0.738E+01 -.280E+04   0.212E+02 -.675E+01 0.279E+04   0.781E+00 -.609E+00 0.203E+01   -.522E-02 -.886E-02 0.340E-01
   0.136E+02 0.727E+00 -.279E+04   -.135E+02 -.111E+01 0.279E+04   -.958E-01 0.340E+00 0.169E+01   0.975E-02 0.413E-02 -.171E-01
   -.262E+02 -.907E+01 -.285E+04   0.263E+02 0.831E+01 0.284E+04   -.549E-01 0.766E+00 0.207E+01   -.456E-01 -.175E-01 -.107E-01
   0.143E+02 -.251E+02 -.283E+04   -.147E+02 0.253E+02 0.283E+04   0.460E+00 -.177E+00 0.240E+01   0.220E-02 -.326E-02 0.395E-02
   -.254E+02 0.221E+02 -.283E+04   0.251E+02 -.219E+02 0.282E+04   0.299E+00 -.183E+00 0.169E+01   -.398E-02 0.342E-01 -.183E-01
   -.716E+01 0.938E+00 -.279E+04   0.776E+01 -.573E+00 0.279E+04   -.553E+00 -.339E+00 0.224E+01   -.123E-01 -.148E-01 0.158E-01
   -.198E+02 -.104E+02 -.283E+04   0.200E+02 0.997E+01 0.283E+04   -.252E+00 0.364E+00 0.140E+01   0.968E-02 -.573E-02 0.621E-02
   -.197E+02 -.305E+01 -.280E+04   0.199E+02 0.282E+01 0.280E+04   -.192E+00 0.223E+00 0.178E+01   -.158E-01 0.130E-01 0.101E-01
   0.152E+01 -.321E+02 -.281E+04   -.182E+01 0.316E+02 0.281E+04   0.292E+00 0.597E+00 0.163E+01   0.111E-01 -.240E-01 0.235E-01
   0.379E+02 0.175E+02 -.282E+04   -.372E+02 -.172E+02 0.282E+04   -.753E+00 -.310E+00 0.207E+01   0.608E-02 0.722E-02 0.145E-02
   0.340E+02 -.504E+01 -.283E+04   -.335E+02 0.552E+01 0.283E+04   -.538E+00 -.422E+00 0.200E+01   0.360E-01 -.301E-01 0.424E-03
   -.172E+01 -.502E+01 -.279E+04   0.134E+01 0.439E+01 0.279E+04   0.360E+00 0.618E+00 0.174E+01   0.166E-01 0.882E-02 0.264E-02
   0.294E+02 -.784E+01 -.282E+04   -.293E+02 0.806E+01 0.282E+04   -.805E-01 -.269E+00 0.174E+01   0.216E-01 0.793E-02 0.154E-01
   0.704E+02 -.595E+02 -.148E+04   -.692E+02 0.597E+02 0.148E+04   -.121E+01 -.219E+00 0.159E+01   0.616E-01 -.463E-02 0.167E+00
   0.221E+02 -.401E+02 -.145E+04   -.232E+02 0.397E+02 0.145E+04   0.113E+01 0.394E+00 0.240E+01   0.577E-02 -.180E-01 0.168E+00
   0.586E+02 0.328E+02 0.285E+04   -.583E+02 -.329E+02 -.285E+04   -.355E+00 0.136E+00 -.261E+01   -.612E-01 -.131E-01 0.605E-02
   0.140E+02 -.106E+02 0.161E+04   -.151E+02 0.113E+02 -.161E+04   0.109E+01 -.610E+00 0.102E+01   0.241E-01 -.439E-01 0.127E+00
   -.581E+02 0.152E+02 -.142E+04   0.590E+02 -.146E+02 0.141E+04   -.876E+00 -.491E+00 0.245E+01   -.202E-01 -.432E-02 0.151E+00
   -.738E+02 0.863E+02 0.295E+04   0.743E+02 -.848E+02 -.295E+04   -.388E+00 -.163E+01 -.258E+01   0.564E-01 -.508E-01 0.835E-02
   0.229E+02 -.479E+02 0.154E+04   -.226E+02 0.473E+02 -.154E+04   -.349E+00 0.552E+00 -.756E+00   0.686E-02 0.122E-02 0.195E+00
   0.131E+02 0.522E+00 -.280E+04   -.133E+02 -.524E+00 0.280E+04   0.220E+00 0.535E-02 0.155E+01   0.248E-01 -.111E-01 0.162E-01
   -.515E+01 0.203E+01 0.548E+01   0.524E+01 -.171E+01 -.673E+01   -.160E+00 -.389E+00 0.995E+00   -.950E-02 0.232E-01 0.236E+00
   -.175E+02 0.126E+02 -.283E+04   0.169E+02 -.126E+02 0.283E+04   0.642E+00 0.103E+00 0.197E+01   0.723E-02 -.134E-01 0.137E-01
   -.525E+00 0.403E+02 0.789E+02   -.579E+00 -.418E+02 -.791E+02   0.119E+01 0.145E+01 0.246E-01   0.184E-01 0.171E-01 0.160E+00
   -.662E+02 0.249E+01 -.144E+04   0.668E+02 -.362E+01 0.144E+04   -.594E+00 0.122E+01 0.270E+01   -.357E-01 -.132E-01 0.167E+00
   0.347E+02 0.276E+02 -.147E+04   -.346E+02 -.268E+02 0.147E+04   -.126E+00 -.781E+00 0.211E+01   0.262E-01 0.255E-01 0.123E+00
   -.480E+01 -.670E+02 -.531E+02   0.377E+01 0.666E+02 0.532E+02   0.109E+01 0.455E+00 -.234E+00   0.171E-01 -.497E-01 0.184E+00
   -.237E+02 -.205E+02 0.233E+01   0.243E+02 0.212E+02 -.316E+01   -.645E+00 -.763E+00 0.552E+00   -.111E-01 0.106E-01 0.294E+00
   0.160E+02 0.107E+02 -.117E+04   -.160E+02 -.110E+02 0.117E+04   0.234E-02 0.333E+00 0.175E+00   0.123E-01 0.178E-01 0.106E+00
   -.879E+02 -.973E+00 0.229E+04   0.881E+02 -.323E+00 -.229E+04   -.161E+00 0.127E+01 -.276E+01   0.127E-01 0.284E-01 0.461E-01
   0.250E+02 -.199E+02 0.234E+04   -.252E+02 0.179E+02 -.234E+04   0.392E+00 0.198E+01 -.294E+01   -.347E-01 0.402E-01 0.441E-01
   0.431E+02 0.234E+02 0.232E+04   -.427E+02 -.221E+02 -.232E+04   -.451E+00 -.143E+01 -.317E+01   -.612E-03 -.550E-02 0.680E-01
   0.315E+02 0.686E+02 0.119E+04   -.305E+02 -.677E+02 -.119E+04   -.967E+00 -.837E+00 -.694E-01   -.571E-01 -.317E-01 0.106E+00
   0.300E+02 -.767E+02 0.123E+04   -.299E+02 0.763E+02 -.123E+04   -.111E+00 0.337E+00 -.487E+00   -.276E-02 0.628E-01 0.133E+00
   -.620E+02 -.198E+02 -.118E+04   0.622E+02 0.200E+02 0.118E+04   -.158E+00 -.210E+00 0.377E+00   -.406E-01 -.305E-01 0.139E+00
   -.159E+03 0.112E+02 0.238E+04   0.157E+03 -.113E+02 -.237E+04   0.153E+01 0.782E-01 -.359E+01   0.655E-01 -.427E-01 -.389E-02
   -.463E+02 0.589E+02 0.123E+04   0.455E+02 -.584E+02 -.123E+04   0.906E+00 -.540E+00 -.484E+00   0.237E-02 -.627E-01 0.144E+00
   -.668E+02 -.911E+00 -.259E+02   0.666E+02 0.126E+01 0.258E+02   0.213E+00 -.405E+00 -.136E+00   -.454E-02 0.193E-01 0.160E+00
   0.163E+02 -.819E+02 -.120E+04   -.165E+02 0.817E+02 0.119E+04   0.140E+00 0.213E+00 0.716E+00   0.214E-02 -.390E-01 0.121E+00
   0.145E+02 0.228E+02 -.119E+04   -.147E+02 -.229E+02 0.119E+04   0.153E+00 0.502E-01 -.689E-01   0.168E-01 -.130E-01 0.124E+00
   -.409E+01 -.819E+02 0.233E+04   0.304E+01 0.803E+02 -.233E+04   0.103E+01 0.157E+01 -.333E+01   0.123E-01 0.163E-01 0.374E-01
   0.241E+02 -.283E+02 0.264E+04   -.239E+02 0.284E+02 -.264E+04   -.107E+00 -.167E+00 -.293E+01   -.568E-01 0.729E-01 -.168E-02
   0.179E+03 0.392E+02 0.265E+04   -.179E+03 -.383E+02 -.264E+04   -.431E+00 -.848E+00 -.301E+01   -.157E-01 -.432E-01 0.385E-01
   -.580E+02 -.523E+02 0.133E+04   0.574E+02 0.512E+02 -.133E+04   0.582E+00 0.117E+01 -.245E+00   0.149E-01 -.217E-02 0.144E+00
   -.767E+02 0.419E+02 0.126E+02   0.768E+02 -.419E+02 -.133E+02   -.936E-01 -.117E+00 0.439E+00   -.146E-01 0.425E-01 0.193E+00
   -.143E+03 0.845E+01 0.135E+04   0.143E+03 -.804E+01 -.135E+04   0.342E+00 -.496E+00 -.219E+00   -.290E-02 0.214E-01 0.160E+00
   -.127E+02 -.165E+02 0.133E+04   0.130E+02 0.162E+02 -.133E+04   -.177E+00 0.419E+00 -.209E+00   -.541E-01 0.408E-01 0.190E+00
   0.467E+02 0.189E+01 -.136E+04   -.467E+02 -.200E+01 0.136E+04   -.165E+00 0.131E+00 0.927E+00   0.226E-01 0.115E-01 0.110E+00
   0.708E+02 -.639E+02 0.266E+04   -.701E+02 0.640E+02 -.265E+04   -.694E+00 -.142E+00 -.330E+01   -.104E-01 0.109E+00 0.375E-01
   -.795E+01 0.892E+01 0.134E+04   0.799E+01 -.871E+01 -.134E+04   -.135E+00 -.330E+00 -.545E+00   0.141E-01 0.788E-01 0.210E+00
   0.389E+02 -.805E+02 -.120E+02   -.380E+02 0.800E+02 0.122E+02   -.850E+00 0.524E+00 -.463E+00   0.134E-02 -.244E-01 0.188E+00
   0.413E+02 0.179E+02 0.329E+04   -.415E+02 -.172E+02 -.329E+04   0.340E+00 -.637E+00 -.396E+01   -.968E-01 -.501E-01 -.343E-01
   0.783E+02 0.259E+01 0.164E+04   -.786E+02 -.309E+01 -.164E+04   0.142E+00 0.547E+00 -.140E+00   -.283E-01 -.517E-01 0.139E+00
   0.147E+03 -.472E+02 0.160E+04   -.147E+03 0.475E+02 -.160E+04   -.355E+00 -.268E+00 -.170E+00   0.455E-01 -.174E-01 0.207E+00
   0.259E+02 0.744E+02 0.972E+02   -.264E+02 -.742E+02 -.976E+02   0.588E+00 -.287E+00 0.921E-01   -.122E-01 -.112E-01 0.243E+00
   0.108E+02 0.601E+02 -.163E+04   -.104E+02 -.600E+02 0.163E+04   -.500E+00 -.141E+00 0.900E+00   0.468E-01 0.432E-01 0.170E+00
[...]
   0.295E+02 -.587E+02 0.504E+01   -.291E+02 0.577E+02 -.568E+01   -.391E+00 0.120E+01 0.228E+00   0.546E-03 0.235E-01 0.316E+00
   0.626E+02 -.114E+02 -.128E+02   -.619E+02 0.113E+02 0.129E+02   -.732E+00 0.169E+00 -.260E+00   -.166E-01 -.302E-01 0.243E+00
   -.956E+02 -.259E+00 0.150E+04   0.951E+02 0.462E+00 -.150E+04   0.508E+00 -.145E+00 -.371E+00   0.269E-01 -.190E-01 0.193E+00
   -.432E+02 0.754E+01 0.156E+04   0.437E+02 -.780E+01 -.156E+04   -.399E+00 0.383E+00 -.566E+00   0.993E-02 -.542E-01 0.174E+00
   -.124E+03 0.107E+01 0.297E+04   0.124E+03 -.112E+01 -.296E+04   -.351E+00 -.153E+00 -.222E+01   0.641E-01 0.699E-01 0.909E-02
   0.673E+02 -.697E+02 0.295E+04   -.680E+02 0.702E+02 -.295E+04   0.802E+00 -.381E+00 -.142E+01   -.585E-01 -.752E-02 0.201E-01
   0.203E+02 -.299E+02 0.153E+04   -.199E+02 0.297E+02 -.153E+04   -.378E+00 0.172E+00 -.167E-01   -.473E-01 0.698E-01 0.230E+00
   0.723E+02 -.261E+00 0.149E+04   -.716E+02 0.223E+00 -.149E+04   -.662E+00 0.865E-01 -.425E+00   -.370E-01 -.105E-01 0.153E+00
   -.316E+02 -.512E+02 -.151E+04   0.316E+02 0.513E+02 0.151E+04   0.540E-01 -.121E+00 0.321E+00   -.133E-01 -.214E-01 0.188E+00
   -.503E+02 0.687E+01 0.294E+04   0.508E+02 -.628E+01 -.294E+04   -.444E+00 -.390E+00 -.201E+01   -.116E-01 -.579E-01 -.342E-01
   -.514E+02 0.104E+03 0.818E+02   0.518E+02 -.104E+03 -.818E+02   -.436E+00 -.393E+00 -.317E+00   0.164E-01 -.902E-02 0.231E+00
   0.631E+00 0.569E+02 -.212E+02   -.722E+00 -.561E+02 0.208E+02   0.124E+00 -.838E+00 0.199E-01   -.519E-02 0.547E-01 0.217E+00
   0.841E+02 -.883E+01 -.321E+02   -.837E+02 0.941E+01 0.320E+02   -.464E+00 -.652E+00 -.224E+00   0.271E-01 0.228E-01 0.212E+00
   -.548E+01 -.774E+02 0.219E+02   0.505E+01 0.770E+02 -.222E+02   0.417E+00 0.454E+00 -.250E-02   -.930E-02 -.143E-01 0.199E+00
   -.199E+01 -.964E-01 -.988E+01   -.676E-12 0.568E-12 0.401E-12   0.204E+01 0.750E-01 0.945E+00   -.754E-01 0.560E-01 0.891E+01

 POSITION                                       TOTAL-FORCE (eV/Angst)
     13.43673      8.35058      6.89169         0.003016     -0.004124     -0.000710
      5.30168      8.36339      6.82554        -0.004344      0.008254      0.001134
      5.13904      3.60380      6.95919         0.009358     -0.003383     -0.004231
     14.86554      9.14751      9.13579        -0.000604     -0.007474     -0.003691
      3.84376      4.41609      9.23762         0.000330     -0.004718     -0.006443
      6.63759      9.11852      9.11692         0.002836     -0.007906     -0.003606
     12.09889      4.34350      9.24075         0.002317      0.002684     -0.002584
      9.35446      9.11219      9.13427         0.005639     -0.000084     -0.001031
     10.72759      2.00162      9.10537         0.006838      0.002946      0.003564
      2.54880      2.01572      9.15385         0.003967     -0.006097     -0.000783
     12.10481      9.10575      9.17231         0.000181     -0.003065      0.001068
     13.47671      6.75971      9.22892        -0.009588      0.000738     -0.008983
      5.25029      1.97037      9.19570        -0.000128     -0.003205     -0.004602
      8.02815      6.76554      9.17251        -0.005644     -0.002078     -0.009004
      9.39670      4.38693      9.17491         0.002478      0.002507     -0.014509
      5.24425      6.74639      9.20592         0.006104      0.005093     -0.000407
      7.99895      1.99301      9.14588         0.004589     -0.006617     -0.006486
      8.06626      3.57650      6.93411         0.007385     -0.003084     -0.006739
      6.53662      1.18956      6.87293         0.006561      0.005633      0.003560
      6.72628      1.16745      1.08242        -0.012201      0.001251      0.002258
      3.78814      4.32228      2.81446        -0.004133      0.000433     -0.045963
      1.24806      1.27994      6.85754        -0.002186      0.011363      0.011048
      1.10289      1.28088      0.83038         0.011200     -0.008919      0.021097
      6.68973      9.08802      2.94861        -0.009263     -0.000869     -0.015737
      6.61817      4.37583      9.21312         0.004401      0.003021      0.006247
      8.01503      5.21342      4.82519         0.011798      0.002541     -0.000041
     10.71537      6.75047      9.19266         0.021865     -0.003661     -0.006952
     14.76728      7.43331      4.80456         0.003291      0.004611     -0.002688
     12.15519      5.91625      6.98251         0.001619      0.002598     -0.003396
      6.62654      5.98871      6.93497        -0.000000     -0.001037     -0.006485
      3.69641      2.63079      4.96058        -0.008202     -0.022325      0.004283
     10.74899      5.24251      4.86996        -0.023018      0.002589      0.006909
      3.91198      6.00415      7.05643         0.002918     -0.005259      0.002029
     13.40431      8.18144      1.12629         0.014290     -0.014366      0.007852
      5.30364      8.18579      0.97842        -0.014922     -0.008376      0.024432
      4.01252      6.08228      1.00891        -0.005020     -0.003639      0.046710
      8.14068      2.17808      2.94353        -0.003470      0.007417     -0.005407
      9.41716      9.04979      2.92015         0.002678      0.008302     -0.009883
      2.48832      3.64603      7.07129        -0.000072      0.002396      0.009699
      2.27016      3.62463      0.90646        -0.009378      0.001628      0.037975
     10.72847      2.05865      2.89929        -0.002196      0.009614     -0.014658
     13.44858      5.13914      4.92157        -0.012733     -0.002928      0.012520
      3.90497      1.09427      7.01905         0.004813      0.000621      0.001313
      9.36927      5.95338      7.04245         0.006296     -0.006341     -0.000211
      3.84203      1.09369      0.99843        -0.007228      0.009179      0.047110
      9.46597      5.91657      1.05336        -0.000283      0.005389      0.015691
      5.43495      3.60933      1.03054        -0.025589      0.009547      0.017433
     12.01888      8.97257      3.00065        -0.001434     -0.000429      0.004483
     12.09414      7.50068      4.86230         0.004675     -0.000005     -0.000636
     13.25111      6.61567      2.90710         0.000529     -0.008010     -0.017704
      9.39189      4.34418      2.86168        -0.000010      0.018533     -0.013907
      8.05071      8.29913      6.97710        -0.003517     -0.008431      0.005339
      8.14131      8.28722      0.98031         0.000637      0.010647      0.005972
     10.75943      6.81665      2.87577        -0.018006     -0.003228     -0.023421
      2.65866      0.23001      5.00725         0.004787      0.005532     -0.006110
      8.02288      3.59150      0.88412         0.004300      0.016106     -0.003998
      5.26159      1.95152      3.02289        -0.011541     -0.002676     -0.014961
      5.47598      6.67403      3.01859         0.001065     -0.003221     -0.007279
      8.00253      0.50416      4.85587        -0.001177      0.004276      0.002610
      9.40147      1.22241      6.91371         0.000152      0.007648     -0.002847
[...]
     14.84943      9.21347      2.92717        -0.000352      0.014020     -0.013170
      9.47732      2.78762      4.96322        -0.007922      0.007892      0.003805
      6.62486      2.80825      4.89292         0.006528      0.004115     -0.007901
     12.06521      4.33484      2.86673        -0.002244      0.001617     -0.024671
      2.47669      1.92891      2.90301         0.019032      0.014515     -0.024763
     12.05319      5.92970      0.96885        -0.003514     -0.026560      0.007611
      6.68440      5.89557      1.05654        -0.006414      0.003109     -0.004687
      8.15015      6.79554      2.87759         0.008027     -0.000849     -0.002963
      6.69092      4.28584      2.88429         0.000685     -0.013922     -0.004299
     10.78830      3.63940      7.02475        -0.000883     -0.001311      0.003245
     10.69673      3.54310      0.96432         0.003788      0.015899      0.010879
     10.77558      0.56009      4.86940         0.004206      0.006072     -0.001070
      9.41147      7.55569      4.96424         0.002234     -0.015010      0.001496
      6.80717      7.56930      4.94866         0.014326     -0.006441     -0.002347
      5.19417      0.24850      4.93127         0.008648     -0.001363     -0.002354
    total drift:                               -0.027962      0.034586     -0.025790

  FREE ENERGIE OF THE ION-ELECTRON SYSTEM (eV)
  free  energy   TOTEN  =      -502.74412947 eV

  energy  without entropy=     -502.75774292  energy(sigma->0) =     -502.74866728

 d Force = 0.5117375E-03[ 0.357E-03, 0.667E-03]  d Energy = 0.5853366E-03-0.736E-04
 d Force = 0.4253216E+02[ 0.425E+02, 0.425E+02]  d Ewald  = 0.4253216E+02-0.183E-05

 Conjugate gradient step on ions:
 trial-energy change:   -0.000585  1 .order   -0.000512   -0.000667   -0.000357
  (g-gl).g = 0.274E-02      g.g   = 0.292E-02  gl.gl    = 0.286E-02
 g(Force)  = 0.292E-02   g(Stress)= 0.000E+00 ortho     =-0.274E-03
 gamma     =   0.95890
 trial     =   0.25088
 opt step  =   0.34785  (harmonic =   0.53915) maximal distance =0.00252305
 next E    =  -502.744203   (d E  =  -0.00066)

 reached required accuracy - stopping structural energy minimisation