 vasp.5.4.4.18Apr17-6-g9f103f2a35 (build Oct 25 2019 11:13:22) complex

 executed on             LinuxIFC date 2021.10.16  12:33:26

 INCAR:
 POTCAR:    PAW_PBE Pt 04Feb2005
 POTCAR:    PAW_PBE Fe 06Sep2000
 POTCAR:    PAW_PBE Co 02Aug2007
 POTCAR:    PAW_PBE Cu 22Jun2005
 POTCAR:    PAW_PBE Ni 02Aug2007
 POTCAR:    PAW_PBE H 15Jun2001
 POTCAR:    PAW_PBE Pt 04Feb2005
   VRHFIN =Pt: s1d9

   TITEL  = PAW_PBE Pt 04Feb2005
   POMASS =  195.080; ZVAL   =   10.000    mass and valenz
   ENMAX  =  230.283; ENMIN  =  172.712 eV

 POTCAR:    PAW_PBE Fe 06Sep2000
   VRHFIN =Fe:  d7 s1

   TITEL  = PAW_PBE Fe 06Sep2000
   POMASS =   55.847; ZVAL   =    8.000    mass and valenz
   ENMAX  =  267.882; ENMIN  =  200.911 eV

 POTCAR:    PAW_PBE Co 02Aug2007
   VRHFIN =Co: d8 s1

   TITEL  = PAW_PBE Co 02Aug2007
   POMASS =   58.933; ZVAL   =    9.000    mass and valenz
   ENMAX  =  267.968; ENMIN  =  200.976 eV

 POTCAR:    PAW_PBE Cu 22Jun2005
   VRHFIN =Cu: d10 p1

   TITEL  = PAW_PBE Cu 22Jun2005
   POMASS =   63.546; ZVAL   =   11.000    mass and valenz
   ENMAX  =  295.446; ENMIN  =  221.585 eV

 POTCAR:    PAW_PBE Ni 02Aug2007
   VRHFIN =Ni:

   TITEL  = PAW_PBE Ni 02Aug2007
   POMASS =   58.690; ZVAL   =   10.000    mass and valenz
   ENMAX  =  269.532; ENMIN  =  202.149 eV

 POTCAR:    PAW_PBE H 15Jun2001
   VRHFIN =H: ultrasoft test

   TITEL  = PAW_PBE H 15Jun2001
   POMASS =    1.000; ZVAL   =    1.000    mass and valenz
   ENMAX  =  250.000; ENMIN  =  200.000 eV

 Optimization of the real space projectors (new method)

 maximal supplied QI-value         = 14.36
 optimisation between [QCUT,QGAM] = [ 11.92, 23.98] = [ 39.79,161.09] Ry
 Optimized for a Real-space Cutoff    1.49 Angstroem

   l    n(q)    QCUT    max X(q) W(low)/X(q) W(high)/X(q)  e(spline)
   2     10    11.920    66.195    0.79E-04    0.18E-03    0.24E-06
   2     10    11.920    64.643    0.81E-04    0.19E-03    0.24E-06
   0     11    11.920    95.520    0.28E-04    0.54E-04    0.18E-06
   0     11    11.920    63.403    0.27E-04    0.52E-04    0.17E-06
   1     10    11.920    19.961    0.18E-04    0.11E-03    0.23E-06
   1     10    11.920    13.289    0.25E-04    0.87E-04    0.19E-06
 Optimization of the real space projectors (new method)

[...]

   l    n(q)    QCUT    max X(q) W(low)/X(q) W(high)/X(q)  e(spline)
   2      9    11.864    60.317    0.21E-03    0.51E-03    0.25E-06
   2      9    11.864    55.921    0.21E-03    0.51E-03    0.26E-06
   0      9    11.864    51.690    0.22E-03    0.30E-04    0.17E-06
   0      9    11.864    30.015    0.20E-03    0.28E-04    0.15E-06
   1      9    11.864    18.849    0.76E-04    0.33E-03    0.17E-06
   1      9    11.864    14.624    0.60E-04    0.28E-03    0.15E-06
 Optimization of the real space projectors (new method)

 maximal supplied QI-value         = 34.20
 optimisation between [QCUT,QGAM] = [ 11.97, 23.94] = [ 40.13,160.53] Ry
 Optimized for a Real-space Cutoff    1.18 Angstroem

   l    n(q)    QCUT    max X(q) W(low)/X(q) W(high)/X(q)  e(spline)
   0      8    11.971    19.460    0.15E-03    0.31E-03    0.25E-06
   0      8    11.971    12.209    0.13E-03    0.29E-03    0.25E-06
   1      8    11.971     4.655    0.22E-03    0.24E-03    0.21E-06
  PAW_PBE Pt 04Feb2005                  :
  PAW_PBE Fe 06Sep2000                  :
  PAW_PBE Co 02Aug2007                  :
  PAW_PBE Cu 22Jun2005                  :
  PAW_PBE Ni 02Aug2007                  :
  PAW_PBE H 15Jun2001                   :

 POSCAR: 10.96
  positions in direct lattice
  velocities in cartesian coordinates
 exchange correlation table for  LEXCH =        8
   RHO(1)=    0.500       N(1)  =     2000
   RHO(2)=  100.500       N(2)  =     4000

 ion  position               nearest neighbor table
   1  0.787  0.880  0.313-  49 2.59  59 2.62  28 2.64  19 2.73  33 2.75  61 2.75  11 2.75  29 2.75
                            60 2.76   4 2.80   2 2.81  12 2.84
   2  0.043  0.881  0.311-  79 2.55  77 2.60  28 2.70  30 2.72  60 2.72  33 2.74  52 2.75   6 2.79
                            22 2.80   1 2.81   4 2.86  16 2.93
   3  0.279  0.379  0.316-  64 2.55  31 2.65  39 2.66  68 2.66  33 2.71   5 2.74  13 2.77  19 2.79
                            43 2.80  25 2.81  30 2.81  18 2.93
   4  0.870  0.965  0.418-  17 2.69  11 2.72   9 2.73  60 2.75  12 2.78   1 2.80   6 2.80  16 2.83
                             2 2.86
   5  0.118  0.465  0.420-  39 2.67  12 2.69   7 2.69  33 2.70  16 2.70  10 2.72   3 2.74  25 2.78
                            13 2.82
   6  0.127  0.963  0.416-   8 2.69  52 2.72  10 2.73  14 2.76   9 2.77   2 2.79   4 2.80  22 2.81
                            16 2.82
   7  0.876  0.457  0.420-  81 1.72  39 2.65  75 2.68   5 2.69   9 2.70  15 2.70  10 2.72  12 2.75
                            29 2.76  27 2.79
   8  0.374  0.960  0.415-  43 2.58  52 2.65  61 2.69   6 2.69  14 2.70  27 2.71  13 2.72  10 2.74
                            11 2.74
   9  0.872  0.214  0.414-  81 1.89  75 2.63  60 2.68   7 2.70  15 2.70  17 2.73   4 2.73   6 2.77
                            22 2.79  10 2.79
  10  0.127  0.213  0.416-  39 2.65  43 2.69  13 2.70   5 2.72   7 2.72   6 2.73   8 2.74  22 2.74
                             9 2.79
  11  0.625  0.959  0.417-  12 2.72  27 2.72   4 2.72  13 2.73   8 2.74   1 2.75  61 2.75  17 2.75
                            19 2.79
  12  0.873  0.710  0.420-  33 2.69   5 2.69  11 2.72  29 2.73  27 2.74   7 2.75  16 2.76   4 2.78
                             1 2.84
  13  0.376  0.208  0.418-  10 2.70  43 2.71   8 2.72  11 2.73  17 2.75  25 2.76  19 2.77   3 2.77
                             5 2.82
  14  0.379  0.711  0.417-  44 2.63  27 2.67  52 2.68   8 2.70  15 2.72  30 2.75   6 2.76  25 2.77
                            16 2.79
  15  0.627  0.462  0.417-  81 1.83  44 2.64  75 2.66   7 2.70   9 2.70  27 2.71  14 2.72  18 2.73
                            17 2.78  25 2.79
  16  0.127  0.706  0.421-  33 2.66   5 2.70  25 2.70  12 2.76  30 2.78  14 2.79   6 2.82   4 2.83
                             2 2.93
  17  0.625  0.210  0.416-   4 2.69  18 2.72   9 2.73  60 2.74  25 2.74  13 2.75  11 2.75  15 2.78
                            19 2.82
  18  0.547  0.377  0.315-  67 2.55  68 2.61  26 2.67  44 2.71  60 2.71  17 2.72  75 2.73  15 2.73
                            25 2.81  30 2.81  19 2.84   3 2.93
  19  0.534  0.125  0.312-  80 2.54  68 2.56  59 2.58  43 2.64   1 2.73  61 2.74  13 2.77  11 2.79
                             3 2.79  17 2.82  18 2.84  60 2.86
  20  0.552  0.123  0.049-  37 2.55  57 2.55  48 2.56  62 2.66  34 2.75  63 2.75  56 2.76  47 2.76
                            45 2.89
  21  0.118  0.455  0.128-  47 2.53  36 2.53  40 2.54  42 2.61  64 2.66  69 2.68  70 2.73  31 2.73
                            50 2.74  57 2.80  58 2.90  74 2.90
  22  0.046  0.135  0.312-  65 2.53  77 2.56  55 2.56  43 2.67  39 2.68  10 2.74  75 2.76   9 2.79
                             2 2.80  60 2.80   6 2.81  52 2.82  31 3.38
  23  0.033  0.135  0.038-  70 2.57  41 2.58  40 2.62  76 2.65  62 2.69  24 2.71  45 2.75  35 2.89
                            53 2.94
  24  0.132  0.957  0.134-  79 2.51  77 2.56  35 2.57  53 2.57  55 2.60  70 2.65  58 2.70  23 2.71
                            73 2.72  38 2.73  66 2.80  41 2.85
  25  0.374  0.460  0.419-  16 2.70  17 2.74  13 2.76  14 2.77   5 2.78  15 2.79  30 2.79   3 2.81
                            18 2.81
  26  0.457  0.549  0.219-  73 2.51  74 2.53  51 2.55  30 2.65  79 2.65  18 2.67  44 2.70  78 2.73
                            32 2.73  68 2.78  64 2.78  67 2.84
  27  0.622  0.712  0.418-  44 2.66  14 2.67  61 2.70  15 2.71   8 2.71  11 2.72  12 2.74  29 2.77
                             7 2.79
  28  0.956  0.783  0.218-  58 2.56  50 2.56  66 2.59   1 2.64  42 2.65  49 2.67  33 2.67   2 2.70
                            64 2.72  59 2.87  79 3.01  77 3.01
  29  0.798  0.623  0.317-  42 2.55  39 2.61  32 2.63  49 2.65  75 2.66  33 2.72  12 2.73   1 2.75
                             7 2.76  27 2.77  61 2.77  44 2.79
  30  0.288  0.631  0.315-  79 2.55  64 2.61  26 2.65  33 2.71  52 2.71   2 2.72  14 2.75  44 2.76
                            16 2.78  25 2.79   3 2.81  18 2.81
  31  0.199  0.277  0.225-  70 2.49  43 2.57  57 2.58  55 2.62  65 2.62  39 2.63   3 2.65  21 2.73
                            42 2.78  80 2.81  64 2.93  68 2.93  22 3.38
  32  0.705  0.552  0.221-  54 2.54  69 2.56  51 2.58  29 2.63  49 2.63  44 2.66  78 2.67  75 2.68
                            42 2.70  65 2.70  26 2.73  67 2.77
  33  0.041  0.633  0.321-  16 2.66  28 2.67  64 2.69  12 2.69   5 2.70   3 2.71  30 2.71  42 2.72
                            29 2.72   2 2.74   1 2.75  39 2.76
  34  0.792  0.862  0.051-  50 2.38  48 2.46  66 2.53  63 2.62  36 2.62  71 2.63  20 2.75  35 2.86
                            62 2.92
  35  0.053  0.862  0.044-  36 2.47  58 2.55  24 2.57  66 2.62  72 2.68  53 2.84  34 2.86  62 2.89
                            23 2.89
  36  0.046  0.641  0.046-  35 2.47  21 2.53  58 2.56  50 2.62  34 2.62  72 2.68  47 2.85  71 2.92
                            40 3.01
  37  0.628  0.229  0.134-  67 2.50  56 2.50  51 2.50  59 2.55  20 2.55  68 2.55  74 2.56  62 2.58
                            41 2.59  66 2.75  57 2.89
  38  0.383  0.953  0.133-  53 2.44  45 2.46  80 2.47  78 2.53  55 2.54  63 2.56  73 2.59  48 2.60
                            54 2.61  24 2.73  57 2.74  70 2.78
  39  0.035  0.384  0.321-  29 2.61  42 2.62  31 2.63  10 2.65   7 2.65   3 2.66  75 2.66   5 2.67
                            22 2.68  65 2.69  33 2.76  43 2.92
  40  0.016  0.382  0.041-  69 2.39  76 2.54  21 2.54  71 2.59  23 2.62  70 2.63  45 2.98  36 3.01

  41  0.870  0.217  0.132-  76 2.44  77 2.48  67 2.52  65 2.53  62 2.56  23 2.58  37 2.59  69 2.64
                            51 2.65  66 2.70  70 2.71  24 2.85
  42  0.956  0.541  0.224-  50 2.51  29 2.55  69 2.60  21 2.61  39 2.62  28 2.65  65 2.67  32 2.70
                            33 2.72  49 2.72  64 2.75  31 2.78
  43  0.299  0.115  0.319-  55 2.51  31 2.57   8 2.58  80 2.59  19 2.64  52 2.66  61 2.66  22 2.67
                            10 2.69  13 2.71   3 2.80  39 2.92
  44  0.542  0.627  0.320-  78 2.62  14 2.63  15 2.64  27 2.66  32 2.66  61 2.68  52 2.68  26 2.70
                            18 2.71  75 2.71  30 2.76  29 2.79
  45  0.293  0.115  0.045-  38 2.46  70 2.49  53 2.58  57 2.62  63 2.72  23 2.75  20 2.89  47 2.98
                            40 2.98
  46  0.552  0.623  0.048-  51 2.40  54 2.41  73 2.41  71 2.59  76 2.68  53 2.72  63 2.73  56 2.74
                            72 2.78
  47  0.306  0.380  0.047-  74 2.34  21 2.53  56 2.59  57 2.60  72 2.61  20 2.76  36 2.85  45 2.98

  48  0.624  0.945  0.136-  49 2.37  34 2.46  80 2.47  54 2.50  63 2.53  20 2.56  59 2.58  38 2.60
                            50 2.66  57 2.78  66 2.84
  49  0.708  0.790  0.221-  48 2.37  50 2.44  54 2.49   1 2.59  61 2.63  32 2.63  29 2.65  80 2.65
                            28 2.67  78 2.69  42 2.72  59 2.86
  50  0.861  0.697  0.132-  34 2.38  71 2.38  49 2.44  54 2.50  42 2.51  28 2.56  69 2.57  36 2.62
                            48 2.66  21 2.74
[...]
   0.407E+02 -.113E+02 -.146E+04   -.423E+02 0.114E+02 0.145E+04   0.159E+01 -.172E+00 0.196E+01   0.296E-02 0.829E-01 -.869E-01
   -.409E+01 0.415E+02 -.279E+04   0.452E+01 -.410E+02 0.279E+04   -.337E+00 -.323E+00 0.134E+01   -.986E-01 -.737E-01 -.439E-01
   -.253E+02 0.870E+01 -.279E+04   0.246E+02 -.818E+01 0.279E+04   0.713E+00 -.628E+00 0.197E+01   -.124E-01 0.963E-01 -.704E-01
   0.122E+02 0.442E+01 -.278E+04   -.122E+02 -.468E+01 0.278E+04   -.829E-01 0.300E+00 0.163E+01   0.540E-01 -.829E-01 -.995E-01
   -.329E+02 -.897E+01 -.283E+04   0.336E+02 0.861E+01 0.283E+04   -.812E+00 0.201E+00 0.145E+01   0.444E-02 0.111E+00 -.414E-01
   0.135E+02 -.265E+02 -.283E+04   -.141E+02 0.267E+02 0.283E+04   0.577E+00 -.109E+00 0.232E+01   0.359E-01 -.102E+00 -.107E+00
   -.258E+02 0.317E+02 -.281E+04   0.254E+02 -.323E+02 0.281E+04   0.315E+00 0.568E+00 0.120E+01   -.380E-01 0.930E-01 -.274E-01
   -.485E+01 -.230E+01 -.278E+04   0.570E+01 0.240E+01 0.278E+04   -.842E+00 -.125E+00 0.237E+01   0.238E-01 0.616E-01 -.430E-01
   -.189E+02 -.102E+02 -.283E+04   0.192E+02 0.992E+01 0.283E+04   -.363E+00 0.350E+00 0.136E+01   0.109E-01 -.891E-01 -.503E-01
   -.249E+02 -.963E+01 -.280E+04   0.250E+02 0.935E+01 0.280E+04   -.794E-01 0.335E+00 0.169E+01   -.284E-01 -.358E-01 -.678E-01
   0.265E+01 -.315E+02 -.280E+04   -.298E+01 0.309E+02 0.280E+04   0.305E+00 0.572E+00 0.157E+01   0.312E-01 0.247E-01 -.489E-01
   0.414E+02 0.137E+02 -.281E+04   -.406E+02 -.134E+02 0.281E+04   -.849E+00 -.278E+00 0.203E+01   0.522E-01 -.339E-01 -.135E+00
   0.385E+02 -.123E+02 -.282E+04   -.388E+02 0.130E+02 0.282E+04   0.291E+00 -.746E+00 0.144E+01   0.137E-01 0.643E-01 -.693E-01
   -.150E+01 -.608E+01 -.279E+04   0.123E+01 0.556E+01 0.279E+04   0.330E+00 0.615E+00 0.175E+01   -.519E-01 -.881E-01 -.891E-01
   0.274E+02 -.889E+01 -.281E+04   -.276E+02 0.884E+01 0.281E+04   0.254E+00 -.457E-02 0.183E+01   -.165E-01 0.222E-01 -.431E-01
   0.666E+02 -.587E+02 -.147E+04   -.652E+02 0.589E+02 0.147E+04   -.139E+01 -.325E+00 0.151E+01   -.814E-02 0.738E-01 -.855E-01
   0.211E+02 -.399E+02 -.144E+04   -.222E+02 0.396E+02 0.144E+04   0.112E+01 0.372E+00 0.241E+01   -.693E-02 -.196E-01 -.995E-01
   0.584E+02 0.328E+02 0.285E+04   -.582E+02 -.329E+02 -.285E+04   -.374E+00 0.123E+00 -.258E+01   -.891E-02 -.390E-01 0.249E-01
   0.145E+02 -.105E+02 0.161E+04   -.155E+02 0.111E+02 -.161E+04   0.108E+01 -.599E+00 0.995E+00   -.169E-01 0.125E-01 0.711E-02
   -.565E+02 0.125E+02 -.141E+04   0.573E+02 -.118E+02 0.141E+04   -.769E+00 -.640E+00 0.237E+01   0.678E-01 -.473E-01 -.121E+00
   -.737E+02 0.861E+02 0.295E+04   0.742E+02 -.846E+02 -.295E+04   -.382E+00 -.160E+01 -.261E+01   0.201E-01 0.119E-01 0.242E-01
   0.230E+02 -.484E+02 0.154E+04   -.228E+02 0.478E+02 -.154E+04   -.356E+00 0.551E+00 -.794E+00   0.445E-01 -.553E-01 0.279E-01
   0.181E+02 -.425E+00 -.280E+04   -.183E+02 0.414E+00 0.280E+04   0.229E+00 -.200E-01 0.146E+01   -.470E-02 0.419E-01 -.640E-01
   -.705E+01 0.316E+01 0.970E+01   0.714E+01 -.294E+01 -.107E+02   -.138E+00 -.381E+00 0.985E+00   -.590E-02 0.104E+00 -.183E-02
   -.160E+02 0.167E+02 -.282E+04   0.154E+02 -.163E+02 0.282E+04   0.633E+00 -.302E+00 0.206E+01   0.275E-01 -.244E-01 -.936E-01
   -.310E+00 0.399E+02 0.844E+02   -.798E+00 -.412E+02 -.844E+02   0.120E+01 0.144E+01 -.425E-01   0.226E-01 -.734E-01 -.118E-01
   -.643E+02 0.574E+01 -.143E+04   0.649E+02 -.713E+01 0.143E+04   -.544E+00 0.142E+01 0.263E+01   0.125E-01 0.379E-01 -.269E-01
   0.332E+02 0.272E+02 -.146E+04   -.332E+02 -.264E+02 0.146E+04   -.969E-01 -.767E+00 0.215E+01   0.332E-01 0.499E-01 -.133E+00
   -.312E+01 -.676E+02 -.479E+02   0.208E+01 0.671E+02 0.483E+02   0.108E+01 0.477E+00 -.272E+00   0.101E-01 -.110E-01 -.718E-01
   -.239E+02 -.166E+02 0.400E+01   0.246E+02 0.173E+02 -.456E+01   -.646E+00 -.847E+00 0.618E+00   -.487E-01 0.523E-01 0.113E-01
   0.174E+02 0.109E+02 -.116E+04   -.174E+02 -.111E+02 0.116E+04   -.112E-02 0.325E+00 0.225E+00   -.121E-01 -.718E-02 -.609E-01
   -.880E+02 -.944E+00 0.229E+04   0.881E+02 -.309E+00 -.229E+04   -.141E+00 0.126E+01 -.275E+01   0.133E-01 -.691E-02 0.154E-01
   0.250E+02 -.199E+02 0.234E+04   -.252E+02 0.180E+02 -.234E+04   0.369E+00 0.196E+01 -.294E+01   -.238E-01 -.185E-01 0.185E-01
   0.432E+02 0.234E+02 0.232E+04   -.428E+02 -.221E+02 -.232E+04   -.430E+00 -.140E+01 -.316E+01   -.167E-02 0.267E-01 0.160E-01
   0.310E+02 0.683E+02 0.120E+04   -.300E+02 -.675E+02 -.120E+04   -.965E+00 -.843E+00 -.963E-01   -.840E-02 -.401E-02 -.408E-02
   0.300E+02 -.767E+02 0.124E+04   -.300E+02 0.763E+02 -.124E+04   -.100E+00 0.351E+00 -.497E+00   -.588E-02 0.307E-02 0.525E-01
   -.568E+02 -.211E+02 -.118E+04   0.568E+02 0.212E+02 0.118E+04   -.998E-01 -.179E+00 0.413E+00   0.272E-01 0.895E-01 -.613E-01
   -.159E+03 0.112E+02 0.238E+04   0.157E+03 -.113E+02 -.237E+04   0.153E+01 0.536E-01 -.360E+01   0.158E-01 -.122E-01 0.792E-02
   -.463E+02 0.584E+02 0.123E+04   0.454E+02 -.579E+02 -.123E+04   0.896E+00 -.546E+00 -.515E+00   0.126E-01 0.577E-02 -.362E-01
   -.652E+02 0.356E+00 -.228E+02   0.649E+02 -.247E-01 0.228E+02   0.213E+00 -.412E+00 -.147E+00   0.309E-01 0.271E-01 0.665E-02
   0.161E+02 -.817E+02 -.119E+04   -.163E+02 0.816E+02 0.119E+04   0.171E+00 0.192E+00 0.716E+00   0.328E-02 -.640E-01 -.121E+00
   0.132E+02 0.266E+02 -.119E+04   -.133E+02 -.268E+02 0.119E+04   0.128E+00 0.111E+00 -.210E-01   -.192E-01 0.584E-01 -.740E-01
   -.404E+01 -.820E+02 0.233E+04   0.297E+01 0.803E+02 -.233E+04   0.107E+01 0.157E+01 -.329E+01   -.307E-02 0.179E-01 0.338E-01
   0.240E+02 -.280E+02 0.264E+04   -.238E+02 0.283E+02 -.264E+04   -.110E+00 -.150E+00 -.294E+01   -.172E-01 -.440E-02 0.319E-01
   0.179E+03 0.392E+02 0.265E+04   -.179E+03 -.384E+02 -.265E+04   -.438E+00 -.843E+00 -.300E+01   -.252E-01 0.381E-02 0.148E-01
   -.581E+02 -.523E+02 0.133E+04   0.575E+02 0.512E+02 -.133E+04   0.583E+00 0.115E+01 -.247E+00   -.173E-01 0.970E-02 -.777E-02
   -.766E+02 0.435E+02 0.170E+02   0.767E+02 -.434E+02 -.174E+02   -.466E-01 -.107E+00 0.436E+00   -.236E-01 -.508E-03 -.682E-02
   -.143E+03 0.878E+01 0.135E+04   0.142E+03 -.835E+01 -.135E+04   0.321E+00 -.520E+00 -.230E+00   0.303E-01 0.975E-02 -.145E-01
   -.132E+02 -.162E+02 0.133E+04   0.135E+02 0.158E+02 -.133E+04   -.191E+00 0.444E+00 -.250E+00   -.273E-01 0.538E-01 0.557E-03
   0.476E+02 0.206E+01 -.135E+04   -.476E+02 -.206E+01 0.135E+04   -.140E+00 0.133E+00 0.953E+00   0.437E-01 -.955E-01 -.166E+00
   0.708E+02 -.638E+02 0.266E+04   -.701E+02 0.640E+02 -.265E+04   -.709E+00 -.140E+00 -.328E+01   0.422E-02 -.138E-01 0.636E-01
   -.793E+01 0.956E+01 0.134E+04   0.804E+01 -.930E+01 -.134E+04   -.129E+00 -.320E+00 -.536E+00   -.511E-01 0.171E-01 0.350E-02
   0.402E+02 -.817E+02 -.755E+01   -.394E+02 0.814E+02 0.790E+01   -.878E+00 0.547E+00 -.434E+00   0.406E-01 -.114E+00 -.300E-01
   0.410E+02 0.179E+02 0.329E+04   -.413E+02 -.172E+02 -.329E+04   0.332E+00 -.657E+00 -.400E+01   0.286E-01 0.326E-01 0.171E-01
   0.783E+02 0.255E+01 0.165E+04   -.785E+02 -.303E+01 -.165E+04   0.137E+00 0.534E+00 -.154E+00   -.381E-01 -.537E-01 0.105E-01
   0.147E+03 -.473E+02 0.161E+04   -.146E+03 0.476E+02 -.161E+04   -.327E+00 -.284E+00 -.150E+00   0.423E-01 0.169E-01 0.259E-01
   0.237E+02 0.731E+02 0.101E+03   -.243E+02 -.728E+02 -.101E+03   0.635E+00 -.341E+00 0.815E-01   -.628E-01 -.140E-01 -.551E-01
   0.967E+01 0.568E+02 -.162E+04   -.902E+01 -.566E+02 0.162E+04   -.596E+00 -.279E+00 0.889E+00   -.748E-01 0.264E-01 -.839E-01
[...]
   0.597E+02 -.115E+02 -.779E+01   -.590E+02 0.113E+02 0.808E+01   -.672E+00 0.222E+00 -.247E+00   -.658E-02 0.197E-01 -.274E-01
   -.951E+02 0.824E-01 0.150E+04   0.946E+02 0.113E+00 -.150E+04   0.502E+00 -.155E+00 -.397E+00   0.267E-01 -.170E-02 -.125E-01
   -.426E+02 0.716E+01 0.156E+04   0.431E+02 -.745E+01 -.156E+04   -.416E+00 0.383E+00 -.555E+00   0.333E-01 -.228E-01 -.222E-01
   -.124E+03 0.130E+01 0.297E+04   0.124E+03 -.128E+01 -.296E+04   -.375E+00 -.154E+00 -.225E+01   0.969E-02 0.801E-02 0.214E-02
   0.672E+02 -.697E+02 0.295E+04   -.679E+02 0.701E+02 -.295E+04   0.761E+00 -.363E+00 -.143E+01   0.893E-02 0.324E-01 0.434E-01
   0.200E+02 -.295E+02 0.153E+04   -.196E+02 0.293E+02 -.153E+04   -.381E+00 0.162E+00 -.466E-01   -.105E-01 -.821E-02 0.838E-01
   0.717E+02 -.138E+00 0.150E+04   -.711E+02 0.291E-01 -.150E+04   -.648E+00 0.895E-01 -.439E+00   0.237E-01 0.587E-01 0.403E-01
   -.328E+02 -.501E+02 -.152E+04   0.328E+02 0.501E+02 0.152E+04   0.490E-01 -.150E+00 0.573E+00   -.303E-01 0.112E+00 -.553E-01
   -.503E+02 0.681E+01 0.294E+04   0.508E+02 -.630E+01 -.294E+04   -.456E+00 -.387E+00 -.200E+01   0.694E-02 0.131E-01 0.765E-02
   -.510E+02 0.102E+03 0.860E+02   0.515E+02 -.102E+03 -.857E+02   -.440E+00 -.380E+00 -.340E+00   0.386E-01 -.458E-01 -.719E-01
   0.374E+00 0.585E+02 -.157E+02   -.330E+00 -.577E+02 0.155E+02   0.894E-01 -.823E+00 0.645E-02   -.103E+00 0.744E-02 0.273E-01
   0.839E+02 -.894E+01 -.267E+02   -.836E+02 0.960E+01 0.268E+02   -.439E+00 -.671E+00 -.262E+00   0.999E-01 -.441E-01 0.104E-02
   -.563E+01 -.778E+02 0.276E+02   0.527E+01 0.775E+02 -.275E+02   0.406E+00 0.434E+00 -.611E-01   -.479E-01 -.389E-01 -.499E-01
   0.981E+00 0.264E+01 -.334E+03   -.104E+01 -.277E+01 0.335E+03   0.681E-01 0.949E-01 -.149E+01   -.334E-04 0.115E-01 -.547E-03
   -.210E+01 -.243E+00 0.508E+01   0.470E-12 0.617E-12 -.106E-10   0.210E+01 0.217E+00 -.262E+01   0.965E-02 0.531E-01 -.247E+01

 POSITION                                       TOTAL-FORCE (eV/Angst)
     13.43759      8.34636      6.88783        -0.006413      0.014116      0.010890
      5.30295      8.36639      6.82229         0.012367      0.001995     -0.012347
      5.14680      3.60002      6.95315        -0.001559     -0.001659      0.008218
     14.87385      9.14314      9.12554        -0.007873     -0.000570      0.017009
      3.86333      4.42013      9.23120        -0.004880     -0.018810     -0.005794
      6.64514      9.11624      9.10819        -0.010386     -0.011942      0.016009
     12.14708      4.39255      9.29272        -0.013920     -0.027742     -0.007762
      9.35375      9.11295      9.13082         0.013925     -0.007994      0.008618
     10.73963      1.97239      9.15252        -0.003018      0.002235      0.003950
      2.57084      2.01010      9.14843         0.001207      0.011088     -0.003875
     12.11416      9.10592      9.17228         0.006675      0.000462     -0.003267
     13.48488      6.76214      9.22273         0.007214      0.013824      0.009584
      5.25701      1.96798      9.19308        -0.002281      0.014901     -0.003296
      8.03378      6.76818      9.16473        -0.004695      0.011181     -0.007729
      9.35618      4.40231      9.22458         0.014079     -0.011162     -0.002836
      5.25356      6.74600      9.19825         0.005476      0.008989      0.011384
      7.98794      1.97488      9.13719         0.005853     -0.002417      0.002941
      8.07722      3.58186      6.93787         0.002103      0.000943      0.006948
      6.54143      1.18872      6.87119        -0.004314     -0.004350     -0.002466
      6.72628      1.16745      1.08242        -0.011495      0.003708     -0.000293
      3.78814      4.32228      2.81446        -0.006017      0.000723     -0.045052
      1.24565      1.28819      6.85952        -0.000219     -0.013346      0.009237
      1.10289      1.28088      0.83038         0.008625     -0.013537      0.014701
      6.68973      9.08802      2.94861        -0.005332     -0.006285     -0.021784
      6.62012      4.37134      9.21049        -0.006402      0.020224     -0.003705
      8.01503      5.21342      4.82519         0.032602      0.000578     -0.003023
     10.72010      6.78146      9.18289        -0.006264      0.006581      0.001380
     14.76728      7.43331      4.80456         0.012796     -0.002853     -0.047300
     12.15648      5.90696      6.98377         0.001784      0.000505     -0.005509
      6.62818      5.98715      6.93144        -0.000003      0.004377      0.010433
      3.69641      2.63079      4.96058        -0.035484     -0.022115     -0.011506
     10.74899      5.24251      4.86996        -0.020762     -0.022534      0.048529
      3.91639      6.00198      7.04926         0.003720      0.000280      0.005814
     13.40431      8.18144      1.12629         0.014623     -0.012186      0.012628
      5.30364      8.18579      0.97842        -0.012937     -0.003093      0.035786
      4.01252      6.08228      1.00891        -0.009951     -0.006865      0.050206
      8.14068      2.17808      2.94353        -0.010409      0.000660      0.001666
      9.41716      9.04979      2.92015        -0.008915      0.005662     -0.013340
      2.49212      3.63927      7.07544        -0.007873      0.011038      0.011931
      2.27016      3.62463      0.90646        -0.006146      0.005948      0.040868
     10.72847      2.05865      2.89929        -0.000649      0.015387     -0.016474
     13.44858      5.13914      4.92157        -0.008320     -0.018927      0.006082
      3.90540      1.09432      7.01723         0.012234      0.008193      0.002086
      9.37863      5.95196      7.04349         0.001224     -0.000832      0.002100
      3.84203      1.09369      0.99843        -0.004870      0.008632      0.055901
      9.46597      5.91657      1.05336        -0.000491      0.007675      0.016741
      5.43495      3.60933      1.03054        -0.027812      0.010115      0.021068
     12.01888      8.97257      3.00065        -0.008176     -0.008504      0.012592
     12.09414      7.50068      4.86230         0.009440      0.012634     -0.034925
     13.25111      6.61567      2.90710         0.007039     -0.016135     -0.024355
      9.39189      4.34418      2.86168         0.008951      0.014409     -0.019766
      8.05426      8.29936      6.97116        -0.009028     -0.005419     -0.001166
      8.14131      8.28722      0.98031         0.003334      0.012166      0.010539
     10.75943      6.81665      2.87577        -0.013535     -0.002324     -0.000785
      2.65866      0.23001      5.00725         0.017081      0.010770     -0.018311
      8.02288      3.59150      0.88412         0.002057      0.015662     -0.005834
      5.26159      1.95152      3.02289        -0.008767      0.002305     -0.017809
      5.47598      6.67403      3.01859         0.001753     -0.003362     -0.009028
      8.00253      0.50416      4.85587         0.013897      0.009349     -0.003006
      9.41115      1.23085      6.91746        -0.000645     -0.001105      0.000727
[...]
      9.47732      2.78762      4.96322         0.003691      0.018952      0.026060
      6.62486      2.80825      4.89292         0.030496     -0.007136     -0.027174
     12.06521      4.33484      2.86673        -0.002216      0.000942     -0.031776
      2.47669      1.92891      2.90301         0.025605      0.011817     -0.022668
     12.05319      5.92970      0.96885        -0.005569     -0.030410      0.006266
      6.68440      5.89557      1.05654        -0.005885      0.002463     -0.003958
      8.15015      6.79554      2.87759         0.004986      0.000393     -0.007634
      6.69092      4.28584      2.88429        -0.005305     -0.011860      0.001838
     10.78945      3.64180      7.05306         0.002830     -0.004919     -0.019135
     10.69673      3.54310      0.96432         0.000167      0.015676      0.017499
     10.77558      0.56009      4.86940         0.000920      0.023241     -0.002236
      9.41147      7.55569      4.96424         0.003820     -0.024861     -0.008129
      6.80717      7.56930      4.94866         0.012689     -0.009111     -0.032076
      5.19417      0.24850      4.93127         0.030780      0.005258     -0.003039
     10.73754      3.55169     10.12085         0.005102     -0.030643      0.002737
    total drift:                                0.013246      0.026309     -0.007894

  FREE ENERGIE OF THE ION-ELECTRON SYSTEM (eV)
  free  energy   TOTEN  =      -506.50132275 eV

  energy  without entropy=     -506.51395551  energy(sigma->0) =     -506.50553367

 d Force = 0.8379566E-03[-0.610E-05, 0.168E-02]  d Energy = 0.7893361E-03 0.486E-04
 d Force = 0.5927226E+01[ 0.591E+01, 0.595E+01]  d Ewald  = 0.5927227E+01-0.103E-05

 Conjugate gradient step on ions:
 trial-energy change:   -0.000789  1 .order   -0.000838   -0.001682    0.000006
  (g-gl).g = 0.120E-02      g.g   = 0.104E-02  gl.gl    = 0.166E-02
 g(Force)  = 0.104E-02   g(Stress)= 0.000E+00 ortho     =-0.184E-03
 gamma     =   0.72276
 trial     =   1.85465
 opt step  =   1.84656  (harmonic =   1.84795) maximal distance =0.00446752
 next E    =  -506.501323   (d E  =  -0.00079)

 reached required accuracy - stopping structural energy minimisation