 vasp.5.4.4.18Apr17-6-g9f103f2a35 (build Oct 25 2019 11:13:22) complex

 executed on             LinuxIFC date 2021.10.12  12:21:08

 INCAR:
 POTCAR:    PAW_PBE Pt 04Feb2005
 POTCAR:    PAW_PBE Fe 06Sep2000
 POTCAR:    PAW_PBE Co 02Aug2007
 POTCAR:    PAW_PBE Cu 22Jun2005
 POTCAR:    PAW_PBE Ni 02Aug2007
 POTCAR:    PAW_PBE H 15Jun2001
 POTCAR:    PAW_PBE Pt 04Feb2005
   VRHFIN =Pt: s1d9

   TITEL  = PAW_PBE Pt 04Feb2005
   POMASS =  195.080; ZVAL   =   10.000    mass and valenz
   ENMAX  =  230.283; ENMIN  =  172.712 eV

 POTCAR:    PAW_PBE Fe 06Sep2000
   VRHFIN =Fe:  d7 s1

   TITEL  = PAW_PBE Fe 06Sep2000
   POMASS =   55.847; ZVAL   =    8.000    mass and valenz
   ENMAX  =  267.882; ENMIN  =  200.911 eV

 POTCAR:    PAW_PBE Co 02Aug2007
   VRHFIN =Co: d8 s1

   TITEL  = PAW_PBE Co 02Aug2007
   POMASS =   58.933; ZVAL   =    9.000    mass and valenz
   ENMAX  =  267.968; ENMIN  =  200.976 eV

 POTCAR:    PAW_PBE Cu 22Jun2005
   VRHFIN =Cu: d10 p1

   TITEL  = PAW_PBE Cu 22Jun2005
   POMASS =   63.546; ZVAL   =   11.000    mass and valenz
   ENMAX  =  295.446; ENMIN  =  221.585 eV

 POTCAR:    PAW_PBE Ni 02Aug2007
   VRHFIN =Ni:

   TITEL  = PAW_PBE Ni 02Aug2007
   POMASS =   58.690; ZVAL   =   10.000    mass and valenz
   ENMAX  =  269.532; ENMIN  =  202.149 eV

 POTCAR:    PAW_PBE H 15Jun2001
   VRHFIN =H: ultrasoft test

   TITEL  = PAW_PBE H 15Jun2001
   POMASS =    1.000; ZVAL   =    1.000    mass and valenz
   ENMAX  =  250.000; ENMIN  =  200.000 eV

 Optimization of the real space projectors (new method)

 maximal supplied QI-value         = 14.36
 optimisation between [QCUT,QGAM] = [ 11.92, 23.98] = [ 39.79,161.09] Ry
 Optimized for a Real-space Cutoff    1.49 Angstroem

   l    n(q)    QCUT    max X(q) W(low)/X(q) W(high)/X(q)  e(spline)
   2     10    11.920    66.195    0.79E-04    0.18E-03    0.24E-06
   2     10    11.920    64.643    0.81E-04    0.19E-03    0.24E-06
   0     11    11.920    95.520    0.28E-04    0.54E-04    0.18E-06
   0     11    11.920    63.403    0.27E-04    0.52E-04    0.17E-06
   1     10    11.920    19.961    0.18E-04    0.11E-03    0.23E-06
   1     10    11.920    13.289    0.25E-04    0.87E-04    0.19E-06
 Optimization of the real space projectors (new method)

[...]

   l    n(q)    QCUT    max X(q) W(low)/X(q) W(high)/X(q)  e(spline)
   2      9    11.864    60.317    0.21E-03    0.51E-03    0.25E-06
   2      9    11.864    55.921    0.21E-03    0.51E-03    0.26E-06
   0      9    11.864    51.690    0.22E-03    0.30E-04    0.17E-06
   0      9    11.864    30.015    0.20E-03    0.28E-04    0.15E-06
   1      9    11.864    18.849    0.76E-04    0.33E-03    0.17E-06
   1      9    11.864    14.624    0.60E-04    0.28E-03    0.15E-06
 Optimization of the real space projectors (new method)

 maximal supplied QI-value         = 34.20
 optimisation between [QCUT,QGAM] = [ 11.97, 23.94] = [ 40.13,160.53] Ry
 Optimized for a Real-space Cutoff    1.18 Angstroem

   l    n(q)    QCUT    max X(q) W(low)/X(q) W(high)/X(q)  e(spline)
   0      8    11.971    19.460    0.15E-03    0.31E-03    0.25E-06
   0      8    11.971    12.209    0.13E-03    0.29E-03    0.25E-06
   1      8    11.971     4.655    0.22E-03    0.24E-03    0.21E-06
  PAW_PBE Pt 04Feb2005                  :
  PAW_PBE Fe 06Sep2000                  :
  PAW_PBE Co 02Aug2007                  :
  PAW_PBE Cu 22Jun2005                  :
  PAW_PBE Ni 02Aug2007                  :
  PAW_PBE H 15Jun2001                   :

 POSCAR: 10.76
  positions in cartesian coordinates
 exchange correlation table for  LEXCH =        8
   RHO(1)=    0.500       N(1)  =     2000
   RHO(2)=  100.500       N(2)  =     4000

 ion  position               nearest neighbor table
   1  0.786  0.880  0.316-  49 2.61  28 2.63  59 2.64  19 2.68  61 2.70  33 2.71  29 2.71  60 2.73
                            11 2.75   2 2.78   4 2.79  12 2.84
   2  0.042  0.882  0.314-  79 2.54  77 2.59  28 2.66  60 2.67  30 2.69  52 2.70  33 2.71  22 2.74
                             6 2.75   1 2.78   4 2.82  16 2.89
   3  0.279  0.381  0.318-  64 2.56  39 2.61  31 2.64  33 2.64  68 2.70  19 2.75  30 2.76  43 2.76
                             5 2.76  13 2.78  25 2.83  18 2.87
   4  0.874  0.963  0.420-  81 1.87   9 2.67  17 2.68   6 2.69  16 2.70  11 2.70  12 2.71  60 2.77
                             1 2.79   2 2.82
   5  0.120  0.463  0.424-  12 2.66   7 2.67  16 2.68  10 2.68  39 2.70  33 2.71  25 2.72  13 2.73
                             3 2.76
   6  0.125  0.961  0.419-  81 1.87   8 2.67  14 2.69   4 2.69  10 2.69   9 2.70  16 2.70  52 2.74
                             2 2.75  22 2.84
   7  0.874  0.460  0.423-  15 2.66  39 2.67   5 2.67   9 2.68  10 2.69  12 2.71  27 2.71  75 2.72
                            29 2.77
   8  0.374  0.960  0.418-  43 2.59  14 2.66  52 2.67   6 2.67  27 2.68  13 2.68  10 2.69  11 2.70
                            61 2.71
   9  0.873  0.211  0.418-   4 2.67  75 2.67   7 2.68  17 2.68  15 2.68   6 2.70  60 2.70  10 2.71
                            22 2.80
  10  0.125  0.212  0.419-  13 2.66  39 2.66   5 2.68   7 2.69   8 2.69   6 2.69  43 2.71   9 2.71
                            22 2.76
  11  0.624  0.961  0.421-  12 2.68  13 2.68  27 2.69  17 2.69   8 2.70   4 2.70   1 2.75  61 2.80
                            19 2.81
  12  0.873  0.711  0.423-   5 2.66  11 2.68  16 2.69  33 2.69  27 2.70   4 2.71   7 2.71  29 2.79
                             1 2.84
  13  0.374  0.209  0.421-  10 2.66   8 2.68  11 2.68  17 2.70  25 2.71   5 2.73  43 2.74   3 2.78
                            19 2.80
  14  0.375  0.713  0.421-  27 2.65   8 2.66  44 2.68   6 2.69  15 2.70  25 2.71  16 2.72  52 2.72
                            30 2.76
  15  0.625  0.462  0.420-   7 2.66  44 2.67  27 2.67   9 2.68  75 2.70  14 2.70  17 2.71  25 2.71
                            18 2.74
  16  0.123  0.711  0.423-  81 1.90  33 2.66   5 2.68  12 2.69  25 2.69   4 2.70   6 2.70  14 2.72
                            30 2.81   2 2.89
  17  0.624  0.210  0.419-   4 2.68   9 2.68  11 2.69  25 2.70  13 2.70  15 2.71  18 2.74  60 2.76
                            19 2.84
  18  0.548  0.376  0.316-  67 2.56  68 2.64  60 2.64  75 2.66  26 2.66  44 2.68  17 2.74  15 2.74
                            30 2.76  19 2.78  25 2.85   3 2.87
  19  0.534  0.125  0.314-  80 2.54  68 2.57  43 2.60  59 2.60   1 2.68  61 2.69   3 2.75  18 2.78
                            13 2.80  11 2.81  60 2.81  17 2.84
  20  0.548  0.123  0.044-  57 2.55  37 2.55  48 2.57  62 2.68  63 2.73  47 2.75  34 2.75  45 2.76
                            56 2.76
  21  0.119  0.460  0.129-  40 2.52  36 2.52  47 2.52  42 2.60  64 2.63  69 2.65  70 2.68  50 2.68
                            31 2.71  58 2.75  57 2.76  74 2.79
  22  0.044  0.136  0.313-  65 2.52  55 2.54  77 2.57  43 2.62  39 2.63  75 2.67  60 2.74   2 2.74
                            10 2.76  52 2.77   9 2.80   6 2.84  31 3.40
  23  0.041  0.131  0.035-  70 2.57  41 2.60  40 2.62  45 2.66  76 2.67  62 2.67  24 2.69  35 2.79
                            53 2.85
  24  0.131  0.958  0.133-  79 2.51  77 2.55  35 2.56  53 2.58  55 2.59  70 2.66  38 2.68  58 2.69
                            23 2.69  73 2.69  66 2.75  41 2.78
  25  0.374  0.462  0.423-  16 2.69  17 2.70  14 2.71  15 2.71  13 2.71   5 2.72  30 2.81   3 2.83
                            18 2.85
  26  0.455  0.547  0.219-  73 2.50  74 2.54  51 2.56  79 2.64  30 2.65  18 2.66  64 2.69  78 2.70
                            32 2.71  68 2.72  44 2.73  67 2.78
  27  0.622  0.712  0.421-  14 2.65  15 2.67   8 2.68  44 2.68  11 2.69  12 2.70   7 2.71  61 2.75
                            29 2.78
  28  0.956  0.787  0.221-  58 2.56  66 2.58  50 2.58  42 2.62   1 2.63  49 2.64   2 2.66  64 2.68
                            33 2.69  59 2.77  79 2.86  77 2.87
  29  0.795  0.623  0.318-  42 2.55  39 2.58  32 2.62  75 2.62  49 2.67  33 2.69   1 2.71  44 2.71
                            61 2.73   7 2.77  27 2.78  12 2.79
  30  0.290  0.631  0.317-  79 2.56  64 2.60  26 2.65  52 2.66  44 2.68   2 2.69  33 2.69  14 2.76
                             3 2.76  18 2.76  16 2.81  25 2.81
  31  0.201  0.279  0.225-  70 2.51  43 2.58  55 2.59  57 2.59  65 2.60   3 2.64  39 2.66  21 2.71
                            80 2.75  42 2.76  68 2.84  64 2.87  22 3.40
  32  0.705  0.551  0.221-  54 2.54  69 2.56  51 2.58  49 2.61  29 2.62  78 2.65  42 2.65  65 2.67
                            44 2.69  75 2.69  26 2.71  67 2.74
  33  0.040  0.632  0.324-   3 2.64  16 2.66  12 2.69  29 2.69  30 2.69  28 2.69  64 2.70  39 2.70
                             5 2.71   1 2.71   2 2.71  42 2.73
  34  0.795  0.861  0.046-  50 2.37  48 2.50  66 2.51  36 2.59  71 2.61  63 2.64  20 2.75  62 2.83
                            35 2.84
  35  0.058  0.864  0.041-  58 2.53  24 2.56  36 2.57  72 2.57  66 2.62  53 2.71  23 2.79  62 2.80
                            34 2.84
  36  0.046  0.632  0.040-  21 2.52  35 2.57  58 2.57  34 2.59  50 2.60  72 2.69  47 2.69  71 2.80
                            40 2.81
  37  0.628  0.225  0.130-  67 2.51  51 2.51  56 2.52  74 2.55  20 2.55  68 2.56  59 2.56  41 2.58
                            62 2.59  66 2.72  57 2.81  48 3.01
  38  0.383  0.954  0.131-  53 2.46  80 2.47  45 2.47  78 2.53  63 2.55  73 2.57  55 2.57  48 2.58
                            54 2.59  24 2.68  57 2.68  70 2.73
  39  0.035  0.384  0.323-  29 2.58   3 2.61  22 2.63  75 2.63  42 2.64  31 2.66  10 2.66   7 2.67
                            33 2.70   5 2.70  65 2.73  43 2.85
  40  0.026  0.381  0.040-  69 2.42  21 2.52  76 2.55  71 2.56  70 2.56  23 2.62  36 2.81  45 2.87
                            47 2.92
  41  0.872  0.215  0.130-  76 2.45  77 2.51  65 2.52  67 2.53  62 2.57  37 2.58  23 2.60  69 2.61
                            51 2.63  66 2.70  70 2.70  24 2.78
  42  0.955  0.544  0.224-  50 2.54  29 2.55  21 2.60  69 2.60  28 2.62  39 2.64  32 2.65  65 2.67
                            49 2.67  64 2.71  33 2.73  31 2.76
  43  0.297  0.116  0.320-  55 2.52  31 2.58  52 2.59   8 2.59  19 2.60  61 2.61  22 2.62  80 2.64
                            10 2.71  13 2.74   3 2.76  39 2.85
  44  0.541  0.629  0.321-  61 2.62  78 2.62  52 2.64  15 2.67  27 2.68  14 2.68  30 2.68  18 2.68
                            32 2.69  75 2.69  29 2.71  26 2.73
  45  0.295  0.116  0.043-  70 2.47  38 2.47  57 2.57  53 2.60  23 2.66  63 2.67  20 2.76  40 2.87
                            47 2.87
  46  0.550  0.625  0.046-  51 2.38  73 2.40  54 2.40  71 2.58  53 2.61  63 2.63  76 2.64  56 2.66
                            72 2.70
  47  0.297  0.382  0.042-  74 2.38  21 2.52  57 2.61  72 2.64  56 2.64  36 2.69  20 2.75  45 2.87
                            40 2.92
  48  0.625  0.947  0.134-  49 2.39  80 2.48  54 2.49  34 2.50  63 2.55  59 2.56  20 2.57  38 2.58
                            50 2.61  57 2.72  66 2.76  37 3.01
  49  0.707  0.793  0.220-  48 2.39  50 2.47  54 2.49  80 2.59   1 2.61  32 2.61  61 2.64  28 2.64
                            78 2.66  29 2.67  42 2.67  59 2.77
  50  0.864  0.703  0.130-  34 2.37  71 2.41  49 2.47  54 2.50  42 2.54  28 2.58  69 2.59  36 2.60
                            48 2.61  21 2.68  66 2.86
[...]
   0.378E+02 -.971E+01 -.150E+04   -.394E+02 0.994E+01 0.149E+04   0.169E+01 -.224E+00 0.201E+01   0.279E-02 0.215E-04 0.121E-01
   0.754E+01 0.221E+02 -.286E+04   -.795E+01 -.215E+02 0.286E+04   0.368E+00 -.530E+00 0.357E+00   0.260E-01 0.160E-02 -.273E-01
   -.147E+02 0.107E+02 -.285E+04   0.141E+02 -.102E+02 0.285E+04   0.630E+00 -.514E+00 0.169E+01   -.236E-01 -.244E-01 0.602E-03
   -.889E+01 -.344E+01 -.284E+04   0.948E+01 0.356E+01 0.284E+04   -.538E+00 -.152E+00 0.712E+00   -.194E-01 -.598E-02 -.173E-01
   -.211E+02 -.594E+01 -.289E+04   0.212E+02 0.540E+01 0.289E+04   -.984E-01 0.532E+00 0.162E+01   0.322E-02 -.136E-01 -.232E-01
   0.886E+01 -.236E+02 -.287E+04   -.930E+01 0.237E+02 0.287E+04   0.450E+00 -.101E+00 0.206E+01   0.200E-01 -.161E-01 0.116E-01
   -.234E+02 0.194E+02 -.287E+04   0.232E+02 -.188E+02 0.287E+04   0.172E+00 -.725E+00 0.147E+01   0.319E-02 0.298E-01 -.467E-02
   -.114E+02 -.254E+01 -.284E+04   0.120E+02 0.278E+01 0.284E+04   -.505E+00 -.251E+00 0.184E+01   -.106E-01 0.376E-01 0.179E-02
   -.528E+01 -.878E+01 -.288E+04   0.568E+01 0.851E+01 0.288E+04   -.416E+00 0.230E+00 0.100E+01   -.236E-01 -.373E-02 0.315E-02
   -.195E+02 -.225E+01 -.285E+04   0.194E+02 0.180E+01 0.285E+04   0.195E+00 0.472E+00 0.150E+01   -.248E-01 -.166E-01 0.454E-02
   0.274E+01 -.237E+02 -.286E+04   -.303E+01 0.233E+02 0.286E+04   0.298E+00 0.408E+00 0.120E+01   0.328E-02 0.112E-01 0.529E-02
   0.302E+02 0.978E+01 -.286E+04   -.293E+02 -.978E+01 0.286E+04   -.950E+00 0.234E-01 0.181E+01   0.170E-01 -.162E-01 0.439E-03
   0.267E+02 -.927E+01 -.287E+04   -.262E+02 0.951E+01 0.287E+04   -.410E+00 -.197E+00 0.152E+01   -.505E-02 -.103E-01 -.129E-01
   0.161E+01 0.889E+01 -.285E+04   -.189E+01 -.103E+02 0.285E+04   0.263E+00 0.138E+01 0.102E+01   0.860E-02 0.186E-01 -.222E-01
   0.310E+02 -.116E+02 -.287E+04   -.310E+02 0.117E+02 0.287E+04   -.410E-01 -.187E+00 0.132E+01   0.320E-02 0.281E-01 -.594E-02
   0.688E+02 -.650E+02 -.149E+04   -.676E+02 0.652E+02 0.149E+04   -.120E+01 -.206E+00 0.172E+01   0.118E-01 0.355E-02 0.261E-01
   0.254E+02 -.421E+02 -.148E+04   -.266E+02 0.417E+02 0.148E+04   0.114E+01 0.419E+00 0.244E+01   0.589E-02 0.805E-02 0.368E-02
   0.339E+02 0.244E+02 0.295E+04   -.339E+02 -.247E+02 -.295E+04   0.602E-01 0.244E+00 -.265E+01   -.916E-02 -.117E-01 0.981E-02
   0.256E+02 -.619E+01 0.158E+04   -.266E+02 0.689E+01 -.158E+04   0.978E+00 -.679E+00 0.930E+00   0.178E-01 0.565E-02 -.475E-02
   -.634E+02 0.138E+02 -.145E+04   0.643E+02 -.134E+02 0.145E+04   -.871E+00 -.468E+00 0.247E+01   -.168E-01 0.138E-01 -.931E-02
   -.527E+02 0.594E+02 0.302E+04   0.533E+02 -.582E+02 -.301E+04   -.711E+00 -.110E+01 -.237E+01   0.109E-01 -.286E-01 -.195E-02
   0.929E+01 -.545E+02 0.156E+04   -.904E+01 0.539E+02 -.156E+04   -.306E+00 0.483E+00 -.777E+00   0.527E-02 -.138E-01 -.350E-03
   0.958E+01 0.761E+01 -.285E+04   -.979E+01 -.746E+01 0.285E+04   0.207E+00 -.152E+00 0.103E+01   0.155E-01 -.119E-01 0.159E-02
   -.140E+02 -.166E+01 0.933E+01   0.141E+02 0.194E+01 -.106E+02   -.141E+00 -.355E+00 0.117E+01   -.116E-01 0.125E-01 0.275E-01
   -.129E+02 0.107E+02 -.288E+04   0.123E+02 -.108E+02 0.288E+04   0.578E+00 0.678E-01 0.152E+01   -.637E-02 -.525E-02 -.108E-01
   0.106E+02 0.517E+02 0.244E+02   -.117E+02 -.530E+02 -.247E+02   0.121E+01 0.128E+01 0.237E+00   0.802E-02 0.208E-01 0.805E-02
   -.649E+02 0.634E+01 -.146E+04   0.653E+02 -.750E+01 0.145E+04   -.454E+00 0.124E+01 0.286E+01   -.728E-02 -.486E-02 0.233E-01
   0.316E+02 0.251E+02 -.151E+04   -.316E+02 -.243E+02 0.151E+04   -.120E+00 -.838E+00 0.215E+01   0.183E-01 0.424E-02 -.117E-01
   0.955E+01 -.644E+02 -.641E+02   -.105E+02 0.639E+02 0.644E+02   0.106E+01 0.541E+00 -.315E+00   0.121E-02 -.744E-02 0.102E-01
   -.218E+02 -.181E+02 0.599E+01   0.225E+02 0.188E+02 -.661E+01   -.763E+00 -.782E+00 0.580E+00   -.862E-02 0.401E-02 0.448E-01
   0.157E+02 0.989E+01 -.121E+04   -.157E+02 -.102E+02 0.121E+04   0.827E-01 0.383E+00 0.391E+00   -.569E-03 0.627E-03 -.123E-02
   -.671E+02 -.758E+01 0.237E+04   0.673E+02 0.629E+01 -.237E+04   -.288E+00 0.132E+01 -.287E+01   -.231E-02 0.184E-02 0.149E-01
   0.360E+02 -.201E+02 0.241E+04   -.359E+02 0.185E+02 -.240E+04   -.632E-01 0.167E+01 -.254E+01   0.176E-01 -.256E-02 0.358E-02
   0.266E+02 0.373E+01 0.241E+04   -.266E+02 -.297E+01 -.240E+04   -.397E-01 -.809E+00 -.313E+01   0.836E-02 0.335E-02 0.445E-03
   0.180E+02 0.608E+02 0.125E+04   -.170E+02 -.600E+02 -.125E+04   -.970E+00 -.827E+00 -.119E+00   -.102E-01 -.199E-01 0.830E-02
   0.305E+02 -.650E+02 0.125E+04   -.304E+02 0.647E+02 -.125E+04   -.120E+00 0.303E+00 -.442E+00   -.318E-02 -.719E-03 -.867E-02
   -.565E+02 -.210E+02 -.120E+04   0.567E+02 0.212E+02 0.120E+04   -.168E+00 -.218E+00 0.602E+00   -.147E-01 -.550E-04 0.221E-01
   -.119E+03 0.180E+02 0.242E+04   0.118E+03 -.179E+02 -.242E+04   0.774E+00 -.169E+00 -.299E+01   0.134E-01 -.441E-02 -.120E-01
   -.349E+02 0.511E+02 0.127E+04   0.341E+02 -.506E+02 -.127E+04   0.861E+00 -.520E+00 -.436E+00   0.339E-02 -.275E-01 0.107E-01
   -.529E+02 0.282E+01 -.369E+02   0.526E+02 -.240E+01 0.369E+02   0.212E+00 -.461E+00 -.114E+00   0.449E-02 0.956E-02 0.187E-01
   0.158E+02 -.803E+02 -.121E+04   -.159E+02 0.802E+02 0.121E+04   0.139E+00 0.210E+00 0.943E+00   -.179E-02 0.208E-02 0.975E-03
   0.126E+02 0.284E+02 -.120E+04   -.127E+02 -.284E+02 0.120E+04   0.135E+00 -.294E-01 0.169E+00   -.151E-02 -.725E-02 0.145E-01
   0.337E+01 -.624E+02 0.239E+04   -.418E+01 0.613E+02 -.239E+04   0.842E+00 0.108E+01 -.306E+01   -.526E-02 -.162E-01 -.343E-03
   0.111E+02 -.155E+02 0.269E+04   -.111E+02 0.157E+02 -.269E+04   0.500E-01 -.282E+00 -.253E+01   -.173E-01 0.300E-01 -.127E-01
   0.132E+03 0.386E+02 0.272E+04   -.132E+03 -.377E+02 -.272E+04   0.184E+00 -.917E+00 -.276E+01   -.306E-02 0.245E-02 -.408E-02
   -.479E+02 -.440E+02 0.138E+04   0.474E+02 0.428E+02 -.138E+04   0.503E+00 0.119E+01 -.388E+00   0.315E-02 0.207E-02 0.136E-01
   -.654E+02 0.531E+02 0.221E+02   0.654E+02 -.531E+02 -.228E+02   -.904E-01 -.144E+00 0.653E+00   0.996E-02 0.242E-01 0.206E-02
   -.106E+03 0.124E+02 0.138E+04   0.105E+03 -.120E+02 -.138E+04   0.471E+00 -.473E+00 -.172E+00   0.867E-02 0.295E-01 0.775E-02
   -.158E+02 0.631E+01 0.136E+04   0.159E+02 -.659E+01 -.136E+04   -.145E+00 0.350E+00 -.160E+00   -.153E-01 0.413E-02 0.114E-01
   0.498E+02 0.112E+01 -.137E+04   -.497E+02 -.128E+01 0.137E+04   -.185E+00 0.202E+00 0.125E+01   -.123E-01 -.850E-02 -.663E-02
   0.600E+02 -.792E+02 0.270E+04   -.596E+02 0.791E+02 -.270E+04   -.490E+00 0.213E+00 -.274E+01   -.910E-02 0.343E-02 -.170E-02
   -.133E+02 0.401E+01 0.135E+04   0.135E+02 -.378E+01 -.135E+04   -.150E+00 -.266E+00 -.478E+00   0.826E-02 0.357E-01 0.521E-02
   0.272E+02 -.733E+02 -.159E+02   -.264E+02 0.728E+02 0.163E+02   -.817E+00 0.579E+00 -.440E+00   -.168E-01 -.842E-02 0.290E-02
   0.358E+02 0.408E+02 0.336E+04   -.359E+02 -.399E+02 -.336E+04   0.109E+00 -.943E+00 -.397E+01   -.166E-01 -.104E-02 -.148E-01
   0.578E+02 0.539E+01 0.170E+04   -.580E+02 -.598E+01 -.170E+04   0.160E+00 0.653E+00 -.850E-01   0.410E-02 -.193E-01 0.374E-02
   0.113E+03 -.353E+02 0.167E+04   -.113E+03 0.353E+02 -.167E+04   -.188E+00 -.647E-01 -.126E+00   0.529E-02 0.169E-01 0.609E-02
   0.184E+02 0.668E+02 0.999E+02   -.190E+02 -.666E+02 -.100E+03   0.613E+00 -.221E+00 0.431E+00   -.365E-02 -.213E-01 0.231E-02
   0.111E+02 0.585E+02 -.166E+04   -.107E+02 -.584E+02 0.166E+04   -.494E+00 -.171E+00 0.122E+01   0.932E-02 0.105E-01 -.121E-02
[...]
   0.558E+02 -.231E+02 0.110E+02   -.551E+02 0.228E+02 -.111E+02   -.708E+00 0.307E+00 0.697E-01   -.974E-03 -.577E-02 0.178E-01
   -.787E+02 0.317E+01 0.151E+04   0.782E+02 -.303E+01 -.151E+04   0.471E+00 -.943E-01 -.233E+00   0.127E-01 0.718E-03 0.309E-02
   -.182E+02 0.173E+02 0.159E+04   0.186E+02 -.175E+02 -.159E+04   -.389E+00 0.263E+00 -.470E+00   0.577E-02 -.255E-01 0.426E-02
   -.109E+03 -.801E+01 0.302E+04   0.109E+03 0.804E+01 -.302E+04   -.487E+00 -.170E-01 -.171E+01   0.111E-01 0.167E-01 -.124E-01
   0.698E+02 -.468E+02 0.301E+04   -.702E+02 0.474E+02 -.301E+04   0.498E+00 -.585E+00 -.112E+01   -.245E-02 0.263E-01 -.143E-02
   0.202E+02 -.331E+02 0.152E+04   -.198E+02 0.328E+02 -.152E+04   -.387E+00 0.220E+00 -.485E-01   -.220E-01 0.295E-01 -.784E-02
   0.566E+02 0.630E+01 0.155E+04   -.560E+02 -.635E+01 -.155E+04   -.567E+00 0.971E-01 -.252E+00   -.133E-01 0.943E-02 0.548E-02
   -.354E+02 -.617E+02 -.151E+04   0.353E+02 0.618E+02 0.151E+04   0.122E+00 -.448E-01 0.580E+00   -.415E-03 0.165E-03 0.245E-01
   -.428E+02 0.319E+02 0.300E+04   0.433E+02 -.313E+02 -.300E+04   -.497E+00 -.605E+00 -.204E+01   0.145E-02 -.113E-01 -.218E-01
   -.454E+02 0.814E+02 0.788E+02   0.458E+02 -.811E+02 -.787E+02   -.425E+00 -.400E+00 -.879E-01   0.401E-02 -.199E-01 0.193E-01
   0.133E+00 0.571E+02 -.123E+02   -.246E+00 -.563E+02 0.122E+02   0.141E+00 -.819E+00 -.195E-01   -.925E-02 0.571E-02 0.165E-01
   0.613E+02 -.685E+00 -.301E+02   -.609E+02 0.125E+01 0.301E+02   -.414E+00 -.617E+00 -.740E-01   -.115E-01 0.101E-01 0.153E-01
   0.970E+01 -.611E+02 0.356E+02   -.101E+02 0.606E+02 -.357E+02   0.357E+00 0.481E+00 0.780E-01   0.167E-01 -.836E-02 -.912E-02
   -.135E+01 0.301E+00 -.339E+03   0.139E+01 -.380E+00 0.341E+03   -.667E-01 0.801E-01 -.159E+01   0.367E-03 0.327E-03 -.153E-02
   -.215E+01 -.101E+01 -.127E+01   0.631E-12 -.622E-12 0.540E-11   0.216E+01 0.102E+01 0.104E+01   -.340E-01 0.270E-01 0.236E+00

 POSITION                                       TOTAL-FORCE (eV/Angst)
     13.19425      8.19887      6.94739         0.018089     -0.011089      0.002901
      5.20192      8.22273      6.91836        -0.010632     -0.016675      0.022133
      5.05001      3.54694      6.99202         0.007892     -0.001703     -0.001809
     14.55530      8.98530      9.29050        -0.031037      0.014036     -0.001223
      3.78312      4.31885      9.32403        -0.004149     -0.009325     -0.006041
      6.53315      8.97978      9.24860         0.030795      0.002040     -0.015906
     11.87866      4.27920      9.31467         0.011147     -0.001709      0.004728
      9.18680      8.94821      9.18583         0.003067     -0.007236     -0.011472
     10.52975      1.99493      9.17861        -0.000680     -0.036748     -0.002780
      2.49310      1.97969      9.22554        -0.005456      0.006452      0.000179
     11.88384      8.94981      9.24926        -0.005734     -0.002543      0.007545
     13.20188      6.61497      9.30293         0.044361      0.007188     -0.004320
      5.15076      1.94798      9.27050         0.007604     -0.000348     -0.012723
      7.89419      6.62796      9.24439        -0.021657      0.018935     -0.006946
      9.21731      4.30402      9.23629         0.001987      0.000869     -0.018733
      5.16246      6.58719      9.35280        -0.006198     -0.015652     -0.004408
      7.84855      1.96473      9.21822         0.008920      0.005162      0.000886
      7.91607      3.50235      6.95036         0.004660      0.000827      0.009968
      6.41529      1.16562      6.90254         0.005380     -0.004371     -0.009423
      6.55899      1.14886      0.96438        -0.001888     -0.006963      0.000970
      3.75747      4.28391      2.83239        -0.011334     -0.018948     -0.018379
      1.20514      1.26296      6.89472         0.007190     -0.004838     -0.007100
      1.14464      1.22211      0.77800        -0.003167      0.019446     -0.007222
      6.56687      8.92705      2.92680        -0.007609     -0.007318     -0.001924
      6.50683      4.29712      9.29352         0.016127     -0.002467     -0.005266
      7.84317      5.09593      4.82253        -0.011424     -0.007239     -0.040529
     10.52273      6.63529      9.26362         0.006385      0.005808     -0.003900
     14.51918      7.33687      4.85107         0.043166      0.014843      0.022096
     11.90646      5.80636      7.00003         0.008527      0.004188      0.008931
      6.51606      5.88621      6.98086        -0.006560     -0.014618     -0.008546
      3.66556      2.59850      4.95871        -0.008858     -0.005669     -0.011460
     10.55203      5.13182      4.86368         0.016232     -0.017125     -0.004850
      3.83191      5.88760      7.11521         0.014736      0.011221      0.024987
     13.19219      8.02433      1.00573        -0.007863     -0.004477      0.010646
      5.26821      8.05279      0.90098        -0.004600      0.008005      0.011247
      3.88993      5.88755      0.88776         0.001996     -0.006488      0.016293
      7.96781      2.09986      2.87061        -0.024248      0.001391     -0.003643
      9.24633      8.88529      2.89138        -0.003585      0.035940     -0.003054
      2.44462      3.57783      7.10071        -0.007731     -0.006360     -0.004640
      2.33068      3.55115      0.88683         0.025592      0.000499     -0.000918
     10.54411      2.00466      2.85564        -0.006483      0.014083     -0.003774
     13.20125      5.07200      4.92596        -0.021034     -0.006970      0.016881
      3.81876      1.08102      7.04022         0.001161     -0.001405     -0.011759
      9.20011      5.85798      7.06280         0.004318     -0.010379     -0.014036
      3.79990      1.08422      0.93869        -0.007814     -0.000569      0.017037
      9.28005      5.82724      1.01487        -0.019954     -0.010259     -0.002960
      5.25238      3.56304      0.92964        -0.012189      0.003336      0.016808
     11.82187      8.82904      2.94048        -0.020407      0.014425      0.013121
     11.87544      7.38555      4.84901        -0.004054     -0.007401     -0.051624
     13.08248      6.55049      2.85969         0.013733     -0.005931      0.009588
      9.21707      4.27951      2.82588        -0.004685      0.024631     -0.000302
      7.90778      8.14490      6.98693         0.002261     -0.013722      0.008111
      7.97778      8.09308      0.93938        -0.010213      0.024884     -0.009810
     10.58681      6.67050      2.84722        -0.009587      0.013717      0.018112
      2.57872      0.24765      5.01085         0.019568      0.002207      0.005995
      7.89204      3.56304      0.82040        -0.003734     -0.004223      0.013133
      5.16267      1.91547      2.95300        -0.007867     -0.004361      0.015254
      5.28297      6.56629      2.94356         0.008682     -0.006436     -0.005420
      7.85418      0.47531      4.84859         0.011154      0.004807      0.009624
      9.22727      1.20440      6.94865         0.001529     -0.009152      0.009678
[...]
      9.26929      2.70975      4.92992         0.010341     -0.002544     -0.009166
      6.49665      2.73164      4.86532        -0.010843      0.001494      0.001197
     11.86943      4.25741      2.84734         0.009951     -0.014358     -0.035799
      2.48289      1.92464      2.85312        -0.027157      0.005700      0.003128
     11.85493      5.78777      0.92942        -0.004405      0.021897      0.011413
      6.57689      5.84104      0.99111         0.013611      0.002279     -0.010400
      7.99191      6.64267      2.86446         0.012390      0.010840     -0.004691
      6.54439      4.21089      2.82135        -0.014525      0.003658      0.010516
     10.57938      3.54845      7.03442         0.009820     -0.007718     -0.024054
     10.54163      3.50860      0.91916        -0.009583     -0.009654      0.010675
     10.57208      0.50548      4.87385        -0.011433     -0.006349      0.029444
      9.21999      7.42016      4.95848        -0.005463      0.000907     -0.035028
      6.61478      7.43446      4.94584         0.014460     -0.008241      0.050933
      5.12149      0.26726      4.90165         0.001242      0.012771      0.008018
      5.16497      8.25204     10.24682        -0.020891     -0.001103     -0.010794
    total drift:                               -0.023552      0.032842      0.007716

  FREE ENERGIE OF THE ION-ELECTRON SYSTEM (eV)
  free  energy   TOTEN  =      -509.12383707 eV

  energy  without entropy=     -509.15199689  energy(sigma->0) =     -509.13322367

 d Force = 0.3583599E-02[ 0.118E-02, 0.599E-02]  d Energy = 0.3862572E-02-0.279E-03
 d Force = 0.1698471E+02[ 0.170E+02, 0.170E+02]  d Ewald  = 0.1698468E+02 0.323E-04

 Conjugate gradient step on ions:
 trial-energy change:   -0.003863  1 .order   -0.003584   -0.005986   -0.001181
  (g-gl).g = 0.548E-02      g.g   = 0.519E-02  gl.gl    = 0.188E-01
 g(Force)  = 0.519E-02   g(Stress)= 0.000E+00 ortho     =-0.360E-03
 gamma     =   0.29196
 trial     =   1.17785
 opt step  =   1.38328  (harmonic =   1.46732) maximal distance =0.01164768
 next E    =  -509.123942   (d E  =  -0.00397)

 reached required accuracy - stopping structural energy minimisation