 vasp.5.4.4.18Apr17-6-g9f103f2a35 (build Oct 25 2019 11:13:22) complex

 executed on             LinuxIFC date 2022.02.22  07:49:08

 INCAR:
 POTCAR:    PAW_PBE Pt 04Feb2005
 POTCAR:    PAW_PBE Fe 06Sep2000
 POTCAR:    PAW_PBE Co 02Aug2007
 POTCAR:    PAW_PBE Cu 22Jun2005
 POTCAR:    PAW_PBE Ni 02Aug2007
 POTCAR:    PAW_PBE C 08Apr2002
 POTCAR:    PAW_PBE Pt 04Feb2005
   VRHFIN =Pt: s1d9

   TITEL  = PAW_PBE Pt 04Feb2005
   POMASS =  195.080; ZVAL   =   10.000    mass and valenz
   ENMAX  =  230.283; ENMIN  =  172.712 eV

 POTCAR:    PAW_PBE Fe 06Sep2000
   VRHFIN =Fe:  d7 s1

   TITEL  = PAW_PBE Fe 06Sep2000
   POMASS =   55.847; ZVAL   =    8.000    mass and valenz
   ENMAX  =  267.882; ENMIN  =  200.911 eV

 POTCAR:    PAW_PBE Co 02Aug2007
   VRHFIN =Co: d8 s1

   TITEL  = PAW_PBE Co 02Aug2007
   POMASS =   58.933; ZVAL   =    9.000    mass and valenz
   ENMAX  =  267.968; ENMIN  =  200.976 eV

 POTCAR:    PAW_PBE Cu 22Jun2005
   VRHFIN =Cu: d10 p1

   TITEL  = PAW_PBE Cu 22Jun2005
   POMASS =   63.546; ZVAL   =   11.000    mass and valenz
   ENMAX  =  295.446; ENMIN  =  221.585 eV

 POTCAR:    PAW_PBE Ni 02Aug2007
   VRHFIN =Ni:

   TITEL  = PAW_PBE Ni 02Aug2007
   POMASS =   58.690; ZVAL   =   10.000    mass and valenz
   ENMAX  =  269.532; ENMIN  =  202.149 eV

 POTCAR:    PAW_PBE C 08Apr2002
   VRHFIN =C: s2p2

   TITEL  = PAW_PBE C 08Apr2002
   POMASS =   12.011; ZVAL   =    4.000    mass and valenz
   ENMAX  =  400.000; ENMIN  =  300.000 eV

 Optimization of the real space projectors (new method)

 maximal supplied QI-value         = 14.36
 optimisation between [QCUT,QGAM] = [ 11.92, 23.98] = [ 39.79,161.09] Ry
 Optimized for a Real-space Cutoff    1.49 Angstroem

   l    n(q)    QCUT    max X(q) W(low)/X(q) W(high)/X(q)  e(spline)
   2     10    11.920    66.195    0.79E-04    0.18E-03    0.24E-06
   2     10    11.920    64.643    0.81E-04    0.19E-03    0.24E-06
   0     11    11.920    95.520    0.28E-04    0.54E-04    0.18E-06
   0     11    11.920    63.403    0.27E-04    0.52E-04    0.17E-06
   1     10    11.920    19.961    0.18E-04    0.11E-03    0.23E-06
   1     10    11.920    13.289    0.25E-04    0.87E-04    0.19E-06
 Optimization of the real space projectors (new method)

[...]

   l    n(q)    QCUT    max X(q) W(low)/X(q) W(high)/X(q)  e(spline)
   2      9    11.864    60.317    0.21E-03    0.51E-03    0.25E-06
   2      9    11.864    55.921    0.21E-03    0.51E-03    0.26E-06
   0      9    11.864    51.690    0.22E-03    0.30E-04    0.17E-06
   0      9    11.864    30.015    0.20E-03    0.28E-04    0.15E-06
   1      9    11.864    18.849    0.76E-04    0.33E-03    0.17E-06
   1      9    11.864    14.624    0.60E-04    0.28E-03    0.15E-06
 Optimization of the real space projectors (new method)

 maximal supplied QI-value         = 25.13
 optimisation between [QCUT,QGAM] = [ 11.81, 23.88] = [ 39.08,159.64] Ry
 Optimized for a Real-space Cutoff    1.18 Angstroem

   l    n(q)    QCUT    max X(q) W(low)/X(q) W(high)/X(q)  e(spline)
   0      8    11.813   115.676    0.10E-03    0.16E-03    0.35E-06
   0      8    11.813    87.132    0.10E-03    0.16E-03    0.35E-06
   1      8    11.813     4.429    0.16E-03    0.13E-04    0.22E-06
   1      8    11.813     2.733    0.13E-03    0.10E-04    0.18E-06
  PAW_PBE Pt 04Feb2005                  :
  PAW_PBE Fe 06Sep2000                  :
  PAW_PBE Co 02Aug2007                  :
  PAW_PBE Cu 22Jun2005                  :
  PAW_PBE Ni 02Aug2007                  :
  PAW_PBE C 08Apr2002                   :

 POSCAR: 10.56
  positions in direct lattice
  velocities in cartesian coordinates
 exchange correlation table for  LEXCH =        8
   RHO(1)=    0.500       N(1)  =     2000
   RHO(2)=  100.500       N(2)  =     4000

 ion  position               nearest neighbor table
   1  0.788  0.878  0.317-  28 2.61  49 2.62  19 2.64  33 2.65  59 2.65  61 2.66  29 2.67  60 2.68
                             2 2.72   4 2.77  11 2.78  12 2.84
   2  0.044  0.881  0.317-  79 2.56  30 2.62  77 2.62  60 2.63  52 2.65  28 2.67  33 2.67  22 2.68
                             1 2.72   4 2.82   6 2.89  16 3.13
   3  0.279  0.380  0.320-  39 2.56  64 2.57  33 2.59  31 2.63  30 2.70  19 2.70  43 2.72  68 2.72
                             5 2.78  13 2.80  18 2.82  25 2.83
   4  0.868  0.965  0.422-  81 2.17  17 2.58  11 2.60   9 2.65  12 2.67   6 2.70  16 2.76  60 2.77
                             1 2.77   2 2.82
   5  0.122  0.463  0.428-  16 2.61  12 2.62   7 2.63  10 2.63  25 2.66  13 2.67  33 2.71  39 2.74
                             3 2.78
   6  0.122  0.967  0.429-  10 2.61   9 2.64   8 2.65   4 2.70  14 2.73  16 2.75   2 2.89  22 2.93
                            52 2.94
   7  0.875  0.460  0.427-   9 2.61  15 2.62   5 2.63  10 2.63  12 2.63  27 2.65  39 2.69  75 2.78
                            29 2.79
   8  0.376  0.960  0.419-  43 2.58  11 2.62  13 2.62  14 2.62  27 2.63   6 2.65  10 2.66  52 2.70
                            61 2.70
   9  0.871  0.214  0.420-  81 2.19  15 2.59   7 2.61  17 2.63   6 2.64   4 2.65  75 2.66  10 2.68
                            60 2.72  22 2.80
  10  0.125  0.212  0.422-   6 2.61  13 2.61   5 2.63   7 2.63   8 2.66  39 2.66   9 2.68  43 2.73
                            22 2.77
  11  0.624  0.960  0.424-   4 2.60   8 2.62  27 2.63  13 2.63  12 2.64  17 2.65   1 2.78  19 2.83
                            61 2.84
  12  0.874  0.710  0.426-   5 2.62  27 2.63   7 2.63  11 2.64  16 2.66   4 2.67  33 2.67  29 2.80
                             1 2.84
  13  0.374  0.209  0.425-  10 2.61   8 2.62  11 2.63  25 2.65  17 2.65   5 2.67  43 2.77   3 2.80
                            19 2.83
  14  0.381  0.709  0.422-  27 2.58  15 2.61   8 2.62  44 2.65  25 2.67   6 2.73  16 2.74  30 2.74
                            52 2.75
  15  0.627  0.461  0.423-   9 2.59  14 2.61   7 2.62  27 2.63  17 2.65  25 2.66  44 2.70  75 2.72
                            18 2.76
  16  0.126  0.706  0.439-   5 2.61  25 2.64  12 2.66  14 2.74   6 2.75   4 2.76  33 2.90  30 3.04
                             2 3.13
  17  0.624  0.211  0.423-  81 2.20   4 2.58  25 2.62   9 2.63  13 2.65  15 2.65  11 2.65  18 2.77
                            60 2.80  19 2.87
  18  0.548  0.375  0.317-  67 2.56  60 2.59  75 2.61  44 2.64  68 2.65  26 2.67  30 2.71  19 2.73
                            15 2.76  17 2.77   3 2.82  25 2.86
  19  0.535  0.124  0.315-  80 2.55  43 2.57  68 2.57  59 2.60   1 2.64  61 2.64   3 2.70  18 2.73
                            60 2.76  13 2.83  11 2.83  17 2.87
  20  0.547  0.124  0.040-  37 2.55  57 2.56  48 2.58  62 2.64  63 2.68  47 2.68  45 2.68  56 2.70
                            34 2.71
  21  0.121  0.460  0.128-  40 2.52  36 2.53  47 2.53  42 2.60  69 2.61  64 2.62  70 2.64  50 2.64
                            58 2.67  31 2.70  57 2.71  74 2.72
  22  0.045  0.134  0.315-  55 2.54  65 2.55  43 2.57  77 2.59  39 2.59  75 2.61   2 2.68  60 2.68
                            52 2.71  10 2.77   9 2.80   6 2.93  31 3.42
  23  0.042  0.130  0.033-  70 2.58  40 2.60  41 2.61  45 2.62  62 2.64  76 2.64  24 2.69  35 2.73
                            53 2.78
  24  0.130  0.958  0.132-  79 2.51  77 2.54  35 2.57  53 2.57  55 2.58  70 2.62  38 2.64  58 2.64
                            73 2.65  23 2.69  66 2.70  41 2.72
  25  0.375  0.459  0.426-  17 2.62  16 2.64  13 2.65   5 2.66  15 2.66  14 2.67  30 2.82   3 2.83
                            18 2.86
  26  0.455  0.546  0.219-  73 2.50  74 2.54  51 2.56  79 2.61  64 2.63  18 2.67  68 2.67  78 2.67
                            30 2.67  32 2.68  67 2.72  44 2.75
  27  0.624  0.711  0.424-  14 2.58   8 2.63  15 2.63  11 2.63  12 2.63   7 2.65  44 2.71  61 2.79
                            29 2.79
  28  0.956  0.790  0.221-  58 2.57  66 2.57  50 2.58  42 2.59  49 2.61   1 2.61  64 2.63   2 2.67
                            59 2.70  33 2.73  79 2.76  77 2.77
  29  0.794  0.622  0.319-  39 2.54  42 2.56  75 2.58  32 2.61  44 2.64  33 2.65   1 2.67  61 2.67
                            49 2.69   7 2.79  27 2.79  12 2.80
  30  0.290  0.631  0.319-  79 2.58  52 2.61  64 2.61   2 2.62  33 2.64  44 2.64  26 2.67   3 2.70
                            18 2.71  14 2.74  25 2.82  16 3.04
  31  0.203  0.281  0.225-  70 2.52  55 2.56  65 2.57  43 2.60  57 2.60   3 2.63  39 2.66  80 2.70
                            21 2.70  42 2.71  68 2.75  64 2.79  22 3.42
  32  0.706  0.549  0.221-  54 2.53  69 2.56  51 2.58  49 2.59  42 2.60  29 2.61  78 2.62  65 2.63
                            26 2.68  44 2.69  75 2.69  67 2.70
  33  0.040  0.630  0.326-   3 2.59  30 2.64  39 2.64   1 2.65  29 2.65  12 2.67   2 2.67  64 2.71
                             5 2.71  28 2.73  42 2.74  16 2.90
  34  0.797  0.862  0.042-  50 2.38  66 2.51  48 2.53  36 2.55  71 2.56  63 2.61  20 2.71  35 2.76
                            62 2.76
  35  0.056  0.866  0.038-  58 2.54  72 2.55  36 2.56  24 2.57  66 2.62  53 2.65  23 2.73  62 2.73
                            34 2.76
  36  0.046  0.628  0.037-  21 2.53  34 2.55  35 2.56  58 2.58  50 2.61  47 2.63  72 2.64  40 2.69
                            71 2.72
  37  0.627  0.222  0.129-  51 2.51  74 2.51  67 2.52  56 2.53  41 2.55  20 2.55  68 2.56  59 2.56
                            62 2.59  66 2.66  57 2.73  48 2.89
  38  0.382  0.955  0.130-  53 2.47  80 2.48  45 2.49  78 2.53  48 2.54  73 2.55  63 2.55  54 2.56
                            55 2.59  57 2.62  24 2.64  70 2.67
  39  0.036  0.382  0.324-  29 2.54   3 2.56  75 2.58  22 2.59  33 2.64  10 2.66  31 2.66  42 2.67
                             7 2.69   5 2.74  65 2.75  43 2.79
  40  0.031  0.382  0.038-  69 2.44  21 2.52  71 2.53  76 2.56  70 2.57  23 2.60  36 2.69  45 2.78
                            47 2.78
  41  0.872  0.215  0.128-  76 2.45  65 2.52  77 2.53  67 2.54  37 2.55  69 2.57  62 2.57  51 2.59
                            23 2.61  70 2.65  66 2.66  24 2.72
  42  0.955  0.545  0.224-  29 2.56  50 2.56  28 2.59  21 2.60  32 2.60  69 2.61  49 2.63  65 2.64
                            64 2.65  39 2.67  31 2.71  33 2.74
  43  0.297  0.115  0.321-  55 2.53  52 2.54  61 2.56  19 2.57  22 2.57   8 2.58  31 2.60  80 2.66
                             3 2.72  10 2.73  13 2.77  39 2.79
  44  0.541  0.629  0.322-  61 2.56  52 2.58  78 2.64  29 2.64  18 2.64  30 2.64  14 2.65  75 2.66
                            32 2.69  15 2.70  27 2.71  26 2.75
  45  0.295  0.119  0.039-  70 2.49  38 2.49  57 2.57  53 2.60  23 2.62  63 2.64  20 2.68  47 2.75
                            40 2.78
  46  0.548  0.625  0.044-  51 2.38  73 2.39  54 2.41  71 2.56  53 2.56  63 2.58  76 2.59  56 2.62
                            72 2.64
  47  0.296  0.379  0.039-  74 2.41  21 2.53  57 2.61  72 2.61  56 2.62  36 2.63  20 2.68  45 2.75
                            40 2.78
  48  0.625  0.950  0.132-  49 2.40  80 2.48  54 2.48  34 2.53  38 2.54  59 2.55  50 2.56  63 2.57
                            20 2.58  57 2.65  66 2.68  37 2.89
  49  0.706  0.794  0.220-  48 2.40  50 2.48  54 2.49  80 2.53  32 2.59  28 2.61  78 2.61   1 2.62
                            61 2.62  42 2.63  29 2.69  59 2.69
[...]

 FORCES acting on ions
    electron-ion (+dipol)            ewald-force                    non-local-force                 convergence-correction
   -.385E+02 0.819E+02 -.150E+04   0.385E+02 -.820E+02 0.150E+04   0.297E-01 0.614E-01 0.191E+01   -.109E-01 0.300E-02 0.132E+00
   0.246E+02 0.669E+02 -.149E+04   -.244E+02 -.670E+02 0.148E+04   -.188E+00 0.130E-01 0.228E+01   0.407E-01 0.364E-01 0.134E+00
   0.370E+02 -.130E+02 -.152E+04   -.386E+02 0.132E+02 0.152E+04   0.170E+01 -.186E+00 0.208E+01   0.655E-02 -.179E-01 0.146E+00
   -.686E+01 0.977E+02 -.286E+04   0.697E+01 -.978E+02 0.286E+04   -.994E-01 0.849E-01 -.159E+01   0.160E-01 0.332E-01 -.939E-02
   -.106E+02 0.661E+01 -.291E+04   0.102E+02 -.624E+01 0.290E+04   0.485E+00 -.294E+00 0.135E+01   -.284E-01 -.380E-01 -.139E-02
   -.402E+01 0.480E+01 -.286E+04   0.489E+01 -.564E+01 0.286E+04   -.921E+00 0.829E+00 0.117E+01   0.352E-01 0.231E-01 0.153E-01
   -.249E+02 -.141E+02 -.293E+04   0.252E+02 0.139E+02 0.293E+04   -.238E+00 0.248E+00 0.133E+01   -.615E-01 -.359E-01 0.119E-01
   0.134E+02 -.151E+02 -.291E+04   -.136E+02 0.154E+02 0.291E+04   0.299E+00 -.244E+00 0.163E+01   -.498E-01 -.221E-01 0.103E-01
   -.851E+02 -.240E+02 -.287E+04   0.850E+02 0.242E+02 0.287E+04   -.439E-01 -.318E+00 -.115E+01   0.345E-01 0.326E-01 0.658E-02
   -.209E+02 -.294E+00 -.289E+04   0.214E+02 0.712E+00 0.288E+04   -.388E+00 -.380E+00 0.154E+01   -.417E-01 -.441E-01 0.334E-02
   -.276E-02 0.680E+00 -.290E+04   -.632E+00 -.140E+01 0.290E+04   0.661E+00 0.675E+00 0.894E+00   -.308E-01 -.220E-02 0.278E-01
   -.459E+01 0.123E+02 -.291E+04   0.495E+01 -.126E+02 0.291E+04   -.311E+00 0.378E+00 0.103E+01   -.452E-01 -.507E-02 0.563E-02
   0.178E+02 -.201E+02 -.291E+04   -.181E+02 0.200E+02 0.290E+04   0.262E+00 0.151E+00 0.780E+00   -.701E-02 -.429E-01 0.266E-01
   0.165E+02 0.592E+01 -.292E+04   -.163E+02 -.593E+01 0.292E+04   -.215E+00 -.717E-01 0.116E+01   0.439E-01 0.381E-01 -.764E-03
   0.208E+02 -.204E+02 -.288E+04   -.206E+02 0.217E+02 0.288E+04   -.303E+00 -.130E+01 0.145E+01   0.325E-01 -.300E-03 0.216E-01
   -.678E+01 0.891E+01 -.291E+04   0.637E+01 -.946E+01 0.291E+04   0.336E+00 0.506E+00 0.998E+00   0.490E-01 0.413E-01 -.417E-01
   0.888E+02 -.451E+02 -.286E+04   -.888E+02 0.453E+02 0.286E+04   0.127E+00 -.198E+00 -.137E+01   0.231E-01 0.160E-01 0.115E-01
   0.732E+02 -.695E+02 -.152E+04   -.719E+02 0.695E+02 0.152E+04   -.128E+01 0.119E+00 0.156E+01   0.514E-01 -.168E-02 0.169E+00
   0.300E+02 -.450E+02 -.151E+04   -.309E+02 0.447E+02 0.151E+04   0.822E+00 0.267E+00 0.221E+01   0.627E-02 0.372E-02 0.156E+00
   0.333E+02 0.315E+02 0.304E+04   -.334E+02 -.318E+02 -.304E+04   0.127E+00 0.198E+00 -.238E+01   -.135E-01 0.746E-01 -.210E-01
   0.354E+02 -.847E+01 0.161E+04   -.363E+02 0.921E+01 -.161E+04   0.918E+00 -.670E+00 0.898E+00   0.900E-01 -.184E-01 0.731E-01
   -.706E+02 0.811E+01 -.147E+04   0.712E+02 -.722E+01 0.147E+04   -.541E+00 -.871E+00 0.245E+01   -.335E-02 -.758E-02 0.189E+00
   -.541E+02 0.511E+02 0.309E+04   0.548E+02 -.503E+02 -.309E+04   -.709E+00 -.837E+00 -.207E+01   -.203E-01 0.118E-01 -.293E-01
   0.478E+00 -.532E+02 0.160E+04   -.150E+00 0.527E+02 -.160E+04   -.372E+00 0.475E+00 -.771E+00   -.587E-01 -.179E-02 0.173E+00
   0.153E+02 -.763E+01 -.291E+04   -.156E+02 0.772E+01 0.291E+04   0.291E+00 -.683E-01 0.647E+00   0.648E-01 -.481E-02 0.614E-02
   -.219E+02 -.534E+01 0.192E+02   0.218E+02 0.577E+01 -.209E+02   0.447E-01 -.475E+00 0.143E+01   -.335E-01 -.195E-01 0.215E+00
   -.566E+01 0.674E+01 -.293E+04   0.548E+01 -.689E+01 0.293E+04   0.253E+00 0.217E+00 0.104E+01   -.457E-01 -.334E-01 0.538E-02
   0.202E+02 0.646E+02 0.139E+02   -.212E+02 -.658E+02 -.144E+02   0.106E+01 0.108E+01 0.297E+00   0.174E-01 0.162E-01 0.197E+00
   -.683E+02 0.703E+01 -.147E+04   0.687E+02 -.821E+01 0.147E+04   -.378E+00 0.129E+01 0.291E+01   -.357E-01 -.184E-01 0.177E+00
   0.293E+02 0.281E+02 -.153E+04   -.291E+02 -.274E+02 0.152E+04   -.286E+00 -.722E+00 0.239E+01   0.332E-01 0.394E-01 0.133E+00
   0.208E+02 -.638E+02 -.646E+02   -.218E+02 0.631E+02 0.647E+02   0.101E+01 0.599E+00 -.318E+00   0.170E-01 -.122E-03 0.195E+00
   -.241E+02 -.196E+02 0.169E+02   0.248E+02 0.204E+02 -.180E+02   -.812E+00 -.783E+00 0.772E+00   0.130E-02 -.142E-01 0.265E+00
   0.189E+02 0.128E+02 -.124E+04   -.190E+02 -.132E+02 0.124E+04   0.134E+00 0.479E+00 0.510E+00   -.244E-01 0.303E-02 0.582E-01
   -.599E+02 -.275E+01 0.244E+04   0.602E+02 0.146E+01 -.244E+04   -.406E+00 0.128E+01 -.267E+01   0.264E-01 0.255E-01 -.243E-01
   0.307E+02 -.141E+02 0.247E+04   -.305E+02 0.127E+02 -.247E+04   -.415E-01 0.144E+01 -.228E+01   -.443E-01 0.105E-02 -.454E-05
   0.228E+02 -.398E+01 0.248E+04   -.230E+02 0.461E+01 -.247E+04   0.157E+00 -.622E+00 -.276E+01   0.383E-01 -.385E-01 -.985E-02
   0.686E+01 0.521E+02 0.130E+04   -.597E+01 -.515E+02 -.130E+04   -.909E+00 -.716E+00 -.113E+00   -.269E-01 0.705E-02 0.806E-01
   0.336E+02 -.547E+02 0.128E+04   -.335E+02 0.544E+02 -.128E+04   -.996E-01 0.245E+00 -.395E+00   0.817E-02 0.478E-01 0.118E+00
   -.542E+02 -.240E+02 -.122E+04   0.545E+02 0.242E+02 0.122E+04   -.186E+00 -.234E+00 0.813E+00   -.356E-01 -.202E-01 0.139E+00
   -.934E+02 0.205E+02 0.248E+04   0.930E+02 -.203E+02 -.248E+04   0.265E+00 -.237E+00 -.263E+01   0.689E-01 -.695E-02 -.293E-01
   -.334E+02 0.464E+02 0.130E+04   0.326E+02 -.459E+02 -.130E+04   0.811E+00 -.540E+00 -.403E+00   -.228E-01 -.362E-01 0.106E+00
   -.441E+02 0.198E+01 -.353E+02   0.439E+02 -.160E+01 0.351E+02   0.242E+00 -.453E+00 -.794E-01   0.729E-02 0.102E-01 0.173E+00
   0.144E+02 -.813E+02 -.123E+04   -.145E+02 0.812E+02 0.123E+04   0.168E+00 0.160E+00 0.128E+01   -.231E-01 -.155E-01 0.156E+00
   0.142E+02 0.292E+02 -.121E+04   -.143E+02 -.292E+02 0.121E+04   0.800E-01 -.286E-01 0.551E+00   0.124E-02 -.649E-02 0.164E+00
   0.146E+02 -.466E+02 0.245E+04   -.153E+02 0.458E+02 -.245E+04   0.672E+00 0.683E+00 -.274E+01   0.513E-01 0.724E-01 -.183E-01
   0.442E+01 -.195E+02 0.276E+04   -.447E+01 0.198E+02 -.276E+04   0.820E-01 -.222E+00 -.235E+01   -.118E-01 -.400E-01 -.263E-01
   0.119E+03 0.291E+02 0.279E+04   -.120E+03 -.284E+02 -.279E+04   0.435E+00 -.663E+00 -.233E+01   0.145E-01 -.119E-01 0.239E-03
   -.370E+02 -.280E+02 0.143E+04   0.366E+02 0.269E+02 -.143E+04   0.467E+00 0.108E+01 -.424E+00   0.235E-01 0.377E-01 0.122E+00
   -.638E+02 0.663E+02 0.325E+02   0.638E+02 -.661E+02 -.337E+02   -.693E-02 -.154E+00 0.900E+00   0.256E-01 0.456E-02 0.223E+00
   -.889E+02 0.188E+02 0.141E+04   0.884E+02 -.183E+02 -.141E+04   0.491E+00 -.495E+00 -.970E-01   0.528E-01 0.118E-01 0.127E+00
   -.207E+02 0.101E+02 0.140E+04   0.209E+02 -.103E+02 -.140E+04   -.125E+00 0.271E+00 -.906E-01   -.527E-01 -.474E-01 0.131E+00
   0.442E+02 0.787E+01 -.137E+04   -.440E+02 -.808E+01 0.137E+04   -.272E+00 0.225E+00 0.161E+01   -.291E-02 0.197E-01 0.165E+00
   0.530E+02 -.808E+02 0.277E+04   -.527E+02 0.805E+02 -.276E+04   -.389E+00 0.214E+00 -.248E+01   -.226E-01 0.308E-01 -.130E-01
   -.142E+02 0.203E+01 0.139E+04   0.143E+02 -.181E+01 -.139E+04   -.789E-01 -.248E+00 -.404E+00   0.227E-01 0.114E-01 0.143E+00
   0.198E+02 -.705E+02 -.587E+01   -.189E+02 0.699E+02 0.585E+01   -.853E+00 0.664E+00 -.284E+00   -.290E-01 -.235E-02 0.221E+00
   0.310E+02 0.341E+02 0.344E+04   -.309E+02 -.333E+02 -.344E+04   0.595E-01 -.848E+00 -.359E+01   -.110E+00 -.540E-01 -.174E-01
   0.626E+02 0.848E+01 0.175E+04   -.628E+02 -.922E+01 -.175E+04   0.123E+00 0.691E+00 -.204E+00   0.265E-01 0.803E-01 0.807E-01
   0.102E+03 -.317E+02 0.173E+04   -.102E+03 0.318E+02 -.173E+04   -.172E+00 0.164E-03 0.590E-01   -.961E-02 -.237E-01 0.151E+00
   0.134E+02 0.709E+02 0.939E+02   -.141E+02 -.708E+02 -.950E+02   0.649E+00 -.200E+00 0.890E+00   0.181E-01 -.752E-06 0.226E+00
   0.134E+02 0.544E+02 -.171E+04   -.129E+02 -.539E+02 0.171E+04   -.493E+00 -.541E+00 0.209E+01   0.305E-01 0.316E-01 0.160E+00
[...]
   0.540E+02 -.355E+02 0.151E+02   -.534E+02 0.350E+02 -.155E+02   -.590E+00 0.374E+00 0.371E+00   0.269E-02 0.133E-01 0.187E+00
   -.735E+02 0.139E+01 0.156E+04   0.731E+02 -.127E+01 -.156E+04   0.400E+00 -.442E-01 -.101E+00   0.298E-01 -.215E-01 0.136E+00
   -.123E+02 0.194E+02 0.163E+04   0.126E+02 -.196E+02 -.163E+04   -.342E+00 0.231E+00 -.457E+00   0.334E-01 0.767E-02 0.117E+00
   -.101E+03 -.429E+01 0.309E+04   0.101E+03 0.434E+01 -.309E+04   -.543E+00 -.126E-01 -.132E+01   0.512E-01 0.522E-02 -.498E-01
   0.703E+02 -.523E+02 0.309E+04   -.706E+02 0.530E+02 -.309E+04   0.364E+00 -.561E+00 -.873E+00   -.893E-01 -.101E+00 0.676E-02
   0.153E+02 -.402E+02 0.156E+04   -.148E+02 0.400E+02 -.156E+04   -.421E+00 0.223E+00 -.166E-01   -.761E-01 -.318E-01 0.182E+00
   0.511E+02 0.243E+01 0.160E+04   -.506E+02 -.240E+01 -.160E+04   -.494E+00 0.536E-01 -.923E-01   -.648E-01 -.396E-01 0.726E-01
   -.415E+02 -.665E+02 -.153E+04   0.415E+02 0.664E+02 0.153E+04   0.105E+00 0.120E+00 0.848E+00   -.792E-02 0.648E-02 0.190E+00
   -.540E+02 0.297E+02 0.307E+04   0.544E+02 -.291E+02 -.307E+04   -.376E+00 -.591E+00 -.191E+01   -.127E-01 -.506E-01 -.352E-01
   -.445E+02 0.729E+02 0.854E+02   0.449E+02 -.727E+02 -.859E+02   -.416E+00 -.321E+00 0.190E+00   0.268E-03 -.163E-01 0.212E+00
   0.867E+00 0.613E+02 0.142E+02   -.935E+00 -.605E+02 -.146E+02   0.117E+00 -.856E+00 0.187E-01   -.155E-01 0.591E-02 0.256E+00
   0.493E+02 0.464E+01 -.203E+02   -.488E+02 -.412E+01 0.199E+02   -.422E+00 -.542E+00 0.858E-01   -.313E-01 0.966E-02 0.222E+00
   0.216E+02 -.529E+02 0.455E+02   -.221E+02 0.524E+02 -.460E+02   0.429E+00 0.527E+00 0.292E+00   0.133E-01 0.213E-01 0.218E+00
   -.296E+01 -.235E+01 -.137E+04   0.307E+01 0.248E+01 0.138E+04   -.107E+00 -.143E+00 -.107E+02   0.128E-01 0.127E-01 -.284E-01
   -.206E+01 -.414E+00 -.161E-01   0.152E-12 -.755E-13 -.227E-11   0.209E+01 0.428E+00 -.767E+01   -.428E-01 -.218E-01 0.766E+01

 POSITION                                       TOTAL-FORCE (eV/Angst)
     12.96177      8.04188      7.00669         0.005606     -0.004426      0.005453
      5.09629      8.07613      6.95846        -0.003614      0.011308      0.043364
      4.97044      3.47455      7.02775         0.010849      0.005567     -0.027583
     14.31138      8.71786      9.44177         0.018294      0.006044     -0.015160
      3.72674      4.21826      9.40491         0.010282      0.018699     -0.001205
      6.43967      8.75660      9.23779        -0.008531      0.033475      0.005677
     11.66864      4.21216      9.38215         0.010070      0.012615      0.017526
      9.02603      8.77868      9.24389        -0.000099      0.006200      0.001383
     10.39523      1.95421      9.37763        -0.015179     -0.040330      0.023491
      2.44900      1.92888      9.30172        -0.018203     -0.030257     -0.012335
     11.62014      8.75870      9.29256         0.004682     -0.019010      0.000625
     12.97653      6.47984      9.42042        -0.007122     -0.014777     -0.029630
      5.04763      1.91248      9.35864        -0.026668     -0.014698      0.014721
      7.72510      6.50703      9.33180        -0.004743     -0.037942     -0.018852
      9.04297      4.26809      9.25700        -0.009043      0.001378     -0.000125
      5.07301      6.47542      9.40683        -0.013458      0.008575     -0.022786
      7.65245      1.95428      9.40785         0.029869     -0.001491      0.019030
      7.77822      3.42327      6.99394        -0.005233      0.025196      0.024136
      6.32128      1.13660      6.94767         0.004289     -0.005184      0.008096
      6.42858      1.12974      0.87872        -0.027083     -0.007054     -0.013092
      3.70548      4.20844      2.81687         0.013048     -0.003910     -0.036034
      1.15607      1.25361      6.92483        -0.012129     -0.003938      0.040793
      1.13569      1.19080      0.72557        -0.017060      0.012133      0.000207
      6.43607      8.76100      2.90031        -0.053763      0.032966      0.000748
      6.37957      4.22769      9.39602         0.014974      0.024045     -0.023680
      7.68135      4.99073      4.81474         0.029639     -0.010903      0.014699
     10.33889      6.50258      9.32391        -0.004520      0.003254      0.008882
     14.26424      7.22593      4.86299         0.028301      0.009178      0.077104
     11.68116      5.68989      7.01848         0.004188      0.013299     -0.028190
      6.41370      5.77340      7.00453         0.001981     -0.012053      0.000508
      3.62119      2.56589      4.96023         0.003985     -0.008415     -0.010631
     10.36091      5.02430      4.85652        -0.009899     -0.006138     -0.019090
      3.76173      5.76490      7.17416        -0.007217      0.000729     -0.045346
     12.96907      7.87977      0.92567        -0.002908     -0.007512      0.000815
      5.16340      7.91719      0.83030         0.008822      0.004601     -0.011289
      3.80701      5.74502      0.81381         0.005515     -0.003328     -0.029692
      7.79852      2.03245      2.83251        -0.028180     -0.010781      0.013059
      9.07755      8.73373      2.85743         0.016702      0.028619      0.021026
      2.40279      3.50040      7.13872         0.001799     -0.008194     -0.011699
      2.34409      3.49051      0.82510         0.013848      0.011635     -0.039573
     10.34814      1.96983      2.82249        -0.025867      0.009542      0.015267
     12.96035      4.98587      4.92559         0.030076     -0.032644     -0.021555
      3.74301      1.06894      7.06511         0.004203      0.010590     -0.000643
      9.03754      5.76850      7.07241        -0.017967     -0.009605      0.000201
      3.74824      1.09182      0.86700        -0.003779      0.005400     -0.002846
      9.09121      5.71867      0.96043        -0.004486      0.017798     -0.005521
      5.12448      3.47045      0.85563        -0.003180      0.025499     -0.012816
     11.62092      8.68758      2.90590         0.018320     -0.004806      0.015695
     11.65313      7.26450      4.84229        -0.048989      0.008492     -0.073595
     12.86756      6.45280      2.83379         0.023367      0.003929     -0.008693
      9.04201      4.20780      2.79628         0.026673     -0.014200     -0.005144
      7.76609      8.01372      6.98901        -0.009180     -0.001062     -0.006109
      7.81315      7.93922      0.88653        -0.010076     -0.005036      0.034993
     10.39144      6.53566      2.82198         0.052957     -0.000041      0.023722
      2.51347      0.25826      5.00083         0.027464      0.033798      0.001625
      7.74264      3.48454      0.76157         0.001369     -0.009678      0.003496
      5.07835      1.87760      2.91701         0.001302     -0.009271     -0.013447
      5.16037      6.44715      2.89923        -0.011758     -0.000802     -0.010202
      7.70892      0.45986      4.84799         0.006966     -0.004804      0.059292
      9.05822      1.19003      6.99216         0.010751     -0.007125     -0.014609
[...]
      9.07350      2.65252      4.91360         0.002196     -0.027413      0.023930
      6.37169      2.66558      4.85827         0.005838     -0.016066      0.053945
     11.65891      4.17486      2.81483        -0.014752     -0.002289     -0.020379
      2.44098      1.89237      2.83279         0.009438      0.033206      0.028101
     11.64953      5.68621      0.88546         0.009313      0.034698     -0.005497
      6.44743      5.71949      0.92597        -0.008476      0.019812     -0.013226
      7.82927      6.50651      2.83621        -0.033227     -0.010616     -0.028746
      6.41922      4.13007      2.78290        -0.032994     -0.004761     -0.003278
     10.36984      3.46258      7.06083        -0.004256     -0.009677     -0.001666
     10.34410      3.45013      0.86804        -0.002770     -0.009746     -0.019791
     10.37063      0.48410      4.87151        -0.020091     -0.024407      0.030287
      9.04079      7.29017      4.93700         0.011577     -0.033938      0.008445
      6.46265      7.29503      4.94074         0.038492      0.013214     -0.009781
      5.04247      0.27633      4.88406         0.013984      0.039472      0.037085
      9.03030      1.17550     10.51805         0.017859     -0.006563     -0.040447
    total drift:                               -0.008320     -0.007929     -0.026259

  FREE ENERGIE OF THE ION-ELECTRON SYSTEM (eV)
  free  energy   TOTEN  =      -515.41977457 eV

  energy  without entropy=     -515.43532780  energy(sigma->0) =     -515.42495898

 d Force = 0.1556077E-03[-0.763E-04, 0.388E-03]  d Energy = 0.1293112E-03 0.263E-04
 d Force =-0.2440365E+02[-0.244E+02,-0.244E+02]  d Ewald  =-0.2440364E+02-0.206E-05

 reached required accuracy - stopping structural energy minimisation