 vasp.5.4.4.18Apr17-6-g9f103f2a35 (build Nov 30 2020 22:55:02) complex

 executed on             LinuxIFC date 2022.09.16  22:06:45

 INCAR:
 POTCAR:    PAW_PBE Pt 04Feb2005
 POTCAR:    PAW_PBE Fe 06Sep2000
 POTCAR:    PAW_PBE Co 02Aug2007
 POTCAR:    PAW_PBE Cu 22Jun2005
 POTCAR:    PAW_PBE Ni 02Aug2007
 POTCAR:    PAW_PBE N 08Apr2002

 POTCAR:    PAW_PBE Pt 04Feb2005
   VRHFIN =Pt: s1d9

   TITEL  = PAW_PBE Pt 04Feb2005
   POMASS =  195.080; ZVAL   =   10.000    mass and valenz
   ENMAX  =  230.283; ENMIN  =  172.712 eV

 POTCAR:    PAW_PBE Fe 06Sep2000
   VRHFIN =Fe:  d7 s1

   TITEL  = PAW_PBE Fe 06Sep2000
   POMASS =   55.847; ZVAL   =    8.000    mass and valenz
   ENMAX  =  267.882; ENMIN  =  200.911 eV

 POTCAR:    PAW_PBE Co 02Aug2007
   VRHFIN =Co: d8 s1

   TITEL  = PAW_PBE Co 02Aug2007
   POMASS =   58.933; ZVAL   =    9.000    mass and valenz
   ENMAX  =  267.968; ENMIN  =  200.976 eV

 POTCAR:    PAW_PBE Cu 22Jun2005
   VRHFIN =Cu: d10 p1

   TITEL  = PAW_PBE Cu 22Jun2005
   POMASS =   63.546; ZVAL   =   11.000    mass and valenz
   ENMAX  =  295.446; ENMIN  =  221.585 eV

 POTCAR:    PAW_PBE Ni 02Aug2007
   VRHFIN =Ni:

   TITEL  = PAW_PBE Ni 02Aug2007
   POMASS =   58.690; ZVAL   =   10.000    mass and valenz
   ENMAX  =  269.532; ENMIN  =  202.149 eV

 POTCAR:    PAW_PBE N 08Apr2002
   VRHFIN =N: s2p3

   TITEL  = PAW_PBE N 08Apr2002
   POMASS =   14.001; ZVAL   =    5.000    mass and valenz
   ENMAX  =  400.000; ENMIN  =  300.000 eV

 Optimization of the real space projectors (new method)

 maximal supplied QI-value         = 14.36
 optimisation between [QCUT,QGAM] = [ 11.92, 23.98] = [ 39.79,161.09] Ry
 Optimized for a Real-space Cutoff    1.49 Angstroem

   l    n(q)    QCUT    max X(q) W(low)/X(q) W(high)/X(q)  e(spline)
   2     10    11.920    66.195    0.79E-04    0.18E-03    0.24E-06
   2     10    11.920    64.643    0.81E-04    0.19E-03    0.24E-06
   0     11    11.920    95.520    0.28E-04    0.54E-04    0.18E-06
   0     11    11.920    63.403    0.27E-04    0.52E-04    0.17E-06
   1     10    11.920    19.961    0.18E-04    0.11E-03    0.23E-06
   1     10    11.920    13.289    0.25E-04    0.87E-04    0.19E-06
 Optimization of the real space projectors (new method)

[...]

   l    n(q)    QCUT    max X(q) W(low)/X(q) W(high)/X(q)  e(spline)
   2      9    11.864    60.317    0.21E-03    0.51E-03    0.25E-06
   2      9    11.864    55.921    0.21E-03    0.51E-03    0.26E-06
   0      9    11.864    51.690    0.22E-03    0.30E-04    0.17E-06
   0      9    11.864    30.015    0.20E-03    0.28E-04    0.15E-06
   1      9    11.864    18.849    0.76E-04    0.33E-03    0.17E-06
   1      9    11.864    14.624    0.60E-04    0.28E-03    0.15E-06
 Optimization of the real space projectors (new method)

 maximal supplied QI-value         = 25.13
 optimisation between [QCUT,QGAM] = [ 11.81, 23.88] = [ 39.08,159.64] Ry
 Optimized for a Real-space Cutoff    1.41 Angstroem

   l    n(q)    QCUT    max X(q) W(low)/X(q) W(high)/X(q)  e(spline)
   0     10    11.813    79.467    0.48E-04    0.30E-04    0.67E-06
   0     10    11.813    66.151    0.47E-04    0.30E-04    0.67E-06
   1     10    11.813    20.169    0.11E-03    0.17E-03    0.11E-05
   1     10    11.813    14.454    0.11E-03    0.17E-03    0.11E-05
  PAW_PBE Pt 04Feb2005                  :
  PAW_PBE Fe 06Sep2000                  :
  PAW_PBE Co 02Aug2007                  :
  PAW_PBE Cu 22Jun2005                  :
  PAW_PBE Ni 02Aug2007                  :
  PAW_PBE N 08Apr2002                   :

 POSCAR: Pt   Fe   Co   Cu   Ni   N
  positions in cartesian coordinates
 exchange correlation table for  LEXCH =        8
   RHO(1)=    0.500       N(1)  =     2000
   RHO(2)=  100.500       N(2)  =     4000

 ion  position               nearest neighbor table
   1  0.786  0.880  0.320-  19 2.61  61 2.64  29 2.66  33 2.66  49 2.66  28 2.67  60 2.68  59 2.69
                             2 2.72   4 2.79  12 2.83  11 3.00
   2  0.042  0.883  0.315-  79 2.54  77 2.59  60 2.62  28 2.64  30 2.65  52 2.66  33 2.68  22 2.69
                             1 2.72   6 2.77   4 2.80  16 2.90
   3  0.281  0.376  0.322-  39 2.55  33 2.62  64 2.65  31 2.66  19 2.68  43 2.68  30 2.73  68 2.76
                             5 2.77  18 2.80  25 2.84  13 2.95
   4  0.878  0.964  0.423-   6 2.63  16 2.63   9 2.63  17 2.64  11 2.66  12 2.66   1 2.79  60 2.79
                             2 2.80
   5  0.122  0.466  0.429-  12 2.60   7 2.62  16 2.63  13 2.64  10 2.64  25 2.68  33 2.73   3 2.77
                            39 2.78
   6  0.128  0.963  0.421-   8 2.61   4 2.63  14 2.63   9 2.64  16 2.65  10 2.66  52 2.76   2 2.77
                            22 2.85
   7  0.877  0.462  0.426-   5 2.62  15 2.62   9 2.63  10 2.64  12 2.64  27 2.64  39 2.68  29 2.78
                            75 2.79
   8  0.376  0.960  0.417-  43 2.56  14 2.60   6 2.61  27 2.63  10 2.65  52 2.65  61 2.66  11 2.74
                            13 2.76
   9  0.878  0.213  0.421-  17 2.60   7 2.63   4 2.63   6 2.64  10 2.64  15 2.65  75 2.69  60 2.76
                            22 2.79
  10  0.128  0.214  0.421-   7 2.64   9 2.64   5 2.64  39 2.64  13 2.64   8 2.65   6 2.66  43 2.71
                            22 2.78
  11  0.631  0.960  0.440-  81 1.88  12 2.61   4 2.66  27 2.67  17 2.73  13 2.73   8 2.74   1 3.00
                            19 3.09
  12  0.876  0.713  0.428-   5 2.60  11 2.61  16 2.64   7 2.64  27 2.65   4 2.66  33 2.70   1 2.83
                            29 2.87
  13  0.373  0.219  0.439-  81 1.88   5 2.64  25 2.64  10 2.64  11 2.73  17 2.74   8 2.76   3 2.95
                            19 3.07  43 3.11
  14  0.377  0.714  0.423-   8 2.60  27 2.62  25 2.63   6 2.63  15 2.64  16 2.66  44 2.69  52 2.75
                            30 2.78
  15  0.628  0.464  0.422-  27 2.61  17 2.61   7 2.62  14 2.64   9 2.65  25 2.65  44 2.68  75 2.70
                            18 2.78
  16  0.126  0.713  0.427-   5 2.63  25 2.63   4 2.63  12 2.64   6 2.65  14 2.66  33 2.69  30 2.83
                             2 2.90
  17  0.631  0.215  0.420-   9 2.60  15 2.61   4 2.64  25 2.67  18 2.70  60 2.72  11 2.73  13 2.74
                            19 2.86
  18  0.547  0.374  0.317-  67 2.56  60 2.59  75 2.62  68 2.63  26 2.66  44 2.67  30 2.70  17 2.70
                            19 2.73  15 2.78   3 2.80  25 2.87
  19  0.534  0.122  0.317-  43 2.54  80 2.58  61 2.61   1 2.61  68 2.62  59 2.64   3 2.68  18 2.73
                            60 2.77  17 2.86  13 3.07  11 3.09
  20  0.547  0.124  0.040-  37 2.55  57 2.56  48 2.58  62 2.64  63 2.68  47 2.68  45 2.68  56 2.70
                            34 2.71
  21  0.121  0.460  0.128-  40 2.52  36 2.53  47 2.53  42 2.60  69 2.61  64 2.62  70 2.64  50 2.64
                            58 2.67  31 2.70  57 2.71  74 2.72
  22  0.042  0.137  0.314-  65 2.51  55 2.53  77 2.57  43 2.58  39 2.59  75 2.61  60 2.68   2 2.69
                            52 2.74  10 2.78   9 2.79   6 2.85  31 3.39
  23  0.042  0.130  0.033-  70 2.58  40 2.60  41 2.61  45 2.62  62 2.64  76 2.64  24 2.69  35 2.73
                            53 2.78
  24  0.130  0.958  0.132-  79 2.51  77 2.54  35 2.57  53 2.57  55 2.58  70 2.62  38 2.64  58 2.64
                            73 2.65  23 2.69  66 2.70  41 2.72
  25  0.377  0.465  0.426-  14 2.63  16 2.63  13 2.64  15 2.65  17 2.67   5 2.68  30 2.82   3 2.84
                            18 2.87
  26  0.455  0.546  0.219-  73 2.50  74 2.54  51 2.56  79 2.61  64 2.63  30 2.64  18 2.66  68 2.67
                            78 2.67  32 2.68  67 2.72  44 2.74
  27  0.626  0.712  0.423-  15 2.61  14 2.62   8 2.63   7 2.64  12 2.65  11 2.67  44 2.72  29 2.76
                            61 2.76
  28  0.956  0.790  0.221-  58 2.57  66 2.57  50 2.58  42 2.59  49 2.61  64 2.63   2 2.64   1 2.67
                            59 2.70  33 2.73  79 2.76  77 2.77
  29  0.794  0.624  0.319-  39 2.54  42 2.55  75 2.59  32 2.62  33 2.64  44 2.65  61 2.66   1 2.66
                            49 2.67  27 2.76   7 2.78  12 2.87
  30  0.291  0.630  0.318-  79 2.56  64 2.59  52 2.61  44 2.63  26 2.64  33 2.65   2 2.65  18 2.70
                             3 2.73  14 2.78  25 2.82  16 2.83
  31  0.203  0.281  0.225-  70 2.52  55 2.56  43 2.57  65 2.57  57 2.60  39 2.66   3 2.66  80 2.70
                            21 2.70  42 2.71  68 2.75  64 2.79  22 3.39
  32  0.706  0.549  0.221-  54 2.53  69 2.56  51 2.58  49 2.59  42 2.60  29 2.62  78 2.62  65 2.63
                            75 2.67  26 2.68  44 2.68  67 2.70
  33  0.040  0.631  0.326-   3 2.62  39 2.62  29 2.64  30 2.65   1 2.66   2 2.68  16 2.69  12 2.70
                            64 2.71   5 2.73  28 2.73  42 2.74
  34  0.797  0.862  0.042-  50 2.38  66 2.51  48 2.53  36 2.55  71 2.56  63 2.61  20 2.71  35 2.76
                            62 2.76
  35  0.056  0.866  0.038-  58 2.54  72 2.55  36 2.56  24 2.57  66 2.62  53 2.65  23 2.73  62 2.73
                            34 2.76
  36  0.046  0.628  0.037-  21 2.53  34 2.55  35 2.56  58 2.58  50 2.61  47 2.63  72 2.64  40 2.69
                            71 2.72
  37  0.627  0.222  0.129-  51 2.51  74 2.51  67 2.52  56 2.53  41 2.55  20 2.55  68 2.56  59 2.56
                            62 2.59  66 2.66  57 2.73  48 2.89
  38  0.382  0.955  0.130-  53 2.47  80 2.48  45 2.49  78 2.53  48 2.54  73 2.55  63 2.55  54 2.56
                            55 2.59  57 2.62  24 2.64  70 2.67
  39  0.036  0.385  0.324-  29 2.54   3 2.55  22 2.59  75 2.60  33 2.62  42 2.64  10 2.64  31 2.66
                             7 2.68  65 2.75   5 2.78  43 2.81
  40  0.031  0.382  0.038-  69 2.44  21 2.52  71 2.53  76 2.56  70 2.57  23 2.60  36 2.69  45 2.78
                            47 2.78
  41  0.872  0.215  0.128-  76 2.45  65 2.52  77 2.53  67 2.54  37 2.55  69 2.57  62 2.57  51 2.59
                            23 2.61  70 2.65  66 2.66  24 2.72
  42  0.955  0.545  0.224-  29 2.55  50 2.56  28 2.59  21 2.60  32 2.60  69 2.61  49 2.63  39 2.64
                            65 2.64  64 2.65  31 2.71  33 2.74
  43  0.297  0.115  0.320-  55 2.50  52 2.54  19 2.54  61 2.56   8 2.56  31 2.57  22 2.58  80 2.63
                             3 2.68  10 2.71  39 2.81  13 3.11
  44  0.540  0.630  0.321-  61 2.56  52 2.57  78 2.62  30 2.63  29 2.65  75 2.65  18 2.67  15 2.68
                            32 2.68  14 2.69  27 2.72  26 2.74
  45  0.295  0.119  0.039-  70 2.49  38 2.49  57 2.57  53 2.60  23 2.62  63 2.64  20 2.68  47 2.75
                            40 2.78
  46  0.548  0.625  0.044-  51 2.38  73 2.39  54 2.41  71 2.56  53 2.56  63 2.58  76 2.59  56 2.62
                            72 2.64
  47  0.296  0.379  0.039-  74 2.41  21 2.53  57 2.61  72 2.61  56 2.62  36 2.63  20 2.68  45 2.75
                            40 2.78
  48  0.625  0.950  0.132-  49 2.40  80 2.48  54 2.48  34 2.53  38 2.54  59 2.55  50 2.56  63 2.57
                            20 2.58  57 2.65  66 2.68  37 2.89
  49  0.706  0.794  0.220-  48 2.40  50 2.48  54 2.49  80 2.53  32 2.59  28 2.61  61 2.61  78 2.61
                            42 2.63   1 2.66  29 2.67  59 2.69
  50  0.866  0.706  0.129-  34 2.38  71 2.42  54 2.48  49 2.48  42 2.56  48 2.56  69 2.58  28 2.58
[...]
     12.969068  7.879772  0.925674            0           0           0
      5.163396  7.917194  0.830298            0           0           0
      3.807011  5.745024  0.813805            0           0           0
      7.798522  2.032451  2.832513            0           0           0
      9.077547  8.733730  2.857427            0           0           0
      2.409704  3.520725  7.123104            0           0           0
      2.344093  3.490514  0.825101            0           0           0
     10.348141  1.969830  2.822490            0           0           0
     12.960353  4.985870  4.925592            0           0           0
      3.744505  1.049385  7.031851            0           0           0
      9.031785  5.762221  7.065446            0           0           0
      3.748243  1.091821  0.867003            0           0           0
      9.091210  5.718673  0.960427            0           0           0
      5.124479  3.470454  0.855627            0           0           0
     11.620923  8.687580  2.905895            0           0           0
     11.653130  7.264496  4.842290            0           0           0
     12.867560  6.452796  2.833790            0           0           0
      9.042010  4.207796  2.796278            0           0           0
      7.761252  7.991189  6.977983            0           0           0
      7.813155  7.939223  0.886525            0           0           0
     10.391439  6.535663  2.821980            0           0           0
      2.513474  0.258257  5.000827            0           0           0
      7.742638  3.484538  0.761574            0           0           0
      5.078354  1.877603  2.917008            0           0           0
      5.160365  6.447147  2.899226            0           0           0
      7.708921  0.459858  4.847993            0           0           0
      9.054921  1.184532  6.961441            0           0           0
[...]
      9.073503  2.652522  4.913605            0           0           0
      6.371693  2.665576  4.858272            0           0           0
     11.658911  4.174860  2.814827            0           0           0
      2.440982  1.892366  2.832794            0           0           0
     11.649530  5.686214  0.885461            0           0           0
      6.447433  5.719494  0.925972            0           0           0
      7.829267  6.506514  2.836212            0           0           0
      6.419224  4.130068  2.782896            0           0           0
     10.371557  3.474222  7.034584            0           0           0
     10.344097  3.450125  0.868038            0           0           0
     10.370626  0.484098  4.871515            0           0           0
      9.040790  7.290173  4.936995            0           0           0
      6.462653  7.295032  4.940739            0           0           0
      5.042471  0.276335  4.884059            0           0           0
      5.734276  0.808012 10.962702    -0.000930   -0.034517    0.999404

   2 f  =   15.739561 THz    98.894581 2PiTHz  525.015241 cm-1    65.093617 meV
             X         Y         Z           dx          dy          dz
     12.944122  8.044095  7.034545            0           0           0
      5.105130  8.071386  6.939640            0           0           0
      4.955765  3.440424  7.092403            0           0           0
     14.363361  8.813854  9.307156            0           0           0
      3.753297  4.262289  9.445264            0           0           0
      6.429319  8.802699  9.260355            0           0           0
     11.697499  4.227820  9.371123            0           0           0
      9.039346  8.779083  9.166028            0           0           0
     10.397615  1.948863  9.251874            0           0           0
      2.478981  1.956460  9.251457            0           0           0
     11.731450  8.777552  9.680008            0           0           0
     13.018368  6.517584  9.419479            0           0           0
      5.089158  2.000850  9.665862            0           0           0
      7.752121  6.527712  9.303672            0           0           0
      9.080069  4.246105  9.273470            0           0           0
      5.093894  6.521250  9.385794            0           0           0
      7.798499  1.968340  9.245684            0           0           0
      7.757715  3.423197  6.966393            0           0           0
      6.284879  1.119586  6.976911            0           0           0
      6.428579  1.129740  0.878720            0           0           0
      3.705484  4.208436  2.816869            0           0           0
      1.172458  1.255286  6.905692            0           0           0
      1.135691  1.190800  0.725566            0           0           0
      6.436066  8.760995  2.900314            0           0           0
      6.433297  4.255662  9.373724            0           0           0
      7.681351  4.990728  4.814740            0           0           0
     10.372729  6.514856  9.303147            0           0           0
     14.264242  7.225928  4.862987            0           0           0
     11.680259  5.704302  7.012016            0           0           0
      6.398542  5.760681  6.995059            0           0           0
      3.621194  2.565893  4.960228            0           0           0
     10.360912  5.024302  4.856517            0           0           0
      3.758815  5.770121  7.171235            0           0           0
     12.969068  7.879772  0.925674            0           0           0
      5.163396  7.917194  0.830298            0           0           0
      3.807011  5.745024  0.813805            0           0           0
      7.798522  2.032451  2.832513            0           0           0
      9.077547  8.733730  2.857427            0           0           0
      2.409704  3.520725  7.123104            0           0           0
      2.344093  3.490514  0.825101            0           0           0
     10.348141  1.969830  2.822490            0           0           0
     12.960353  4.985870  4.925592            0           0           0
      3.744505  1.049385  7.031851            0           0           0
      9.031785  5.762221  7.065446            0           0           0
      3.748243  1.091821  0.867003            0           0           0
      9.091210  5.718673  0.960427            0           0           0
      5.124479  3.470454  0.855627            0           0           0
     11.620923  8.687580  2.905895            0           0           0
     11.653130  7.264496  4.842290            0           0           0
     12.867560  6.452796  2.833790            0           0           0
      9.042010  4.207796  2.796278            0           0           0
      7.761252  7.991189  6.977983            0           0           0
      7.813155  7.939223  0.886525            0           0           0
     10.391439  6.535663  2.821980            0           0           0
      2.513474  0.258257  5.000827            0           0           0
      7.742638  3.484538  0.761574            0           0           0
      5.078354  1.877603  2.917008            0           0           0
      5.160365  6.447147  2.899226            0           0           0
      7.708921  0.459858  4.847993            0           0           0
      9.054921  1.184532  6.961441            0           0           0
[...]
      9.073503  2.652522  4.913605            0           0           0
      6.371693  2.665576  4.858272            0           0           0
     11.658911  4.174860  2.814827            0           0           0
      2.440982  1.892366  2.832794            0           0           0
     11.649530  5.686214  0.885461            0           0           0
      6.447433  5.719494  0.925972            0           0           0
      7.829267  6.506514  2.836212            0           0           0
      6.419224  4.130068  2.782896            0           0           0
     10.371557  3.474222  7.034584            0           0           0
     10.344097  3.450125  0.868038            0           0           0
     10.370626  0.484098  4.871515            0           0           0
      9.040790  7.290173  4.936995            0           0           0
      6.462653  7.295032  4.940739            0           0           0
      5.042471  0.276335  4.884059            0           0           0
      5.734276  0.808012 10.962702     0.493548   -0.869216   -0.029561

   3 f/i=    3.057909 THz    19.213412 2PiTHz  102.000877 cm-1    12.646501 meV
             X         Y         Z           dx          dy          dz
     12.944122  8.044095  7.034545            0           0           0
      5.105130  8.071386  6.939640            0           0           0
      4.955765  3.440424  7.092403            0           0           0
     14.363361  8.813854  9.307156            0           0           0
      3.753297  4.262289  9.445264            0           0           0
      6.429319  8.802699  9.260355            0           0           0
     11.697499  4.227820  9.371123            0           0           0
      9.039346  8.779083  9.166028            0           0           0
     10.397615  1.948863  9.251874            0           0           0
      2.478981  1.956460  9.251457            0           0           0
     11.731450  8.777552  9.680008            0           0           0
     13.018368  6.517584  9.419479            0           0           0
      5.089158  2.000850  9.665862            0           0           0
      7.752121  6.527712  9.303672            0           0           0
      9.080069  4.246105  9.273470            0           0           0
      5.093894  6.521250  9.385794            0           0           0
      7.798499  1.968340  9.245684            0           0           0
      7.757715  3.423197  6.966393            0           0           0
      6.284879  1.119586  6.976911            0           0           0
      6.428579  1.129740  0.878720            0           0           0
      3.705484  4.208436  2.816869            0           0           0
      1.172458  1.255286  6.905692            0           0           0
      1.135691  1.190800  0.725566            0           0           0
      6.436066  8.760995  2.900314            0           0           0
      6.433297  4.255662  9.373724            0           0           0
      7.681351  4.990728  4.814740            0           0           0
     10.372729  6.514856  9.303147            0           0           0
     14.264242  7.225928  4.862987            0           0           0
     11.680259  5.704302  7.012016            0           0           0
      6.398542  5.760681  6.995059            0           0           0
      3.621194  2.565893  4.960228            0           0           0
     10.360912  5.024302  4.856517            0           0           0
      3.758815  5.770121  7.171235            0           0           0
     12.969068  7.879772  0.925674            0           0           0
      5.163396  7.917194  0.830298            0           0           0
      3.807011  5.745024  0.813805            0           0           0
      7.798522  2.032451  2.832513            0           0           0
      9.077547  8.733730  2.857427            0           0           0
      2.409704  3.520725  7.123104            0           0           0
      2.344093  3.490514  0.825101            0           0           0
     10.348141  1.969830  2.822490            0           0           0
     12.960353  4.985870  4.925592            0           0           0
      3.744505  1.049385  7.031851            0           0           0
      9.031785  5.762221  7.065446            0           0           0
      3.748243  1.091821  0.867003            0           0           0
      9.091210  5.718673  0.960427            0           0           0
      5.124479  3.470454  0.855627            0           0           0
     11.620923  8.687580  2.905895            0           0           0
     11.653130  7.264496  4.842290            0           0           0
     12.867560  6.452796  2.833790            0           0           0
      9.042010  4.207796  2.796278            0           0           0
      7.761252  7.991189  6.977983            0           0           0
      7.813155  7.939223  0.886525            0           0           0
     10.391439  6.535663  2.821980            0           0           0
      2.513474  0.258257  5.000827            0           0           0
      7.742638  3.484538  0.761574            0           0           0
      5.078354  1.877603  2.917008            0           0           0
      5.160365  6.447147  2.899226            0           0           0
      7.708921  0.459858  4.847993            0           0           0
      9.054921  1.184532  6.961441            0           0           0
[...]
      9.073503  2.652522  4.913605            0           0           0
      6.371693  2.665576  4.858272            0           0           0
     11.658911  4.174860  2.814827            0           0           0
      2.440982  1.892366  2.832794            0           0           0
     11.649530  5.686214  0.885461            0           0           0
      6.447433  5.719494  0.925972            0           0           0
      7.829267  6.506514  2.836212            0           0           0
      6.419224  4.130068  2.782896            0           0           0
     10.371557  3.474222  7.034584            0           0           0
     10.344097  3.450125  0.868038            0           0           0
     10.370626  0.484098  4.871515            0           0           0
      9.040790  7.290173  4.936995            0           0           0
      6.462653  7.295032  4.940739            0           0           0
      5.042471  0.276335  4.884059            0           0           0
      5.734276  0.808012 10.962702     0.869718    0.493226    0.017845

 Finite differences POTIM=  1.500000000000000E-002
  LATTYP: Found a hexagonal cell.
 ALAT       =    10.5600004196
 C/A-ratio  =     2.0833332505

  Lattice vectors:

 A1 = (   5.2800002098,  -9.1452286274,   0.0000000000)
 A2 = ( -10.5600004196,   0.0000000000,   0.0000000000)
 A3 = (   0.0000000000,   0.0000000000, -22.0000000000)

Analysis of symmetry for initial positions (statically):
 Subroutine PRICEL returns:
 Original cell was already a primitive cell.

[...]

The static configuration has the point symmetry C_1 .

Analysis of symmetry for dynamics (positions and initial velocities):
 Subroutine PRICEL returns:
 Original cell was already a primitive cell.

[...]

The dynamic configuration has the point symmetry C_1 .

Analysis of constrained symmetry for selective dynamics:
 Subroutine PRICEL returns:
 Original cell was already a primitive cell.

[...]

The constrained configuration has the point symmetry C_1 .

Analysis of structural, dynamic, and magnetic symmetry:
 Subroutine PRICEL returns:
 Original cell was already a primitive cell.

 Routine SETGRP: Setting up the symmetry group for a
 hexagonal supercell.

 Subroutine GETGRP returns: Found  1 space group operations
 (whereof  1 operations were pure point group operations)
 out of a pool of 24 trial point group operations.

The magnetic configuration has the point symmetry C_1 .

 Subroutine INISYM returns: Found  1 space group operations
 (whereof  1 operations are pure point group operations),
 and found     1 'primitive' translations

 KPOINTS: mesh auto

Automatic generation of k-mesh.
Space group operators:
 irot       det(A)        alpha          n_x          n_y          n_z        tau_x        tau_y        tau_z
    1     1.000000     0.000001     1.000000     0.000000     0.000000     0.000000     0.000000     0.000000

 Subroutine IBZKPT returns following result:

 Found      4 irreducible k-points:

 Following reciprocal coordinates:
            Coordinates               Weight
  0.000000  0.000000  0.000000      1.000000
  0.500000  0.000000  0.000000      1.000000
  0.000000  0.500000  0.000000      1.000000
  0.500000  0.500000  0.000000      1.000000

 Following cartesian coordinates:
            Coordinates               Weight
  0.000000  0.000000  0.000000      1.000000
  0.047348 -0.027337  0.000000      1.000000
  0.000000  0.054673  0.000000      1.000000
  0.047348  0.027337  0.000000      1.000000

 TETIRR: Found     12 inequivalent tetrahedra from       24
 BZINTS: Fermi energy:  2.025855;782.000000 electrons
         Band energy:-721.352600;  BLOECHL correction: -0.085489