 vasp.5.4.4.18Apr17-6-g9f103f2a35 (build Nov 06 2019 15:09:28) complex

 executed on             LinuxIFC date 2021.12.14  23:39:14

 INCAR:
 POTCAR:    PAW_PBE Pt 04Feb2005
 POTCAR:    PAW_PBE H 15Jun2001
 POTCAR:    PAW_PBE Pt 04Feb2005
   VRHFIN =Pt: s1d9

   TITEL  = PAW_PBE Pt 04Feb2005
   POMASS =  195.080; ZVAL   =   10.000    mass and valenz
   ENMAX  =  230.283; ENMIN  =  172.712 eV

 POTCAR:    PAW_PBE H 15Jun2001
   VRHFIN =H: ultrasoft test

   TITEL  = PAW_PBE H 15Jun2001
   POMASS =    1.000; ZVAL   =    1.000    mass and valenz
   ENMAX  =  250.000; ENMIN  =  200.000 eV

 Optimization of the real space projectors (new method)

 maximal supplied QI-value         = 14.36
 optimisation between [QCUT,QGAM] = [ 11.92, 23.98] = [ 39.79,161.09] Ry
 Optimized for a Real-space Cutoff    1.49 Angstroem

   l    n(q)    QCUT    max X(q) W(low)/X(q) W(high)/X(q)  e(spline)
   2     10    11.920    66.195    0.79E-04    0.18E-03    0.24E-06
   2     10    11.920    64.643    0.81E-04    0.19E-03    0.24E-06
   0     11    11.920    95.520    0.28E-04    0.54E-04    0.18E-06
   0     11    11.920    63.403    0.27E-04    0.52E-04    0.17E-06
   1     10    11.920    19.961    0.18E-04    0.11E-03    0.23E-06
   1     10    11.920    13.289    0.25E-04    0.87E-04    0.19E-06
 Optimization of the real space projectors (new method)

 maximal supplied QI-value         = 34.20
 optimisation between [QCUT,QGAM] = [ 11.97, 23.94] = [ 40.13,160.53] Ry
 Optimized for a Real-space Cutoff    1.18 Angstroem

   l    n(q)    QCUT    max X(q) W(low)/X(q) W(high)/X(q)  e(spline)
   0      8    11.971    19.460    0.15E-03    0.31E-03    0.25E-06
   0      8    11.971    12.209    0.13E-03    0.29E-03    0.25E-06
   1      8    11.971     4.655    0.22E-03    0.24E-03    0.21E-06
  PAW_PBE Pt 04Feb2005                  :
  PAW_PBE H 15Jun2001                   :

 POSCAR: Pt   H
  positions in direct lattice
  velocities in cartesian coordinates
 exchange correlation table for  LEXCH =        8
   RHO(1)=    0.500       N(1)  =     2000
   RHO(2)=  100.500       N(2)  =     4000

 VTST: version 3.2, (02/03/18)

 CHAIN: initializing optimizer

 OPT: Using VASP QUASI-newton optimizer
 CHAIN: Read ICHAIN            0
 CHAIN: Running the NEB
 NEB:          SPRING     -5.000000
 NEB:          LCLIMB      T
 NEB:     LTANGENTOLD      F
 NEB:           LDNEB      F
 NEB:        LDNEBORG      F
 NEB:        LNEBCELL      F
 NEB:          EFIRST      0.000000
 NEB:           ELAST      0.000000

 POSCAR: Pt   H
  positions in direct lattice

 POSCAR: Pt   H
  positions in direct lattice

 ion  position               nearest neighbor table
   1  0.785  0.869  0.326-  55 2.76  71 2.76  20 2.76  72 2.80   2 2.80  73 2.80  43 2.80  56 2.80
                             3 2.81  34 2.84  35 2.84  27 2.85
   2  0.035  0.869  0.326-  65 2.76  55 2.76  68 2.76   1 2.80  57 2.80  72 2.80  47 2.80   3 2.81
                            23 2.81  27 2.84  39 2.84  29 2.85
   3  0.035  0.619  0.326-  55 2.76  12 2.76  76 2.76  56 2.80  57 2.80   9 2.80   1 2.81   2 2.81
                            15 2.81  35 2.83  28 2.84  39 2.85
   4  0.785  0.869  0.021-  21 2.79  19 2.79  78 2.80  74 2.80   5 2.80  44 2.80   6 2.80  58 2.80
                            75 2.80
   5  0.035  0.869  0.021-  70 2.79  78 2.79  49 2.79   4 2.80  74 2.80   6 2.80  59 2.81  24 2.81
                            48 2.82
   6  0.035  0.619  0.021-  46 2.79  70 2.79  21 2.79   5 2.80   4 2.80  58 2.81  59 2.81  18 2.81
                            10 2.82
   7  0.619  0.202  0.124-  80 2.73  79 2.73  71 2.74  74 2.79  44 2.79  42 2.79  19 2.81  78 2.81
                            53 2.81  61 2.81  11 2.81  22 2.81
   8  0.368  0.952  0.124-  66 2.73  69 2.74  26 2.74  16 2.79  75 2.79  24 2.79  53 2.80  60 2.80
                            54 2.80  49 2.81  25 2.81  19 2.81
   9  0.036  0.369  0.326-  77 2.76  62 2.76  12 2.76  15 2.79  63 2.80  13 2.80  56 2.80   3 2.80
                            47 2.81  30 2.83  33 2.84  28 2.84
  10  0.036  0.368  0.021-  46 2.79  45 2.79  16 2.79  48 2.79  54 2.80  18 2.80  64 2.81   6 2.82
                            58 2.82
  11  0.869  0.202  0.124-  79 2.73  65 2.74  77 2.74  48 2.79  74 2.79  64 2.79  49 2.80  22 2.80
                            54 2.80  45 2.81   7 2.81  78 2.81
  12  0.952  0.535  0.225-  46 2.74  21 2.74  45 2.74  56 2.75   3 2.76   9 2.76  62 2.80  76 2.80
                            67 2.81  77 2.81  55 2.81  20 2.81
  13  0.285  0.119  0.326-  26 2.76  69 2.76  62 2.76  15 2.79  23 2.79   9 2.80  73 2.80  43 2.81
                            47 2.81  31 2.83  33 2.84  36 2.84
  14  0.536  0.619  0.325-  66 2.74  67 2.74  51 2.75  37 2.79  38 2.79  56 2.80  73 2.80  63 2.82
                            23 2.82  41 2.82  57 2.82  52 2.84
  15  0.284  0.368  0.325-  62 2.73  80 2.75  76 2.75   9 2.79  13 2.79   3 2.81  43 2.81  57 2.82
                            41 2.82  50 2.83  28 2.85  36 2.85
  16  0.284  0.119  0.021-  53 2.79   8 2.79  48 2.79  10 2.79  54 2.80  18 2.80  24 2.81  44 2.82
                            75 2.82
  17  0.535  0.619  0.021-  22 2.79  60 2.79  25 2.79  59 2.80  42 2.80  64 2.81  24 2.81  58 2.81
                            75 2.81
  18  0.285  0.369  0.021-  61 2.79  53 2.79  46 2.79  16 2.80  10 2.80   6 2.81  44 2.81  42 2.81
                            59 2.81
  19  0.619  0.952  0.124-  20 2.73  71 2.74  69 2.74  75 2.79  44 2.79   4 2.79  78 2.80  21 2.80
                             7 2.81  25 2.81  53 2.81   8 2.81
  20  0.702  0.786  0.225-  19 2.73  21 2.73  25 2.74  73 2.76  56 2.76   1 2.76  55 2.80  71 2.80
                            67 2.80  66 2.80  12 2.81  69 2.81
  21  0.868  0.702  0.124-  20 2.73  55 2.74  12 2.74  58 2.79   6 2.79   4 2.79  78 2.80  19 2.80
                            70 2.80  46 2.81  25 2.81  45 2.81
  22  0.619  0.452  0.124-  51 2.73  67 2.74  79 2.74  64 2.79  42 2.79  17 2.79  11 2.80  45 2.80
                            25 2.81   7 2.81  61 2.81  60 2.81
  23  0.284  0.870  0.325-  26 2.73  66 2.76  68 2.76  47 2.79  13 2.79  37 2.80   2 2.81  73 2.81
                            14 2.82  57 2.82  31 2.85  29 2.85
  24  0.285  0.869  0.021-  60 2.79   8 2.79  49 2.79  59 2.80  48 2.81  16 2.81  17 2.81  75 2.81
                             5 2.81
  25  0.618  0.702  0.124-  67 2.73  66 2.73  20 2.74  58 2.78  75 2.79  17 2.79  19 2.81  60 2.81
                            21 2.81  22 2.81   8 2.81  45 2.81
  26  0.202  0.035  0.225-  23 2.73  54 2.73  49 2.74   8 2.74  13 2.76  47 2.76  68 2.80  66 2.80
                            69 2.81  65 2.81  62 2.81  77 2.82
  27  0.869  0.953  0.432-  97 1.85  87 1.85  96 1.85  35 2.80  34 2.80  32 2.80  29 2.81  39 2.82
                            40 2.82   2 2.84  72 2.84   1 2.85
  28  0.120  0.453  0.432-  90 1.85  89 1.85  88 1.86  36 2.80  39 2.80  35 2.81  33 2.81  30 2.82
                            50 2.82   3 2.84   9 2.84  15 2.85
  29  0.119  0.952  0.433-  84 1.83  94 1.85  97 1.86  39 2.80  31 2.80  27 2.81  33 2.81  32 2.81
                            37 2.82  47 2.84   2 2.85  23 2.85
  30  0.869  0.452  0.432-  83 1.80  93 1.85  89 1.86  32 2.80  33 2.80  52 2.81  35 2.81  28 2.82
                            38 2.83   9 2.83  56 2.84  63 2.85
  31  0.369  0.953  0.432-  85 1.80  94 1.85  95 1.86  29 2.80  33 2.81  52 2.81  34 2.81  36 2.82
                            37 2.83  13 2.83  73 2.84  23 2.85
  32  0.869  0.203  0.433-  92 1.83  93 1.85  97 1.86  40 2.80  30 2.80  27 2.80  33 2.81  29 2.81
                            38 2.82  47 2.84  72 2.85  63 2.85
  33  0.119  0.203  0.432-  90 1.85  93 1.86  94 1.86  30 2.80  31 2.81  32 2.81  29 2.81  36 2.81
                            28 2.81  13 2.84   9 2.84  47 2.84
  34  0.619  0.953  0.432-  96 1.85  95 1.85  86 1.85  27 2.80  36 2.81  31 2.81  35 2.81  40 2.81
                            52 2.82  43 2.83   1 2.84  73 2.85
  35  0.869  0.702  0.432-  87 1.85  89 1.85  86 1.85  27 2.80  28 2.81  30 2.81  34 2.81  39 2.82
                            52 2.82   3 2.83   1 2.84  56 2.85
  36  0.369  0.203  0.432-  90 1.85  95 1.85  91 1.86  28 2.80  40 2.80  34 2.81  33 2.81  31 2.82
                            50 2.82  43 2.84  13 2.84  15 2.85
  37  0.370  0.700  0.428-  84 1.90  85 1.94  50 2.76  38 2.77  14 2.79  57 2.79  39 2.79  23 2.80
                            52 2.80  29 2.82  31 2.83
  38  0.617  0.453  0.428-  92 1.90  83 1.94  50 2.76  37 2.77  14 2.79  41 2.79  40 2.79  63 2.80
                            52 2.80  32 2.82  30 2.83
  39  0.121  0.702  0.432-  84 1.83  88 1.85  87 1.86  37 2.79  50 2.79  28 2.80  29 2.80  35 2.82
                            27 2.82   2 2.84  57 2.84   3 2.85
  40  0.618  0.204  0.432-  92 1.83  91 1.85  96 1.86  38 2.79  50 2.79  36 2.80  32 2.80  34 2.81
                            27 2.82  72 2.84  41 2.85  43 2.85
  41  0.535  0.368  0.325-  80 2.74  79 2.74  51 2.75  38 2.79  50 2.79  43 2.80  72 2.80  57 2.81
                            15 2.82  63 2.82  14 2.82  40 2.85
  42  0.535  0.369  0.021-  61 2.79  22 2.79   7 2.79  17 2.80  64 2.80  59 2.81  44 2.81  74 2.81
                            18 2.81
  43  0.535  0.119  0.326-  71 2.76  69 2.76  80 2.76  73 2.80  41 2.80   1 2.80  72 2.81  13 2.81
                            15 2.81  34 2.83  36 2.84  40 2.85
  44  0.535  0.118  0.021-  53 2.79   7 2.79  19 2.79  74 2.80   4 2.80  75 2.80  42 2.81  18 2.81
                            16 2.82
  45  0.869  0.452  0.124-  67 2.73  12 2.74  77 2.74  10 2.79  58 2.79  64 2.79  46 2.80  54 2.80
                            22 2.80  11 2.81  21 2.81  25 2.81
  46  0.118  0.452  0.124-  12 2.74  76 2.74  62 2.74  10 2.79   6 2.79  18 2.79  45 2.80  61 2.80
                            21 2.81  54 2.81  70 2.81  53 2.81
  47  0.035  0.119  0.327-  26 2.76  77 2.76  65 2.76  23 2.79  63 2.79   2 2.80  72 2.81  13 2.81
                             9 2.81  33 2.84  32 2.84  29 2.84
  48  0.036  0.119  0.022-  49 2.79  11 2.79  16 2.79  10 2.79  54 2.79  24 2.81  64 2.81   5 2.82
                            74 2.82
  49  0.118  0.952  0.124-  68 2.73  65 2.74  26 2.74  48 2.79   5 2.79  24 2.79  11 2.80  60 2.80
                            54 2.81  78 2.81  70 2.81   8 2.81
  50  0.371  0.454  0.429-  91 1.86  88 1.86  38 2.76  37 2.76  40 2.79  57 2.79  41 2.79  39 2.79
                            28 2.82  36 2.82  15 2.83
  51  0.452  0.536  0.224-  60 2.73  22 2.73  61 2.73  14 2.75  41 2.75  57 2.75  76 2.81  80 2.81
                            66 2.81  67 2.81  68 2.81  79 2.81
  52  0.619  0.702  0.431-  83 1.83  85 1.83  86 1.86  37 2.80  38 2.80  31 2.81  30 2.81  35 2.82
                            34 2.82  56 2.83  73 2.83  14 2.84
  53  0.369  0.202  0.124-  69 2.74  80 2.74  62 2.74  16 2.79  44 2.79  18 2.79   8 2.80  61 2.80
                            19 2.81   7 2.81  54 2.81  46 2.81
  54  0.118  0.202  0.125-  62 2.72  77 2.73  26 2.73  48 2.79  16 2.80  10 2.80  45 2.80  11 2.80
                             8 2.80  49 2.81  46 2.81  53 2.81
  55  0.952  0.785  0.225-  78 2.73  21 2.74  70 2.74   3 2.76   1 2.76   2 2.76  20 2.80  68 2.80
[...]
   -.546E+00 -.214E+00 -.247E+04   0.569E+00 0.175E+00 0.247E+04   -.171E-01 0.388E-01 -.308E+00   -.295E-02 -.126E-02 0.550E-03
   -.192E+01 0.132E+01 -.247E+04   0.172E+01 -.125E+01 0.247E+04   0.196E+00 -.750E-01 -.376E+00   0.426E-04 -.421E-03 0.347E-02
   0.255E+00 -.239E+01 -.247E+04   -.289E+00 0.218E+01 0.247E+04   0.321E-01 0.206E+00 -.373E+00   -.588E-03 0.112E-03 0.295E-02
   -.533E+00 -.356E+00 -.247E+04   0.509E+00 0.397E+00 0.247E+04   0.259E-01 -.361E-01 -.304E+00   -.232E-02 -.261E-02 0.101E-02
   -.880E+00 -.493E+00 -.247E+04   0.901E+00 0.507E+00 0.247E+04   -.189E-01 -.114E-01 -.803E-01   -.635E-03 -.908E-03 0.295E-02
   -.240E+00 0.828E+00 -.247E+04   0.271E+00 -.764E+00 0.247E+04   -.386E-01 -.686E-01 -.238E+00   0.300E-02 0.147E-02 0.255E-02
   0.503E+00 -.570E+00 -.247E+04   -.432E+00 0.564E+00 0.247E+04   -.782E-01 0.158E-02 -.236E+00   0.302E-02 0.227E-02 0.261E-02
   -.110E+00 -.787E+00 -.247E+04   0.957E-01 0.771E+00 0.247E+04   0.134E-01 0.159E-01 -.167E+00   0.210E-02 0.239E-03 0.295E-02
   0.114E+00 -.159E+00 -.244E+04   -.412E+00 -.358E+00 0.244E+04   0.304E+00 0.510E+00 0.167E+01   -.282E-02 0.384E-03 0.129E-02
   -.231E+00 0.509E-01 -.244E+04   -.370E+00 -.566E-01 0.244E+04   0.597E+00 0.129E-01 0.168E+01   -.155E-02 -.204E-02 0.176E-02
   0.597E+01 -.177E+01 -.247E+04   -.575E+01 0.168E+01 0.247E+04   -.218E+00 0.854E-01 -.333E+00   -.546E-03 0.183E-02 0.694E-03
   0.142E+01 0.605E+01 -.247E+04   -.138E+01 -.582E+01 0.247E+04   -.353E-01 -.231E+00 -.338E+00   0.834E-03 -.167E-02 0.110E-02
   -.877E-01 0.476E+01 -.121E+04   0.316E-02 -.482E+01 0.121E+04   0.850E-01 0.670E-01 0.631E+00   0.304E-03 -.233E-02 -.132E-02
   0.452E+00 0.112E+01 0.260E+04   -.443E+00 -.110E+01 -.260E+04   -.140E-01 -.316E-01 -.143E+01   0.472E-02 0.278E-02 0.939E-03
   -.332E+00 0.155E+01 -.123E+04   0.330E+00 -.160E+01 0.123E+04   -.126E-02 0.515E-01 0.671E+00   0.457E-02 0.166E-03 0.257E-03
   0.207E+01 -.670E+00 0.260E+04   -.205E+01 0.648E+00 -.260E+04   -.287E-01 0.188E-01 -.145E+01   0.976E-02 0.259E-02 -.112E-02
   -.284E+00 0.169E+00 0.135E+04   0.304E+00 -.158E+00 -.135E+04   -.142E-01 -.768E-02 -.714E+00   -.396E-02 -.213E-02 -.300E-02
   0.130E+00 0.205E+00 0.135E+04   -.137E+00 -.173E+00 -.135E+04   0.766E-02 -.388E-01 -.725E+00   0.206E-02 0.705E-02 -.156E-02
   0.665E+00 0.216E+00 -.123E+04   -.714E+00 -.245E+00 0.123E+04   0.565E-01 0.346E-01 0.618E+00   -.480E-02 -.372E-02 -.343E-02
   0.335E+01 0.171E+01 0.260E+04   -.328E+01 -.167E+01 -.260E+04   -.710E-01 -.385E-01 -.146E+01   -.948E-02 -.255E-02 0.196E-02
   -.495E-01 -.920E+00 0.135E+04   0.317E-01 0.920E+00 -.135E+04   0.283E-01 0.341E-02 -.720E+00   -.954E-02 -.261E-02 -.309E-03
   -.114E+01 -.791E+00 -.245E+04   0.173E+01 0.113E+01 0.245E+04   -.580E+00 -.333E+00 0.372E+00   -.237E-03 0.178E-03 0.158E-02
   -.232E-01 0.671E-01 0.660E+02   0.257E-01 -.659E-01 -.662E+02   0.696E-03 -.114E-02 0.215E+00   -.254E-02 -.326E-04 -.309E-02
   -.599E+01 -.338E+01 -.246E+04   0.573E+01 0.322E+01 0.246E+04   0.256E+00 0.152E+00 -.425E+00   0.197E-03 0.656E-03 0.367E-02
   0.345E+00 0.130E+00 0.135E+04   -.318E+00 -.158E+00 -.135E+04   -.298E-01 0.251E-01 -.724E+00   0.424E-02 0.404E-02 0.656E-03
   0.450E+00 0.447E+00 0.134E+04   -.457E+00 -.454E+00 -.134E+04   0.195E-01 0.107E-01 -.106E+01   -.917E-02 -.125E-02 -.194E-03
   0.724E+00 -.714E+00 0.536E+02   -.774E+00 0.726E+00 -.537E+02   0.457E-01 -.166E-01 0.905E-01   0.580E-02 0.465E-02 -.241E-02
   -.192E+01 -.101E+01 -.123E+04   0.198E+01 0.102E+01 0.122E+04   -.668E-01 -.181E-01 0.665E+00   0.217E-02 0.802E-03 -.335E-03
   0.400E+01 -.248E+01 -.121E+04   -.409E+01 0.243E+01 0.121E+04   0.101E+00 0.399E-01 0.627E+00   -.234E-02 0.267E-02 -.224E-02
   -.709E+00 0.234E+01 0.260E+04   0.718E+00 -.228E+01 -.260E+04   -.669E-02 -.575E-01 -.144E+01   -.451E-03 -.217E-02 -.976E-03
   0.125E+01 0.682E-01 0.260E+04   -.121E+01 -.680E-01 -.260E+04   -.391E-01 -.186E-02 -.143E+01   0.276E-03 0.229E-02 0.181E-02
   0.161E+00 -.858E-01 0.136E+04   -.155E+00 0.967E-01 -.135E+04   0.157E-02 -.858E-02 -.731E+00   -.685E-02 -.220E-02 -.333E-02
[...]
   -.217E+01 0.823E+00 -.304E+03   0.234E+01 -.916E+00 0.305E+03   -.167E+00 0.837E-01 -.148E+01   -.205E-03 0.355E-04 0.239E-03
   0.254E+01 0.118E+01 -.303E+03   -.278E+01 -.141E+01 0.304E+03   0.221E+00 0.194E+00 -.147E+01   -.171E-03 0.111E-03 0.494E-03
   0.286E+00 0.190E+00 -.304E+03   -.328E+00 -.216E+00 0.305E+03   0.367E-01 0.228E-01 -.147E+01   0.295E-03 0.199E-03 0.527E-03
   -.247E+00 0.122E+00 -.304E+03   0.283E+00 -.125E+00 0.305E+03   -.330E-01 0.359E-02 -.147E+01   0.833E-04 0.209E-03 0.220E-03
   -.619E+00 0.134E+01 -.304E+03   0.662E+00 -.141E+01 0.306E+03   -.339E-01 0.689E-01 -.148E+01   0.192E-05 0.114E-03 0.319E-03
   0.169E-01 0.252E+00 -.304E+03   -.306E-01 -.276E+00 0.306E+03   0.132E-01 0.261E-01 -.147E+01   0.156E-03 0.123E-03 0.510E-03
   -.625E-01 -.568E-01 -.304E+03   0.586E-01 0.557E-01 0.306E+03   0.784E-02 0.361E-02 -.148E+01   0.209E-03 0.926E-04 0.572E-03
   0.879E+00 -.121E+01 -.304E+03   -.917E+00 0.128E+01 0.306E+03   0.437E-01 -.633E-01 -.148E+01   0.624E-04 -.615E-04 0.327E-03
   -.413E+00 -.228E+01 -.304E+03   0.423E+00 0.248E+01 0.305E+03   -.129E-01 -.186E+00 -.148E+01   -.927E-04 -.210E-03 0.292E-03
   -.292E+00 -.191E+00 -.304E+03   0.322E+00 0.197E+00 0.306E+03   -.275E-01 -.382E-02 -.148E+01   -.179E-03 -.508E-04 0.554E-03
   -.341E+00 -.178E+00 -.304E+03   0.363E+00 0.203E+00 0.306E+03   -.194E-01 -.230E-01 -.148E+01   -.109E-03 -.183E-03 0.511E-03
   0.241E+00 -.994E-01 -.304E+03   -.269E+00 0.988E-01 0.306E+03   0.297E-01 -.969E-03 -.147E+01   0.151E-03 0.542E-04 0.473E-03
   -.518E-01 -.243E+00 -.304E+03   0.680E-01 0.273E+00 0.305E+03   -.149E-01 -.287E-01 -.147E+01   0.198E-03 -.614E-04 0.227E-03
   -.129E+00 -.979E-01 -.304E+03   0.152E+00 0.113E+00 0.306E+03   -.220E-01 -.147E-01 -.148E+01   -.238E-03 -.177E-03 0.220E-03
   -.932E+00 -.546E+00 0.450E+02   0.136E-13 0.265E-12 -.705E-11   0.940E+00 0.546E+00 -.449E+02   -.428E-05 0.712E-05 -.196E-01

 POSITION                                       TOTAL-FORCE (eV/Angst)
     13.69102      8.44666      7.17617         0.000215      0.000586     -0.000152
      5.27064      8.44561      7.17789         0.000479      0.001618     -0.004089
      3.86795      6.01530      7.17461         0.000253      0.002664     -0.000980
     13.68737      8.44383      0.45941         0.001081      0.000112     -0.008209
      5.26504      8.44330      0.46726        -0.002520     -0.000572     -0.005263
      3.86628      6.01616      0.46595        -0.000462      0.002635     -0.003920
      8.07514      1.96355      2.73595         0.000512      0.000165     -0.004418
      9.47727      9.25546      2.73520         0.002138      0.000880     -0.007168
      2.46893      3.58416      7.17919         0.003043      0.001580     -0.000630
      2.46362      3.57547      0.46799         0.000190     -0.001085     -0.002930
     10.88127      1.96318      2.73736         0.000846     -0.000075     -0.008644
     13.68859      5.20219      4.94055         0.001610      0.001562     -0.002997
      3.86881      1.15801      7.17945         0.002649      0.002971     -0.001016
      9.48954      6.01998      7.14472         0.006075      0.003583     -0.021147
      5.25567      3.57550      7.15277        -0.003426     -0.001867     -0.001913
      3.85786      1.15878      0.46950        -0.001021      0.001369     -0.003377
      9.47645      6.01212      0.46228         0.000596      0.000500     -0.003286
      5.26743      3.58247      0.46182         0.002327      0.001334     -0.003849
     12.28475      9.25302      2.73733         0.002182      0.000466     -0.004538
     12.28610      7.63480      4.93987         0.002471      0.001609     -0.003707
     13.68694      6.82495      2.73721         0.001644      0.001793     -0.003758
      9.48101      4.39250      2.73173         0.001162      0.000061     -0.007481
      8.07719      8.46006      7.15975         0.001255      0.022994     -0.027255
      8.07484      8.44365      0.46279        -0.000280     -0.002151     -0.005635
     10.88113      6.82435      2.73478         0.001618      0.000578     -0.003738
      2.46372      0.33790      4.95026         0.002943      0.006380     -0.012240
     15.09905      9.25830      9.51138         0.000759     -0.000221     -0.002258
      3.88557      4.39893      9.50741         0.002450      0.000741     -0.000437
      6.68144      9.25346      9.51713         0.002666     -0.003518     -0.005781
     12.29151      4.39707      9.50456        -0.007138      0.000748     -0.003525
      9.48535      9.25767      9.50456        -0.002914     -0.006733     -0.003268
     10.88550      1.97095      9.51594        -0.001936      0.003815     -0.005844
      2.47109      1.96829      9.51043         0.000637      0.000287      0.000596
     12.29442      9.26296      9.50772        -0.003560     -0.002975      0.000170
     13.70005      6.82762      9.50716        -0.003644     -0.001883     -0.000246
      5.28305      1.97706      9.50782         0.001843      0.000970     -0.000587
      8.08110      6.80436      9.41593        -0.003634     -0.006351     -0.070665
      9.46492      4.40728      9.41599        -0.007196     -0.000956     -0.071917
      5.29253      6.81900      9.50859         0.006960     -0.003501      0.000125
      8.08261      1.98575      9.50963         0.000494      0.006968      0.000093
      8.07288      3.57754      7.14951         0.000332     -0.003679     -0.017712
      8.07637      3.58384      0.46362         0.000293     -0.001502     -0.004587
      6.67446      1.15361      7.17472         0.002237     -0.001199     -0.001054
      6.67405      1.15156      0.46621         0.002222     -0.001513     -0.004728
     12.28543      4.39175      2.73529         0.001567      0.001602     -0.007376
      3.86495      4.39429      2.73335         0.001875      0.001153     -0.004630
      1.06216      1.15418      7.18444         0.002054      0.001710     -0.003850
      1.06855      1.15828      0.47327         0.000771      0.000972     -0.003818
      6.67112      9.25431      2.73735         0.000233      0.000916     -0.007708
      6.70918      4.41417      9.43633         0.014436      0.008074     -0.018369
      8.07618      5.20490      4.92735         0.000768      0.000375     -0.013025
     10.88197      6.82413      9.48567        -0.016733     -0.010105      0.005836
      5.26925      1.96271      2.73346         0.001771      0.000479     -0.004469
      2.46268      1.96415      2.75763         0.002937      0.001793     -0.002716
     15.08888      7.63388      4.94232         0.000636      0.001483     -0.003375
     12.29393      6.01557      7.17063         0.000333      0.002202     -0.001905
      6.66551      6.01456      7.15031        -0.002767      0.002071     -0.016970
     12.28366      6.01710      0.46866         0.001667      0.002693     -0.004958
      6.67387      6.01501      0.46441        -0.001708      0.000983     -0.003792
      8.07570      6.82738      2.73179         0.000729      0.001140     -0.006606
[...]
     10.94543      5.22526     10.37389        -0.046991     -0.003386     -0.015520
      6.67969      7.63776     10.38611         0.011886     -0.010186     -0.017240
      9.52739      7.67743     10.37405        -0.025135     -0.039066     -0.015833
     12.29126      7.63801     10.39061        -0.004890     -0.003158     -0.005507
     15.10113      7.63280     10.40188         0.002229      0.000648     -0.006263
      5.31347      5.19615     10.38796         0.010574      0.000713     -0.006904
     13.70192      5.20982     10.40123        -0.000500      0.002029     -0.003116
      3.87522      2.77878     10.40611         0.004129      0.002605      0.000745
      6.68725      2.81511     10.38893         0.006104      0.008629     -0.007792
      9.48595      2.77671     10.38639        -0.003097      0.015902     -0.017764
     12.28394      2.78003     10.41148         0.002001      0.002350     -0.003218
      2.47003      0.34138     10.41137         0.002890      0.000696     -0.002762
      5.28269      0.35398     10.40179         0.001296     -0.001641     -0.003065
      8.08126      0.35432     10.40249         0.001486      0.001338     -0.007477
     10.88380      0.34526     10.41284         0.000607      0.000529     -0.007485
    total drift:                                0.007601     -0.000197      0.083058

  FREE ENERGIE OF THE ION-ELECTRON SYSTEM (eV)
  free  energy   TOTEN  =      -578.09474422 eV

  energy  without entropy=     -578.15416803  energy(sigma->0) =     -578.11455216

 NEB: the previous image is higher in energy: T
 NEB: the next image is higher in energy    : F
 NEB: only prev energy greater

 NEB: Tangent
     -0.00175     -0.00077     -0.00047
     -0.00130      0.00157     -0.00768
     -0.00166      0.00410     -0.00176
      0.00094      0.00004     -0.01619
     -0.00551     -0.00093     -0.00936
     -0.00218      0.00529     -0.00737
     -0.00098     -0.00090     -0.00859
      0.00293      0.00063     -0.01360
      0.00450      0.00203     -0.00200
      0.00040     -0.00233     -0.00360
     -0.00029     -0.00065     -0.01648
      0.00081      0.00272     -0.00549
      0.00349      0.00363     -0.00160
      0.00959      0.00571     -0.04000
     -0.00894     -0.00544     -0.00410
     -0.00243      0.00263     -0.00409
      0.00127      0.00112     -0.00646
      0.00301      0.00201     -0.00737
      0.00279      0.00026     -0.00977
      0.00254      0.00192     -0.00640
      0.00162      0.00232     -0.00821
      0.00118     -0.00034     -0.01455
      0.00056      0.04340     -0.05194
     -0.00071     -0.00327     -0.01072
      0.00194      0.00103     -0.00792
      0.00381      0.01136     -0.02325
     -0.00023     -0.00053     -0.00490
      0.00367      0.00091     -0.00294
      0.00362     -0.00806     -0.01150
     -0.01488      0.00049     -0.00780
     -0.00651     -0.01393     -0.00711
     -0.00561      0.00665     -0.01145
     -0.00060     -0.00057     -0.00019
     -0.00757     -0.00638     -0.00059
     -0.00805     -0.00417     -0.00191
      0.00315      0.00144     -0.00215
     -0.00881     -0.01369     -0.13859
     -0.01540     -0.00282     -0.14027
      0.01218     -0.00750     -0.00013
     -0.00035      0.01304      0.00153
     -0.00191     -0.00863     -0.03321
     -0.00114     -0.00404     -0.00875
      0.00231     -0.00389     -0.00168
      0.00251     -0.00390     -0.00847
      0.00168      0.00242     -0.01374
      0.00188      0.00193     -0.00843
      0.00189      0.00188     -0.00725
      0.00248      0.00153     -0.00647
     -0.00066      0.00109     -0.01552
      0.02673      0.01463     -0.03686
     -0.00024     -0.00024     -0.02325
     -0.03417     -0.02068      0.01018
      0.00200      0.00056     -0.00847
      0.00433      0.00298     -0.00455
     -0.00088      0.00102     -0.00611
     -0.00083      0.00334     -0.00344
     -0.00761      0.00300     -0.03217
      0.00246      0.00559     -0.00863
     -0.00433      0.00182     -0.00809
      0.00073      0.00225     -0.01295
[...]
     -0.07996     -0.00849     -0.02557
      0.01680     -0.02209     -0.02892
     -0.04520     -0.06614     -0.02546
     -0.01291     -0.00857     -0.00910
     -0.00119     -0.00269     -0.01147
      0.01615     -0.00320     -0.01285
     -0.00456     -0.00015     -0.00667
      0.00092      0.00012     -0.00254
      0.00557      0.01477     -0.01173
     -0.01118      0.02564     -0.02763
     -0.00058     -0.00006     -0.00619
      0.00010     -0.00089     -0.00592
     -0.00182     -0.00478     -0.00563
     -0.00263     -0.00120     -0.01036
     -0.00406     -0.00258     -0.01238

 NEB: forces: par spring, perp REAL, dneb     0.000470    0.080492    0.000000
 NEB: distance to prev, next image, angle between     0.787994    0.787900  160.741209
 NEB: projections on to tangent (spring, REAL)    -0.000470    0.517511

 stress matrix after NEB project (eV)
    -62.87499     -0.10116     -0.54632
     -0.10116    -62.75603     -0.31087
     -0.54632     -0.31087      1.55176
  FORCES: max atom, RMS     0.060905    0.008173
  FORCE total and by dimension    0.080493    0.050424
  Stress total and by dimension   88.852702   62.874989
 Quasi-Newton relaxation of ions (Broydens 2nd method)
  g(Force)  = 0.126E-03   g(Stress)= 0.000E+00

 Reset! Starting new Quasi-Newton update for ions

 reached required accuracy - stopping structural energy minimisation