 vasp.5.4.4.18Apr17-6-g9f103f2a35 (build Nov 30 2020 22:55:02) complex

 executed on             LinuxIFC date 2021.10.21  21:23:29

 INCAR:
 POTCAR:    PAW_PBE Pt 04Feb2005
 POTCAR:    PAW_PBE Pt 04Feb2005
   VRHFIN =Pt: s1d9

   TITEL  = PAW_PBE Pt 04Feb2005
   POMASS =  195.080; ZVAL   =   10.000    mass and valenz
   ENMAX  =  230.283; ENMIN  =  172.712 eV

 Optimization of the real space projectors (new method)

 maximal supplied QI-value         = 14.36
 optimisation between [QCUT,QGAM] = [ 11.92, 23.98] = [ 39.79,161.09] Ry
 Optimized for a Real-space Cutoff    1.49 Angstroem

   l    n(q)    QCUT    max X(q) W(low)/X(q) W(high)/X(q)  e(spline)
   2     10    11.920    66.195    0.79E-04    0.18E-03    0.24E-06
   2     10    11.920    64.643    0.81E-04    0.19E-03    0.24E-06
   0     11    11.920    95.520    0.28E-04    0.54E-04    0.18E-06
   0     11    11.920    63.403    0.27E-04    0.52E-04    0.17E-06
   1     10    11.920    19.961    0.18E-04    0.11E-03    0.23E-06
   1     10    11.920    13.289    0.25E-04    0.87E-04    0.19E-06
  PAW_PBE Pt 04Feb2005                  :

 POSCAR: Pt111
  positions in direct lattice
  velocities in cartesian coordinates
 exchange correlation table for  LEXCH =        8
   RHO(1)=    0.500       N(1)  =     2000
   RHO(2)=  100.500       N(2)  =     4000

 ion  position               nearest neighbor table
   1  0.783  0.870  0.326-  20 2.73  71 2.73  55 2.73  27 2.78  35 2.79  34 2.79  43 2.79  56 2.80
                            73 2.80   3 2.81  72 2.81   2 2.81
   2  0.033  0.871  0.327-  65 2.73  55 2.73  68 2.74  27 2.78  39 2.78  29 2.79  72 2.79   3 2.81
                            47 2.81  23 2.81   1 2.81  57 2.82
   3  0.034  0.620  0.327-  76 2.73  12 2.73  55 2.73  35 2.78  28 2.78  39 2.78   9 2.80  57 2.80
                             2 2.81   1 2.81  56 2.81  15 2.82
   4  0.788  0.867  0.024-  21 2.78  78 2.78  19 2.78  44 2.80   6 2.80  74 2.81  75 2.81  58 2.82
                             5 2.82
   5  0.039  0.866  0.024-  70 2.78  49 2.78  59 2.78  78 2.79  24 2.80   6 2.81  74 2.81   4 2.82
                            48 2.82
   6  0.037  0.617  0.024-  70 2.78  46 2.78  21 2.78  10 2.79   4 2.80   5 2.81  59 2.81  58 2.81
                            18 2.81
   7  0.620  0.202  0.126-  71 2.72  79 2.73  80 2.74  42 2.78  44 2.78  74 2.79  22 2.80  53 2.80
                            11 2.81  78 2.81  61 2.81  19 2.82
   8  0.370  0.952  0.126-  69 2.73  66 2.73  26 2.74  16 2.78  24 2.78  75 2.79  25 2.80  49 2.80
                            19 2.80  54 2.81  53 2.81  60 2.81
   9  0.035  0.370  0.327-  12 2.73  77 2.73  62 2.74  28 2.77  33 2.78  30 2.78   3 2.80  47 2.81
                            63 2.81  13 2.81  15 2.81  56 2.81
  10  0.038  0.368  0.024-  54 2.78  46 2.78  45 2.79   6 2.79  18 2.80  58 2.80  48 2.80  16 2.80
                            64 2.82
  11  0.870  0.202  0.127-  65 2.72  77 2.73  79 2.74  64 2.77  74 2.78  48 2.78  45 2.80  49 2.81
                             7 2.81  54 2.81  78 2.81  22 2.82
  12  0.951  0.536  0.227-   9 2.73  21 2.73   3 2.73  56 2.73  45 2.73  46 2.74  77 2.80  55 2.80
                            20 2.80  67 2.81  76 2.81  62 2.82
  13  0.285  0.119  0.327-  62 2.73  26 2.73  69 2.74  36 2.78  33 2.78  31 2.78  73 2.80  43 2.80
                            47 2.81   9 2.81  23 2.81  15 2.81
  14  0.534  0.619  0.327-  51 2.73  66 2.73  67 2.74  38 2.78  52 2.78  37 2.79  41 2.80  57 2.80
                            73 2.80  56 2.81  23 2.81  63 2.81
  15  0.285  0.370  0.327-  76 2.73  62 2.73  80 2.74  36 2.77  50 2.78  28 2.78  57 2.80  41 2.80
                            43 2.81   9 2.81  13 2.81   3 2.82
  16  0.288  0.118  0.024-   8 2.78  53 2.78  54 2.79  18 2.79  48 2.80  10 2.80  24 2.81  44 2.81
                            75 2.81
  17  0.537  0.617  0.023-  25 2.78  22 2.78  60 2.80  42 2.80  58 2.80  75 2.80  64 2.80  59 2.81
                            24 2.81
  18  0.288  0.367  0.024-  53 2.77  61 2.78  42 2.79  16 2.79  46 2.79  10 2.80  59 2.81  44 2.81
                             6 2.81
  19  0.620  0.951  0.126-  71 2.73  20 2.73  69 2.74  44 2.77  75 2.78   4 2.78  21 2.80  53 2.80
                             8 2.80  25 2.81  78 2.81   7 2.82
  20  0.700  0.786  0.226-   1 2.73  19 2.73  25 2.73  56 2.73  73 2.74  21 2.74  69 2.79  67 2.80
                            66 2.80  12 2.80  55 2.81  71 2.81
  21  0.869  0.701  0.127-  12 2.73  55 2.73  20 2.74   4 2.78  58 2.78   6 2.78  19 2.80  45 2.80
                            46 2.81  25 2.81  70 2.81  78 2.81
  22  0.619  0.452  0.126-  79 2.73  67 2.73  51 2.74  42 2.78  17 2.78  64 2.79   7 2.80  25 2.80
                            61 2.80  60 2.80  45 2.81  11 2.82
  23  0.283  0.870  0.327-  26 2.73  68 2.73  66 2.74  29 2.78  31 2.79  37 2.79  47 2.80  57 2.80
                            73 2.80   2 2.81  14 2.81  13 2.81
  24  0.288  0.868  0.023-   8 2.78  60 2.78  49 2.79  75 2.80   5 2.80  48 2.80  16 2.81  17 2.81
                            59 2.82
  25  0.618  0.702  0.126-  67 2.73  20 2.73  66 2.75  75 2.77  17 2.78  58 2.79   8 2.80  60 2.80
                            22 2.80  45 2.81  21 2.81  19 2.81
  26  0.203  0.036  0.227-  54 2.72  23 2.73  49 2.73  47 2.73  13 2.73   8 2.74  66 2.80  69 2.80
                            65 2.81  68 2.81  77 2.81  62 2.81
  27  0.865  0.953  0.429-   1 2.78   2 2.78  72 2.78  40 2.79  35 2.79  39 2.80  34 2.80  32 2.81
                            29 2.83
  28  0.117  0.453  0.429-   9 2.77   3 2.78  15 2.78  36 2.80  35 2.80  33 2.81  30 2.81  39 2.81
                            50 2.82
  29  0.117  0.954  0.429-  23 2.78  47 2.78   2 2.79  32 2.79  33 2.80  39 2.80  37 2.80  31 2.81
                            27 2.83
  30  0.867  0.453  0.429-  56 2.78  63 2.78   9 2.78  38 2.80  35 2.80  52 2.80  33 2.81  28 2.81
                            32 2.82
  31  0.368  0.953  0.430-  13 2.78  73 2.78  23 2.79  34 2.79  52 2.80  37 2.81  29 2.81  33 2.81
                            36 2.82
  32  0.867  0.202  0.429-  72 2.77  63 2.78  47 2.78  29 2.79  40 2.80  38 2.81  27 2.81  33 2.81
                            30 2.82
  33  0.117  0.203  0.429-   9 2.78  47 2.78  13 2.78  29 2.80  28 2.81  30 2.81  32 2.81  31 2.81
                            36 2.81
  34  0.616  0.952  0.430-  73 2.78  43 2.78  31 2.79   1 2.79  52 2.80  27 2.80  36 2.81  35 2.81
                            40 2.81
  35  0.867  0.703  0.429-   3 2.78  56 2.78   1 2.79  27 2.79  39 2.80  30 2.80  28 2.80  34 2.81
                            52 2.82
  36  0.367  0.204  0.430-  15 2.77  13 2.78  43 2.79  40 2.80  28 2.80  50 2.80  34 2.81  33 2.81
                            31 2.82
  37  0.366  0.703  0.430-  57 2.78  23 2.79  14 2.79  50 2.80  39 2.80  29 2.80  31 2.81  52 2.81
                            38 2.82
  38  0.618  0.453  0.430-  14 2.78  41 2.78  63 2.79  30 2.80  50 2.80  52 2.80  32 2.81  40 2.81
                            37 2.82
  39  0.116  0.705  0.430-   3 2.78  57 2.78   2 2.78  37 2.80  35 2.80  27 2.80  29 2.80  28 2.81
                            50 2.83
  40  0.618  0.202  0.429-  43 2.78  41 2.78  72 2.79  27 2.79  36 2.80  32 2.80  50 2.80  38 2.81
                            34 2.81
  41  0.535  0.369  0.327-  80 2.73  51 2.73  79 2.74  40 2.78  38 2.78  50 2.78  14 2.80  72 2.80
                            63 2.80  15 2.80  43 2.81  57 2.82
  42  0.536  0.368  0.024-   7 2.78  22 2.78  18 2.79  61 2.79  59 2.80  17 2.80  44 2.81  64 2.81
                            74 2.83
  43  0.535  0.119  0.327-  80 2.73  69 2.73  71 2.74  40 2.78  34 2.78  36 2.79   1 2.79  13 2.80
                            72 2.80  15 2.81  73 2.81  41 2.81
  44  0.539  0.117  0.024-  19 2.77   7 2.78  53 2.79   4 2.80  42 2.81  74 2.81  16 2.81  18 2.81
                            75 2.81
  45  0.869  0.452  0.127-  77 2.72  12 2.73  67 2.74  58 2.77  64 2.78  10 2.79  11 2.80  21 2.80
                            25 2.81  22 2.81  54 2.81  46 2.81
  46  0.120  0.452  0.127-  62 2.73  76 2.73  12 2.74  10 2.78   6 2.78  18 2.79  54 2.80  70 2.80
                            61 2.80  21 2.81  45 2.81  53 2.82
  47  0.035  0.120  0.326-  77 2.73  26 2.73  65 2.73  32 2.78  33 2.78  29 2.78  23 2.80  63 2.80
                             2 2.81   9 2.81  13 2.81  72 2.81
  48  0.038  0.118  0.024-  49 2.77  11 2.78  54 2.78  16 2.80  10 2.80  24 2.80  64 2.81  74 2.81
                             5 2.82
  49  0.120  0.952  0.127-  68 2.73  26 2.73  65 2.74  48 2.77   5 2.78  24 2.79  60 2.80   8 2.80
                            11 2.81  78 2.81  54 2.81  70 2.82
  50  0.369  0.453  0.430-  15 2.78  57 2.78  41 2.78  37 2.80  38 2.80  36 2.80  40 2.80  28 2.82
                            39 2.83
  51  0.451  0.536  0.227-  61 2.73  14 2.73  41 2.73  60 2.73  57 2.74  22 2.74  66 2.80  76 2.80
                            67 2.80  80 2.80  68 2.80  79 2.81
  52  0.616  0.703  0.430-  14 2.78  73 2.79  56 2.79  34 2.80  38 2.80  31 2.80  30 2.80  37 2.81
                            35 2.82
  53  0.371  0.201  0.127-  69 2.72  80 2.73  62 2.74  18 2.77  16 2.78  44 2.79  19 2.80   7 2.80
                            61 2.80  54 2.80   8 2.81  46 2.82
  54  0.121  0.202  0.127-  26 2.72  62 2.73  77 2.73  10 2.78  48 2.78  16 2.79  46 2.80  53 2.80
                             8 2.81  11 2.81  45 2.81  49 2.81
  55  0.951  0.786  0.227-  78 2.73  21 2.73   2 2.73   1 2.73   3 2.73  70 2.74  71 2.80  12 2.80
                            20 2.81  76 2.81  68 2.81  65 2.81
  56  0.784  0.620  0.327-  12 2.73  20 2.73  67 2.74  30 2.78  35 2.78  52 2.79  63 2.80   1 2.80
                            73 2.80  14 2.81   9 2.81   3 2.81
  57  0.284  0.620  0.327-  76 2.73  68 2.73  51 2.74  37 2.78  50 2.78  39 2.78  23 2.80  14 2.80
                            15 2.80   3 2.80   2 2.82  41 2.82
  58  0.787  0.616  0.024-  45 2.77  21 2.78  25 2.79  10 2.80  17 2.80  64 2.80  75 2.80   6 2.81
                             4 2.82
  59  0.287  0.618  0.024-  60 2.77  61 2.78   5 2.78  70 2.79  42 2.80   6 2.81  17 2.81  18 2.81
                            24 2.82
  60  0.369  0.702  0.126-  66 2.73  51 2.73  68 2.75  59 2.77  24 2.78  49 2.80  25 2.80  17 2.80
                            22 2.80  61 2.81  70 2.81   8 2.81
  61  0.369  0.452  0.127-  80 2.73  51 2.73  76 2.74  18 2.78  59 2.78  42 2.79  46 2.80  22 2.80
                            53 2.80  70 2.80  60 2.81   7 2.81
  62  0.203  0.286  0.227-  15 2.73  13 2.73  46 2.73  54 2.73   9 2.74  53 2.74  80 2.80  76 2.80
                            69 2.80  26 2.81  77 2.81  12 2.82
  63  0.785  0.370  0.326-  79 2.73  67 2.73  77 2.73  32 2.78  30 2.78  38 2.79  56 2.80  41 2.80
                            47 2.80   9 2.81  14 2.81  72 2.81
  64  0.787  0.367  0.024-  11 2.77  45 2.78  22 2.79  74 2.80  58 2.80  17 2.80  48 2.81  42 2.81
                            10 2.82
  65  0.952  0.036  0.226-  11 2.72   2 2.73  78 2.73  47 2.73  72 2.74  49 2.74  68 2.80  79 2.80
                            71 2.81  26 2.81  77 2.81  55 2.81
[...]
   -.165E+01 0.324E+00 0.133E+04   0.162E+01 -.341E+00 -.133E+04   0.509E-01 0.360E-02 -.704E+00   0.588E-02 0.131E-01 0.102E+00
   0.831E+00 -.128E+01 -.102E+01   -.820E+00 0.128E+01 0.103E+01   -.134E-01 0.183E-01 -.139E-01   -.718E-02 -.349E-02 0.193E-02
   -.334E+01 -.981E+00 -.260E+04   0.325E+01 0.952E+00 0.260E+04   0.187E+00 0.210E-01 0.147E+01   -.405E-01 0.121E-01 -.424E-01
   -.541E+00 -.506E+00 -.261E+04   0.453E+00 0.488E+00 0.261E+04   0.517E-01 0.452E-01 0.152E+01   0.450E-01 -.208E-01 -.391E-01
   0.312E+01 -.978E+00 -.261E+04   -.303E+01 0.101E+01 0.261E+04   -.101E+00 -.600E-01 0.147E+01   -.138E-01 0.301E-02 -.444E-01
   -.161E+01 0.269E+01 -.261E+04   0.153E+01 -.261E+01 0.261E+04   0.658E-01 -.939E-01 0.150E+01   0.234E-01 -.456E-02 -.511E-01
   0.260E+01 -.341E+01 -.261E+04   -.256E+01 0.331E+01 0.261E+04   -.112E+00 0.783E-01 0.146E+01   0.397E-01 0.423E-01 -.434E-01
   -.805E+00 -.103E+01 -.260E+04   0.819E+00 0.968E+00 0.260E+04   0.331E-01 0.952E-01 0.149E+01   -.340E-01 -.751E-02 -.472E-01
   0.171E+00 -.151E+01 -.261E+04   -.243E+00 0.148E+01 0.261E+04   0.358E-01 0.206E-01 0.150E+01   0.454E-01 0.139E-01 -.445E-01
   -.323E+01 -.113E+01 -.261E+04   0.310E+01 0.105E+01 0.261E+04   0.162E+00 0.503E-01 0.144E+01   0.156E-01 0.509E-01 -.430E-01
   0.132E+01 0.124E+01 -.261E+04   -.123E+01 -.127E+01 0.261E+04   -.135E+00 0.297E-02 0.147E+01   0.162E-01 0.198E-01 -.465E-01
   0.196E+01 0.313E+00 -.261E+04   -.198E+01 -.238E+00 0.261E+04   -.497E-01 -.116E+00 0.151E+01   0.381E-01 0.158E-01 -.335E-01
   -.106E+01 0.634E+00 -.261E+04   0.953E+00 -.600E+00 0.261E+04   0.164E+00 -.841E-02 0.146E+01   -.224E-01 -.285E-01 -.423E-01
   -.302E+00 0.216E+01 -.261E+04   0.388E+00 -.210E+01 0.261E+04   -.559E-01 -.299E-01 0.147E+01   -.442E-01 -.334E-01 -.459E-01
   0.743E+00 0.223E+01 -.261E+04   -.727E+00 -.211E+01 0.261E+04   0.277E-02 -.131E+00 0.148E+01   -.144E-01 -.314E-01 -.386E-01
   -.103E+01 -.507E+00 -.261E+04   0.108E+01 0.474E+00 0.260E+04   -.416E-02 0.567E-01 0.147E+01   -.497E-01 -.482E-02 -.377E-01
   0.702E+00 -.160E+00 -.133E+04   -.661E+00 0.160E+00 0.133E+04   -.606E-01 0.304E-01 0.727E+00   -.105E-01 -.153E-01 -.479E-01
   -.966E+00 0.356E+01 0.261E+04   0.952E+00 -.346E+01 -.261E+04   0.883E-01 -.105E+00 -.147E+01   -.458E-01 -.271E-01 0.395E-01
   -.118E+00 -.889E+00 -.132E+04   0.112E+00 0.874E+00 0.132E+04   0.116E-01 0.245E-01 0.733E+00   0.398E-02 0.966E-03 -.263E-01
   0.329E+00 -.167E+01 0.261E+04   -.261E+00 0.159E+01 -.261E+04   -.840E-01 0.933E-01 -.150E+01   -.114E-01 0.973E-02 0.360E-01
   -.427E+00 0.577E+00 0.132E+04   0.425E+00 -.578E+00 -.132E+04   -.235E-02 0.354E-02 -.725E+00   0.511E-02 0.479E-02 0.108E+00
   0.989E+00 0.376E+00 0.132E+04   -.998E+00 -.366E+00 -.132E+04   -.190E-01 -.147E-01 -.794E+00   0.169E-01 -.276E-02 0.766E-01
   -.117E-01 -.683E+00 -.132E+04   0.204E-01 0.689E+00 0.132E+04   -.149E-01 -.186E-01 0.734E+00   0.393E-03 0.412E-02 -.101E+00
   0.195E+01 -.283E+00 0.260E+04   -.193E+01 0.302E+00 -.260E+04   -.691E-01 -.387E-01 -.149E+01   0.128E-01 0.387E-02 0.532E-01
   0.922E+00 -.611E+00 0.133E+04   -.898E+00 0.615E+00 -.133E+04   -.424E-01 0.167E-02 -.734E+00   0.139E-02 -.929E-02 0.129E+00
   0.300E+01 -.782E+00 -.261E+04   -.289E+01 0.803E+00 0.261E+04   -.130E+00 0.410E-01 0.150E+01   -.246E-01 -.495E-01 -.325E-01
   0.314E+00 0.746E+00 -.261E+01   -.325E+00 -.744E+00 0.262E+01   0.174E-01 -.316E-01 -.165E-01   -.747E-03 0.830E-02 0.454E-02
   -.219E+01 0.187E+01 -.261E+04   0.213E+01 -.189E+01 0.261E+04   0.665E-01 -.951E-02 0.144E+01   0.201E-01 0.223E-01 -.512E-01
   0.906E+00 -.385E+00 0.132E+04   -.888E+00 0.373E+00 -.132E+04   -.660E-01 0.335E-01 -.758E+00   0.656E-02 0.418E-03 0.464E-01
   0.115E+01 0.205E+00 0.132E+04   -.113E+01 -.187E+00 -.132E+04   -.744E-01 -.335E-01 -.799E+00   0.156E-01 -.451E-02 0.105E+00
   -.682E+00 0.218E+00 0.133E+01   0.653E+00 -.208E+00 -.135E+01   0.642E-01 -.213E-01 0.264E-01   0.184E-02 0.274E-02 0.515E-02
   -.791E+00 0.775E+00 -.133E+04   0.764E+00 -.769E+00 0.133E+04   0.282E-01 -.133E-01 0.727E+00   0.572E-02 0.814E-02 -.104E+00
   0.746E+00 0.132E+00 -.133E+04   -.748E+00 -.944E-01 0.133E+04   0.250E-01 -.294E-01 0.690E+00   -.110E-01 -.132E-01 -.802E-01
   -.278E+01 0.104E+00 0.261E+04   0.276E+01 -.196E+00 -.261E+04   0.299E-01 0.981E-01 -.147E+01   0.163E-01 0.266E-01 0.404E-01
   0.157E+01 0.887E+00 0.261E+04   -.154E+01 -.827E+00 -.260E+04   -.230E-02 -.282E-01 -.145E+01   -.165E-01 -.397E-01 0.487E-01
   0.101E+01 -.129E+00 0.133E+04   -.100E+01 0.133E+00 -.133E+04   -.465E-02 -.807E-02 -.723E+00   -.917E-02 0.168E-02 0.106E+00
[...]
   -.180E+01 0.920E+00 0.190E+01   0.177E+01 -.912E+00 -.194E+01   0.695E-01 -.262E-01 0.448E-01   0.332E-02 0.346E-02 0.140E-01
   0.987E+00 -.512E+00 -.124E+01   -.101E+01 0.522E+00 0.125E+01   0.257E-01 -.147E-01 -.973E-02   -.237E-02 0.391E-02 -.292E-02
   0.383E+00 -.412E+00 0.937E+00   -.375E+00 0.419E+00 -.960E+00   -.206E-01 0.739E-02 0.304E-01   0.633E-04 -.719E-02 0.786E-02
   -.365E-01 -.689E+00 0.132E+04   0.204E-01 0.681E+00 -.132E+04   0.324E-01 0.200E-01 -.769E+00   0.366E-02 -.487E-02 0.101E+00
   -.828E+00 0.245E+00 0.770E+01   0.832E+00 -.226E+00 -.774E+01   0.318E-02 -.187E-01 0.629E-01   0.342E-02 -.861E-02 0.110E-01
   -.324E+00 -.604E+00 -.132E+04   0.337E+00 0.595E+00 0.132E+04   0.720E-02 0.335E-01 0.750E+00   -.188E-01 -.218E-04 -.704E-01
   -.563E+00 0.509E+00 -.132E+04   0.509E+00 -.523E+00 0.132E+04   0.679E-01 -.507E-02 0.740E+00   0.204E-01 0.113E-01 -.832E-01
   -.223E+00 -.953E-01 0.261E+04   0.345E+00 0.624E-01 -.261E+04   -.831E-01 0.550E-01 -.153E+01   -.597E-01 -.296E-02 0.470E-01
   -.181E+01 -.320E+01 0.261E+04   0.175E+01 0.309E+01 -.261E+04   0.515E-01 0.122E+00 -.146E+01   0.291E-01 0.342E-01 0.412E-01
   0.112E+01 0.127E+00 -.797E+01   -.113E+01 -.118E+00 0.801E+01   0.514E-02 -.259E-01 -.720E-01   -.394E-03 0.844E-02 0.256E-02
   -.489E+00 0.350E+00 0.159E+00   0.514E+00 -.321E+00 -.176E+00   -.262E-01 -.380E-01 0.990E-02   -.449E-03 -.355E-02 0.127E-01
   0.986E-01 -.555E+00 0.133E+04   -.715E-01 0.540E+00 -.133E+04   -.479E-01 0.330E-01 -.693E+00   -.104E-01 -.624E-03 0.929E-01
   -.494E+00 0.827E+00 0.362E+01   0.492E+00 -.811E+00 -.364E+01   -.139E-01 -.375E-01 0.143E-01   0.694E-02 -.387E-02 0.124E-01
   0.213E+00 -.968E-01 -.276E+01   -.194E+00 0.968E-01 0.276E+01   -.282E-01 -.384E-02 -.988E-02   -.211E-03 0.380E-04 0.803E-02
   0.135E-01 -.239E-01 -.326E+00   0.247E-12 0.402E-12 0.109E-11   -.657E-02 0.195E-01 -.667E-01   -.168E-03 0.726E-03 0.340E+00

 POSITION                                       TOTAL-FORCE (eV/Angst)
     13.66524      8.45158      7.17906         0.034330     -0.017093      0.016146
      5.25347      8.46315      7.18411         0.037465     -0.061300      0.002419
      3.86006      6.02746      7.19161        -0.010222      0.002451     -0.022683
     13.70647      8.42861      0.52128         0.002892     -0.002200     -0.038408
      5.30176      8.41812      0.52607        -0.041641      0.051606     -0.042230
      3.88048      5.99917      0.53209         0.007307      0.005118     -0.053873
      8.09326      1.96190      2.78158        -0.020558     -0.009176      0.001799
      9.49243      9.24801      2.78266        -0.015630      0.010577      0.014162
      2.46642      3.59497      7.19056        -0.006707     -0.012931     -0.021323
      2.49195      3.57720      0.53522        -0.029256     -0.010855     -0.057394
     10.90096      1.96183      2.78600        -0.026288      0.011523      0.006383
     13.68078      5.21156      4.99258         0.026171     -0.016201     -0.015537
      3.86860      1.16017      7.19427        -0.015081      0.002613     -0.022493
      9.46412      6.02038      7.19288         0.025053      0.007199     -0.003024
      5.27698      3.59486      7.19577        -0.014989     -0.015843     -0.027553
      3.89248      1.14758      0.52844        -0.003907     -0.023538     -0.043218
      9.49305      5.99707      0.50870        -0.010431      0.007919      0.005243
      5.29288      3.56551      0.53681        -0.018969      0.024758     -0.069026
     12.29384      9.24475      2.77762        -0.004500      0.000326      0.022458
     12.26982      7.63557      4.98184         0.027179     -0.010405     -0.006286
     13.68589      6.81711      2.78384         0.007955      0.012663      0.014849
      9.47902      4.39320      2.78214         0.019007      0.004621      0.004891
      8.06067      8.45349      7.19149         0.035210     -0.015189     -0.008350
      8.10220      8.43636      0.51635        -0.021809     -0.007912     -0.015793
     10.87761      6.81811      2.77672         0.028033      0.000169      0.033903
      2.47267      0.34653      4.98931        -0.010232      0.017566     -0.006844
     15.05861      9.26142      9.44089         0.048358      0.003563      0.061107
      3.86099      4.40518      9.44640         0.006929      0.005848      0.067289
      6.66378      9.27146      9.44778        -0.021151     -0.019394      0.043443
     12.27310      4.40714      9.44675         0.010368     -0.017578      0.046284
      9.47055      9.25878      9.45485        -0.030830      0.022522      0.036360
     10.86797      1.96543      9.43338         0.013404      0.028556      0.092154
      2.45451      1.97476      9.44640         0.008804      0.000344      0.047881
     12.25609      9.25548      9.44925         0.051347      0.015117      0.039662
     13.67962      6.83331      9.44745        -0.027108     -0.004209      0.044708
      5.26726      1.98154      9.45107        -0.024330     -0.023398      0.047510
      8.05445      6.83699      9.46012         0.032218     -0.002182      0.016789
      9.47605      4.40118      9.45158        -0.013613      0.000129      0.033458
      5.25759      6.84802      9.45131         0.003236     -0.038241      0.031074
      8.06616      1.96558      9.44524         0.000160      0.017450      0.045921
      8.08094      3.58796      7.18912        -0.029234      0.014960     -0.015003
      8.08378      3.57670      0.52390         0.026800     -0.024970     -0.036820
      6.66791      1.15572      7.18646         0.010835      0.010762     -0.014375
      6.70095      1.13334      0.52270        -0.026834      0.022447     -0.040392
     12.28992      4.39101      2.78648         0.001575      0.007687      0.014356
      3.87900      4.39226      2.80112        -0.009979     -0.006098     -0.021357
      1.06107      1.16509      7.18125        -0.005370     -0.009510     -0.006782
      1.09396      1.14783      0.53352        -0.029586     -0.013932     -0.063528
      6.69114      9.25047      2.78510        -0.017897     -0.003630      0.006351
      6.67846      4.40319      9.45176        -0.041820      0.010066      0.048888
      8.07027      5.21178      4.99119         0.007607     -0.021011     -0.005955
     10.86235      6.83118      9.45550         0.023811     -0.005530      0.020241
      5.29260      1.95616      2.79210        -0.043007      0.021250     -0.010744
      2.48951      1.96556      2.79750        -0.037276     -0.018766     -0.023567
     15.07828      7.64019      4.98416         0.038510     -0.008810      0.013286
     12.27069      6.02297      7.18889         0.007276      0.001471     -0.013995
      6.66419      6.02712      7.19718         0.011605     -0.005296     -0.029841
     12.29467      5.99163      0.51976         0.019271      0.030381     -0.034435
      6.68649      6.00202      0.52771         0.007231     -0.006835     -0.046822
      8.07922      6.82143      2.78082        -0.009482     -0.003241      0.016366
[...]
      9.46622      7.63443      4.98568         0.028572      0.012440      0.003255
     10.87125      5.21138      4.98271         0.045602     -0.015630      0.023264
      6.66595      7.63983      4.98933         0.000718     -0.000369     -0.003607
      5.27426      0.34322      4.98486        -0.013332      0.007302      0.016047
      5.27247      6.81808      2.79372         0.019560      0.008098     -0.007256
      8.07685      0.34759      4.97462         0.010272     -0.008831      0.037782
      9.47188      1.15866      7.17588         0.002477      0.023490     -0.000221
     10.86167      8.44690      7.18621         0.036139     -0.007396     -0.011871
      9.50866      1.13558      0.52722        -0.019435      0.019004     -0.055352
     10.89752      8.42185      0.51416         0.016596      0.038677     -0.024644
      5.26960      5.21183      5.00050        -0.002874     -0.008562     -0.031491
     12.29460      2.78332      4.98655        -0.003661     -0.013165      0.006185
     15.10564      9.24503      2.77854        -0.031680      0.017733      0.025834
      9.48571      2.78191      4.98121        -0.010798     -0.025834      0.004885
      6.68394      2.77652      4.99095        -0.010152     -0.004238      0.003093
    total drift:                                0.006755     -0.003710     -0.052886

  FREE ENERGIE OF THE ION-ELECTRON SYSTEM (eV)
  free  energy   TOTEN  =      -513.17368559 eV

  energy  without entropy=     -513.17368559  energy(sigma->0) =     -513.17368559

 total charge

[...]

 magnetization (x)

# of ion       s       p       d       tot
    1        0.004  -0.004   0.385   0.385
    2        0.004  -0.004   0.385   0.385
    3        0.004  -0.004   0.383   0.383
    4        0.002   0.001   0.339   0.341
    5        0.002   0.001   0.339   0.341
    6        0.002   0.000   0.336   0.338
    7        0.004  -0.004   0.383   0.383
    8        0.004  -0.004   0.385   0.385
    9        0.004  -0.004   0.384   0.384
   10        0.002   0.000   0.339   0.341
   11        0.004  -0.004   0.380   0.380
   12        0.001  -0.005   0.382   0.378
   13        0.004  -0.004   0.383   0.383
   14        0.004  -0.004   0.387   0.387
   15        0.004  -0.004   0.382   0.382
   16        0.002   0.000   0.339   0.342
   17        0.002   0.000   0.339   0.341
   18        0.002   0.000   0.336   0.338
   19        0.004  -0.004   0.384   0.385
   20        0.001  -0.005   0.375   0.370
   21        0.004  -0.004   0.385   0.385
   22        0.004  -0.004   0.388   0.388
   23        0.004  -0.004   0.388   0.388
   24        0.002   0.000   0.339   0.341
   25        0.004  -0.004   0.388   0.388
   26        0.001  -0.005   0.380   0.375
   27        0.002   0.000   0.339   0.341
   28        0.002   0.001   0.338   0.340
   29        0.002   0.000   0.340   0.342
   30        0.002   0.001   0.338   0.340
   31        0.002   0.000   0.336   0.338
   32        0.002   0.001   0.336   0.338
   33        0.002   0.001   0.339   0.341
   34        0.002   0.000   0.335   0.337
   35        0.002   0.000   0.337   0.339
   36        0.002   0.001   0.339   0.341
   37        0.002   0.000   0.338   0.341
   38        0.002   0.000   0.338   0.341
   39        0.002   0.001   0.338   0.340
   40        0.002   0.000   0.340   0.342
   41        0.004  -0.004   0.385   0.385
   42        0.002   0.000   0.336   0.338
   43        0.004  -0.004   0.384   0.384
   44        0.002   0.001   0.336   0.339
   45        0.004  -0.004   0.387   0.387
   46        0.004  -0.004   0.382   0.382
   47        0.004  -0.004   0.385   0.385
   48        0.002   0.001   0.335   0.337
   49        0.004  -0.004   0.384   0.384
   50        0.002   0.001   0.335   0.337
   51        0.001  -0.005   0.381   0.377
   52        0.002   0.000   0.338   0.340
   53        0.004  -0.004   0.386   0.386
   54        0.004  -0.004   0.381   0.381
   55        0.001  -0.005   0.382   0.378
   56        0.004  -0.004   0.384   0.384
   57        0.004  -0.004   0.386   0.386
   58        0.002   0.001   0.339   0.341
   59        0.002   0.000   0.336   0.338
   60        0.004  -0.004   0.387   0.387
[...]
   66        0.001  -0.005   0.378   0.374
   67        0.001  -0.005   0.381   0.377
   68        0.001  -0.005   0.383   0.378
   69        0.001  -0.005   0.376   0.371
   70        0.004  -0.004   0.385   0.385
   71        0.001  -0.005   0.379   0.375
   72        0.004  -0.004   0.386   0.386
   73        0.004  -0.004   0.385   0.385
   74        0.002   0.001   0.336   0.339
   75        0.002   0.001   0.335   0.338
   76        0.001  -0.005   0.373   0.368
   77        0.001  -0.005   0.376   0.372
   78        0.004  -0.004   0.384   0.384
   79        0.001  -0.005   0.378   0.374
   80        0.001  -0.005   0.380   0.376
tot          0.211  -0.203  29.161  29.168

 BZINTS: Fermi energy:  2.783237;800.000000 electrons
         Band energy:-391.170490;  BLOECHL correction: -0.540242