 vasp.5.4.4.18Apr17-6-g9f103f2a35 (build Oct 25 2019 11:13:22) complex

 executed on             LinuxIFC date 2021.11.08  16:42:00

 INCAR:
 POTCAR:    PAW_PBE Pt 04Feb2005
 POTCAR:    PAW_PBE Fe 06Sep2000
 POTCAR:    PAW_PBE Co 02Aug2007
 POTCAR:    PAW_PBE Cu 22Jun2005
 POTCAR:    PAW_PBE Ni 02Aug2007
 POTCAR:    PAW_PBE H 15Jun2001

 POTCAR:    PAW_PBE Pt 04Feb2005
   VRHFIN =Pt: s1d9

   TITEL  = PAW_PBE Pt 04Feb2005
   POMASS =  195.080; ZVAL   =   10.000    mass and valenz
   ENMAX  =  230.283; ENMIN  =  172.712 eV

 POTCAR:    PAW_PBE Fe 06Sep2000
   VRHFIN =Fe:  d7 s1

   TITEL  = PAW_PBE Fe 06Sep2000
   POMASS =   55.847; ZVAL   =    8.000    mass and valenz
   ENMAX  =  267.882; ENMIN  =  200.911 eV

 POTCAR:    PAW_PBE Co 02Aug2007
   VRHFIN =Co: d8 s1

   TITEL  = PAW_PBE Co 02Aug2007
   POMASS =   58.933; ZVAL   =    9.000    mass and valenz
   ENMAX  =  267.968; ENMIN  =  200.976 eV

 POTCAR:    PAW_PBE Cu 22Jun2005
   VRHFIN =Cu: d10 p1

   TITEL  = PAW_PBE Cu 22Jun2005
   POMASS =   63.546; ZVAL   =   11.000    mass and valenz
   ENMAX  =  295.446; ENMIN  =  221.585 eV

 POTCAR:    PAW_PBE Ni 02Aug2007
   VRHFIN =Ni:

   TITEL  = PAW_PBE Ni 02Aug2007
   POMASS =   58.690; ZVAL   =   10.000    mass and valenz
   ENMAX  =  269.532; ENMIN  =  202.149 eV

 POTCAR:    PAW_PBE H 15Jun2001
   VRHFIN =H: ultrasoft test

   TITEL  = PAW_PBE H 15Jun2001
   POMASS =    1.000; ZVAL   =    1.000    mass and valenz
   ENMAX  =  250.000; ENMIN  =  200.000 eV

 Optimization of the real space projectors (new method)

 maximal supplied QI-value         = 14.36
 optimisation between [QCUT,QGAM] = [ 11.92, 23.98] = [ 39.79,161.09] Ry
 Optimized for a Real-space Cutoff    1.49 Angstroem

   l    n(q)    QCUT    max X(q) W(low)/X(q) W(high)/X(q)  e(spline)
   2     10    11.920    66.195    0.79E-04    0.18E-03    0.24E-06
   2     10    11.920    64.643    0.81E-04    0.19E-03    0.24E-06
   0     11    11.920    95.520    0.28E-04    0.54E-04    0.18E-06
   0     11    11.920    63.403    0.27E-04    0.52E-04    0.17E-06
   1     10    11.920    19.961    0.18E-04    0.11E-03    0.23E-06
   1     10    11.920    13.289    0.25E-04    0.87E-04    0.19E-06
 Optimization of the real space projectors (new method)

[...]

   l    n(q)    QCUT    max X(q) W(low)/X(q) W(high)/X(q)  e(spline)
   2      9    11.864    60.317    0.21E-03    0.51E-03    0.25E-06
   2      9    11.864    55.921    0.21E-03    0.51E-03    0.26E-06
   0      9    11.864    51.690    0.22E-03    0.30E-04    0.17E-06
   0      9    11.864    30.015    0.20E-03    0.28E-04    0.15E-06
   1      9    11.864    18.849    0.76E-04    0.33E-03    0.17E-06
   1      9    11.864    14.624    0.60E-04    0.28E-03    0.15E-06
 Optimization of the real space projectors (new method)

 maximal supplied QI-value         = 34.20
 optimisation between [QCUT,QGAM] = [ 11.97, 23.94] = [ 40.13,160.53] Ry
 Optimized for a Real-space Cutoff    1.18 Angstroem

   l    n(q)    QCUT    max X(q) W(low)/X(q) W(high)/X(q)  e(spline)
   0      8    11.971    19.460    0.15E-03    0.31E-03    0.25E-06
   0      8    11.971    12.209    0.13E-03    0.29E-03    0.25E-06
   1      8    11.971     4.655    0.22E-03    0.24E-03    0.21E-06
  PAW_PBE Pt 04Feb2005                  :
  PAW_PBE Fe 06Sep2000                  :
  PAW_PBE Co 02Aug2007                  :
  PAW_PBE Cu 22Jun2005                  :
  PAW_PBE Ni 02Aug2007                  :
  PAW_PBE H 15Jun2001                   :

 POSCAR: 10.46-high
  positions in cartesian coordinates
 exchange correlation table for  LEXCH =        8
   RHO(1)=    0.500       N(1)  =     2000
   RHO(2)=  100.500       N(2)  =     4000

 ion  position               nearest neighbor table
   1  0.779  0.867  0.324-  23 2.57  65 2.60  33 2.60   3 2.62  41 2.70  32 2.70  56 2.71   2 2.73
                             8 2.84  40 2.88  15 2.91  16 3.22
   2  0.040  0.868  0.325-  26 2.59  34 2.60  58 2.62   3 2.64  41 2.66  38 2.66   1 2.73  32 2.74
                            79 2.76   8 2.76  10 2.77  20 3.00
   3  0.033  0.620  0.328-   1 2.62   2 2.64   6 2.65   4 2.65  33 2.69  50 2.71  34 2.72  32 2.74
                             9 2.77  68 2.78  20 2.97  16 3.12
   4  0.031  0.368  0.325-  77 2.58  26 2.60   3 2.65  33 2.65  50 2.66   6 2.68   5 2.70  36 2.72
                            11 2.75  42 2.81   9 2.88  14 2.92
   5  0.289  0.109  0.324-  58 2.53  65 2.56  61 2.60  26 2.61  23 2.62   4 2.70   6 2.71  12 2.72
                            36 2.73  39 2.73  17 2.91  14 2.95
   6  0.287  0.369  0.324-  23 2.63   3 2.65  22 2.67  34 2.68  68 2.68   4 2.68  71 2.70   5 2.71
                            36 2.71  29 2.84   9 2.86  17 2.86
   7  0.865  0.705  0.122-  43 2.51  74 2.52  60 2.55  55 2.56  45 2.63  56 2.63  69 2.65  64 2.66
                            72 2.66  32 2.67  25 2.69  50 2.75
   8  0.874  0.951  0.430-  10 2.62  20 2.62  15 2.63  13 2.63  21 2.64  16 2.66   2 2.76   1 2.84
                            41 2.88
   9  0.120  0.455  0.434-  11 2.60  20 2.62  29 2.62  16 2.62  14 2.64  17 2.65   3 2.77   6 2.86
                             4 2.88
  10  0.124  0.952  0.430-  12 2.61  18 2.61  14 2.61   8 2.62  20 2.62  13 2.63   2 2.77  26 2.84
                            58 2.85
  11  0.873  0.453  0.432-  19 2.59   9 2.60  31 2.61  13 2.61  14 2.63  16 2.65   4 2.75  33 2.85
                            77 2.88
  12  0.373  0.951  0.428-  18 2.58  31 2.60  10 2.61  17 2.62  15 2.63  14 2.63   5 2.72  65 2.75
                            58 2.82
  13  0.872  0.203  0.429-  19 2.61  21 2.61  11 2.61  14 2.62  10 2.63   8 2.63  26 2.82  77 2.83
                            41 2.86
  14  0.123  0.201  0.439-  10 2.61  13 2.62  17 2.62  11 2.63  12 2.63   9 2.64   4 2.92   5 2.95
                            26 3.05
  15  0.623  0.953  0.440-  81 1.77  17 2.60   8 2.63  31 2.63  12 2.63  21 2.63  16 2.64   1 2.91
                            23 2.95  65 3.06
  16  0.873  0.702  0.454-  81 1.74   9 2.62  20 2.64  15 2.64  11 2.65   8 2.66  31 2.67   3 3.12
                             1 3.22  33 3.33
  17  0.373  0.201  0.434-  15 2.60  12 2.62  14 2.62  21 2.62  29 2.63   9 2.65  23 2.84   6 2.86
                             5 2.91
  18  0.374  0.704  0.432-  12 2.58  31 2.59  10 2.61  19 2.62  20 2.63  29 2.63  51 2.74  34 2.78
                            58 2.86
  19  0.624  0.454  0.428-  31 2.59  11 2.59  13 2.61  18 2.62  21 2.62  29 2.65  51 2.71  77 2.75
                            22 2.78
  20  0.124  0.703  0.443-  29 2.61   9 2.62   8 2.62  10 2.62  18 2.63  16 2.64   3 2.97   2 3.00
                            34 3.00
  21  0.622  0.204  0.432-  13 2.61  29 2.61  19 2.62  17 2.62  15 2.63   8 2.64  23 2.87  22 2.87
                            41 2.87
  22  0.540  0.373  0.322-  77 2.53  51 2.58  41 2.59  34 2.61  30 2.64  70 2.66   6 2.67  23 2.72
                            71 2.75  19 2.78  21 2.87  29 2.87
  23  0.536  0.115  0.324-   1 2.57   5 2.62   6 2.63  41 2.64  65 2.65  22 2.72  71 2.76  40 2.79
                            39 2.81  17 2.84  21 2.87  15 2.95
  24  0.539  0.118  0.032-  63 2.57  46 2.57  55 2.58  66 2.61  43 2.64  52 2.64  54 2.65  62 2.68
                            67 2.68
  25  0.123  0.448  0.123-  54 2.50  48 2.52  73 2.58  63 2.59  45 2.60  76 2.63  64 2.63  36 2.65
                            68 2.66  72 2.67   7 2.69  50 2.77
  26  0.035  0.118  0.320-  61 2.58   2 2.59  41 2.60   4 2.60   5 2.61  77 2.65  79 2.66  58 2.66
                            42 2.68  13 2.82  10 2.84  14 3.05
  27  0.033  0.126  0.027-  48 2.58  78 2.61  52 2.61  73 2.61  66 2.61  49 2.62  28 2.64  59 2.70
                            44 2.70
  28  0.114  0.959  0.126-  79 2.57  73 2.59  44 2.60  69 2.61  59 2.62  49 2.63  47 2.63  38 2.64
                            27 2.64  61 2.66  64 2.67  35 2.74
  29  0.372  0.453  0.432-  20 2.61  21 2.61   9 2.62  17 2.63  18 2.63  19 2.65  34 2.81   6 2.84
                            22 2.87
  30  0.454  0.529  0.220-  71 2.56  70 2.57  76 2.60  68 2.61  57 2.62  22 2.64  35 2.65  37 2.65
                            80 2.66  38 2.69  34 2.73  51 2.81
  31  0.622  0.702  0.431-  19 2.59  18 2.59  12 2.60  11 2.61  15 2.63  16 2.67  51 2.76  33 2.78
                            65 2.81
  32  0.949  0.783  0.224-  50 2.58  56 2.60  68 2.62  64 2.65  79 2.66   7 2.67  40 2.69  38 2.70
                             1 2.70   2 2.74   3 2.74  69 2.74
  33  0.776  0.620  0.322-  51 2.51  65 2.54  77 2.56   1 2.60  50 2.62  37 2.65   4 2.65  56 2.69
                             3 2.69  31 2.78  11 2.85  16 3.33
  34  0.292  0.622  0.325-  51 2.54  58 2.54   2 2.60  22 2.61   6 2.68  38 2.71   3 2.72  30 2.73
                            68 2.76  18 2.78  29 2.81  20 3.00
  35  0.378  0.700  0.123-  53 2.48  59 2.53  75 2.54  60 2.57  57 2.59  47 2.60  30 2.65  64 2.68
                            76 2.68  80 2.70  38 2.73  28 2.74
  36  0.199  0.285  0.223-  73 2.61  71 2.61  61 2.62  50 2.63  63 2.63  68 2.63  25 2.65  42 2.65
                            39 2.69   6 2.71   4 2.72   5 2.73
  37  0.699  0.545  0.219-  56 2.52  80 2.54  60 2.55  50 2.57  72 2.60  57 2.61  33 2.65  30 2.65
                            42 2.68  70 2.69  77 2.74  51 2.79
  38  0.202  0.792  0.224-  61 2.52  80 2.58  58 2.59  79 2.62  28 2.64  64 2.66   2 2.66  68 2.69
                            30 2.69  32 2.70  34 2.71  35 2.73
  39  0.451  0.023  0.219-  80 2.50  61 2.53  47 2.53  56 2.54  55 2.55  63 2.60  40 2.68  36 2.69
                            65 2.69   5 2.73  71 2.75  23 2.81
  40  0.696  0.043  0.215-  46 2.54  69 2.56  70 2.57  71 2.59  55 2.59  79 2.61  56 2.68  39 2.68
                            32 2.69  41 2.75  23 2.79   1 2.88
  41  0.784  0.122  0.320-  22 2.59  26 2.60  77 2.61  70 2.63  79 2.64  23 2.64   2 2.66   1 2.70
                            40 2.75  13 2.86  21 2.87   8 2.88
  42  0.947  0.281  0.218-  49 2.52  79 2.55  70 2.55  72 2.57  73 2.62  36 2.65  61 2.67  50 2.68
                            26 2.68  37 2.68  77 2.72   4 2.81
  43  0.789  0.864  0.029-   7 2.51  69 2.56  45 2.62  67 2.63  24 2.64  55 2.64  74 2.65  66 2.67
                            44 2.67
  44  0.045  0.863  0.030-  75 2.54  45 2.58  64 2.58  28 2.60  59 2.60  69 2.61  43 2.67  66 2.70
                            27 2.70
  45  0.042  0.618  0.028-  75 2.52  54 2.57  44 2.58  25 2.60  64 2.61  43 2.62  48 2.62   7 2.63
                            74 2.72
  46  0.618  0.214  0.124-  76 2.47  57 2.50  40 2.54  49 2.54  62 2.55  70 2.55  24 2.57  71 2.62
                            66 2.63  69 2.64  63 2.64  55 2.85
  47  0.369  0.952  0.123-  52 2.46  59 2.49  55 2.52  39 2.53  67 2.56  73 2.60  35 2.60  60 2.60
                            63 2.62  28 2.63  61 2.71  80 2.74
  48  0.025  0.377  0.032-  72 2.47  74 2.50  25 2.52  78 2.55  73 2.57  27 2.58  45 2.62  52 2.75
                            54 2.76
  49  0.863  0.211  0.123-  78 2.46  57 2.51  72 2.52  42 2.52  46 2.54  66 2.59  70 2.60  27 2.62
                            28 2.63  69 2.63  79 2.65  73 2.68
  50  0.948  0.537  0.226-  37 2.57  32 2.58  56 2.61  33 2.62  36 2.63  68 2.65   4 2.66  42 2.68
[...]
     12.71905      4.86079      4.97755         0.067414      0.008275     -0.063922
      8.84269      5.63521      7.18131         0.000066      0.013646     -0.000693
      3.61116      1.03011      0.71575         0.024759      0.005924      0.006186
      8.96244      5.55017      0.78359         0.021721     -0.012436     -0.025201
      4.99011      3.39374      0.70946         0.018467      0.006845      0.002866
     11.35685      8.54256      2.74103        -0.008391      0.003467      0.010665
     11.41974      7.11664      4.85312         0.022175      0.044726      0.008633
      8.87054      4.07764      2.72515         0.008594      0.010448      0.023584
      7.57606      7.83661      7.04870         0.010200     -0.008185      0.008461
      7.58345      7.86427      0.68786         0.012199     -0.001797      0.001953
     10.17979      6.39732      2.73108         0.009212     -0.020339     -0.009002
[...]
     10.14167      7.81097      0.64587         0.006350     -0.008991      0.008597
      4.90924      4.84723      4.90184        -0.014578      0.002236      0.036283
     14.05673      8.67588      2.68456         0.008478      0.002574     -0.001968
      8.83290      2.58989      4.85900        -0.009564     -0.018959     -0.007641
      6.18453      2.60592      4.85170         0.002333     -0.013320      0.040809
     11.42400      4.06434      2.72845        -0.004992      0.024148     -0.012694
      2.34232      1.83008      2.72921        -0.004576      0.019122     -0.003596
     11.41431      5.56039      0.71047        -0.033672     -0.011412      0.021244
      6.18959      5.58046      0.74095        -0.024191     -0.018815      0.004880
      6.25827      4.02492      2.70387         0.014188     -0.014078     -0.016461
     10.12807      3.37229      7.07324        -0.019842      0.024450      0.006729
     10.13694      3.37925      0.73892        -0.011393     -0.001796      0.015175
     10.11248      0.34012      4.85224         0.001003      0.005351     -0.024216
      8.83182      7.10221      4.97875        -0.024706      0.004785     -0.033428
     12.11646      7.61148     10.97045        -0.044285     -0.012819      0.120861
    total drift:                               -0.003454      0.020893     -0.011857

  FREE ENERGIE OF THE ION-ELECTRON SYSTEM (eV)
  free  energy   TOTEN  =      -515.67028227 eV

  energy  without entropy=     -515.67028227  energy(sigma->0) =     -515.67028227

 d Force =-0.2091696E-04[-0.363E-02, 0.358E-02]  d Energy = 0.1635903E-03-0.185E-03
 d Force =-0.1030458E+02[-0.103E+02,-0.103E+02]  d Ewald  =-0.1030475E+02 0.166E-03

 Finite differences progress:
  Degree of freedom:   3/  3
  Displacement:        2/  2
  Total:               6/  6

 SECOND DERIVATIVES (NOT SYMMETRIZED)
              81X         81Y         81Z
 81X    -0.996849    0.729177    0.500929
 81Y     0.723292   -1.992772   -1.140000
 81Z     0.507885   -1.154212   -8.010931

 Eigenvectors and eigenvalues of the dynamical matrix

   1 f  =   44.975883 THz   282.591808 2PiTHz 1500.233932 cm-1   186.005368 meV
             X         Y         Z           dx          dy          dz
     12.682251  7.853321  7.135334            0           0           0
      4.954112  7.864193  7.143495            0           0           0
      3.582033  5.614865  7.224084            0           0           0
      2.246412  3.331913  7.155049            0           0           0
      3.587309  0.985024  7.118082            0           0           0
      4.929473  3.340593  7.121194            0           0           0
     12.731512  6.386202  2.690597            0           0           0
     14.114722  8.614441  9.465188            0           0           0
      3.638710  4.121514  9.553659            0           0           0
      6.273054  8.622306  9.452801            0           0           0
     11.495520  4.101327  9.498551            0           0           0
      8.878013  8.611610  9.424766            0           0           0
     10.187566  1.839601  9.448637            0           0           0
      2.338372  1.825296  9.657266            0           0           0
     11.496295  8.630316  9.677446            0           0           0
     12.804097  6.358858  9.987864            0           0           0
      4.955616  1.818516  9.546824            0           0           0
      7.590785  6.374037  9.509367            0           0           0
      8.902292  4.109999  9.416386            0           0           0
      4.968954  6.365524  9.736707            0           0           0
      7.577930  1.847975  9.503761            0           0           0
      7.598521  3.377580  7.078388            0           0           0
      6.203841  1.042207  7.121081            0           0           0
      6.252151  1.069120  0.712476            0           0           0
      3.629947  4.060530  2.703952            0           0           0
      0.980265  1.065162  7.038783            0           0           0
      1.009994  1.144150  0.595390            0           0           0
      6.209486  8.689384  2.763651            0           0           0
      6.258589  4.104434  9.510310            0           0           0
      7.513452  4.796155  4.848780            0           0           0
     10.181858  6.360234  9.489116            0           0           0
     14.020167  7.090550  4.919448            0           0           0
     11.354536  5.614329  7.081721            0           0           0
      6.303672  5.636905  7.152990            0           0           0
      7.608368  6.338105  2.701617            0           0           0
      3.570795  2.579196  4.901762            0           0           0
     10.156428  4.936169  4.822298            0           0           0
      6.255588  7.172819  4.925673            0           0           0
      4.835716  0.206390  4.815478            0           0           0
      7.507131  0.386266  4.739423            0           0           0
      8.842558  1.102821  7.033452            0           0           0
     11.380678  2.548167  4.803738            0           0           0
     12.770488  7.830531  0.633320            0           0           0
      4.982628  7.814221  0.650337            0           0           0
      3.669646  5.596209  0.612247            0           0           0
      7.579688  1.938875  2.735304            0           0           0
      8.838755  8.623691  2.695591            0           0           0
      2.230602  3.411877  0.708775            0           0           0
     10.123894  1.908403  2.712351            0           0           0
     12.719051  4.860790  4.977551            0           0           0
      8.842694  5.635206  7.181314            0           0           0
      3.611159  1.030107  0.715746            0           0           0
      8.962440  5.550174  0.783586            0           0           0
      4.990107  3.393744  0.709460            0           0           0
     11.356853  8.542558  2.741032            0           0           0
     11.419743  7.116638  4.853119            0           0           0
      8.870541  4.077644  2.725148            0           0           0
      7.576057  7.836614  7.048702            0           0           0
      7.583454  7.864267  0.687861            0           0           0
     10.179788  6.397321  2.731078            0           0           0
[...]
     10.141670  7.810971  0.645866            0           0           0
      4.909237  4.847227  4.901839            0           0           0
     14.056726  8.675881  2.684563            0           0           0
      8.832903  2.589890  4.859003            0           0           0
      6.184535  2.605925  4.851696            0           0           0
     11.424000  4.064340  2.728447            0           0           0
      2.342315  1.830083  2.729215            0           0           0
     11.414307  5.560394  0.710474            0           0           0
      6.189591  5.580463  0.740954            0           0           0
      6.258266  4.024923  2.703874            0           0           0
     10.128070  3.372292  7.073239            0           0           0
     10.136941  3.379254  0.738921            0           0           0
     10.112477  0.340119  4.852238            0           0           0
      8.831820  7.102214  4.978755            0           0           0
     12.116455  7.611482 10.985448    -0.086592    0.188579    0.978233

[...]

   3 f  =   12.240507 THz    76.909374 2PiTHz  408.299355 cm-1    50.622686 meV
             X         Y         Z           dx          dy          dz
     12.682251  7.853321  7.135334            0           0           0
      4.954112  7.864193  7.143495            0           0           0
      3.582033  5.614865  7.224084            0           0           0
      2.246412  3.331913  7.155049            0           0           0
      3.587309  0.985024  7.118082            0           0           0
      4.929473  3.340593  7.121194            0           0           0
     12.731512  6.386202  2.690597            0           0           0
     14.114722  8.614441  9.465188            0           0           0
      3.638710  4.121514  9.553659            0           0           0
      6.273054  8.622306  9.452801            0           0           0
     11.495520  4.101327  9.498551            0           0           0
      8.878013  8.611610  9.424766            0           0           0
     10.187566  1.839601  9.448637            0           0           0
      2.338372  1.825296  9.657266            0           0           0
     11.496295  8.630316  9.677446            0           0           0
     12.804097  6.358858  9.987864            0           0           0
      4.955616  1.818516  9.546824            0           0           0
      7.590785  6.374037  9.509367            0           0           0
      8.902292  4.109999  9.416386            0           0           0
      4.968954  6.365524  9.736707            0           0           0
      7.577930  1.847975  9.503761            0           0           0
      7.598521  3.377580  7.078388            0           0           0
      6.203841  1.042207  7.121081            0           0           0
      6.252151  1.069120  0.712476            0           0           0
      3.629947  4.060530  2.703952            0           0           0
      0.980265  1.065162  7.038783            0           0           0
      1.009994  1.144150  0.595390            0           0           0
      6.209486  8.689384  2.763651            0           0           0
      6.258589  4.104434  9.510310            0           0           0
      7.513452  4.796155  4.848780            0           0           0
     10.181858  6.360234  9.489116            0           0           0
     14.020167  7.090550  4.919448            0           0           0
     11.354536  5.614329  7.081721            0           0           0
      6.303672  5.636905  7.152990            0           0           0
      7.608368  6.338105  2.701617            0           0           0
      3.570795  2.579196  4.901762            0           0           0
     10.156428  4.936169  4.822298            0           0           0
      6.255588  7.172819  4.925673            0           0           0
      4.835716  0.206390  4.815478            0           0           0
      7.507131  0.386266  4.739423            0           0           0
      8.842558  1.102821  7.033452            0           0           0
     11.380678  2.548167  4.803738            0           0           0
     12.770488  7.830531  0.633320            0           0           0
      4.982628  7.814221  0.650337            0           0           0
      3.669646  5.596209  0.612247            0           0           0
      7.579688  1.938875  2.735304            0           0           0
      8.838755  8.623691  2.695591            0           0           0
      2.230602  3.411877  0.708775            0           0           0
     10.123894  1.908403  2.712351            0           0           0
     12.719051  4.860790  4.977551            0           0           0
      8.842694  5.635206  7.181314            0           0           0
      3.611159  1.030107  0.715746            0           0           0
      8.962440  5.550174  0.783586            0           0           0
      4.990107  3.393744  0.709460            0           0           0
     11.356853  8.542558  2.741032            0           0           0
     11.419743  7.116638  4.853119            0           0           0
      8.870541  4.077644  2.725148            0           0           0
      7.576057  7.836614  7.048702            0           0           0
      7.583454  7.864267  0.687861            0           0           0
     10.179788  6.397321  2.731078            0           0           0
[...]
     10.141670  7.810971  0.645866            0           0           0
      4.909237  4.847227  4.901839            0           0           0
     14.056726  8.675881  2.684563            0           0           0
      8.832903  2.589890  4.859003            0           0           0
      6.184535  2.605925  4.851696            0           0           0
     11.424000  4.064340  2.728447            0           0           0
      2.342315  1.830083  2.729215            0           0           0
     11.414307  5.560394  0.710474            0           0           0
      6.189591  5.580463  0.740954            0           0           0
      6.258266  4.024923  2.703874            0           0           0
     10.128070  3.372292  7.073239            0           0           0
     10.136941  3.379254  0.738921            0           0           0
     10.112477  0.340119  4.852238            0           0           0
      8.831820  7.102214  4.978755            0           0           0
     12.116455  7.611482 10.985448     0.880123    0.474551   -0.013574

 Finite differences POTIM=  1.500000000000000E-002
  LATTYP: Found a hexagonal cell.
 ALAT       =    10.4600000381
 C/A-ratio  =     2.1032504704

  Lattice vectors:

 A1 = (   5.2300000190,  -9.0586257566,   0.0000000000)
 A2 = ( -10.4600000381,   0.0000000000,   0.0000000000)
 A3 = (   0.0000000000,   0.0000000000, -22.0000000000)

Analysis of symmetry for initial positions (statically):
 Subroutine PRICEL returns:
 Original cell was already a primitive cell.

[...]

The static configuration has the point symmetry C_1 .

Analysis of symmetry for dynamics (positions and initial velocities):
 Subroutine PRICEL returns:
 Original cell was already a primitive cell.

[...]

The dynamic configuration has the point symmetry C_1 .

Analysis of constrained symmetry for selective dynamics:
 Subroutine PRICEL returns:
 Original cell was already a primitive cell.

[...]

The constrained configuration has the point symmetry C_1 .

Analysis of structural, dynamic, and magnetic symmetry:
 Subroutine PRICEL returns:
 Original cell was already a primitive cell.

 Routine SETGRP: Setting up the symmetry group for a
 hexagonal supercell.

 Subroutine GETGRP returns: Found  1 space group operations
 (whereof  1 operations were pure point group operations)
 out of a pool of 24 trial point group operations.

The magnetic configuration has the point symmetry C_1 .

 Subroutine INISYM returns: Found  1 space group operations
 (whereof  1 operations are pure point group operations),
 and found     1 'primitive' translations

 KPOINTS: mesh auto

Automatic generation of k-mesh.
Space group operators:
 irot       det(A)        alpha          n_x          n_y          n_z        tau_x        tau_y        tau_z
    1     1.000000     0.000000     1.000000     0.000000     0.000000     0.000000     0.000000     0.000000

 Subroutine IBZKPT returns following result:

 Found      4 irreducible k-points:

 Following reciprocal coordinates:
            Coordinates               Weight
  0.000000  0.000000  0.000000      1.000000
  0.500000 -0.000000  0.000000      1.000000
  0.000000  0.500000  0.000000      1.000000
  0.500000  0.500000  0.000000      1.000000

 Following cartesian coordinates:
            Coordinates               Weight
  0.000000  0.000000  0.000000      1.000000
  0.047801 -0.027598  0.000000      1.000000
  0.000000  0.055196  0.000000      1.000000
  0.047801  0.027598  0.000000      1.000000

 TETIRR: Found     12 inequivalent tetrahedra from       24
 BZINTS: Fermi energy:  2.599362;782.000000 electrons
         Band energy:-397.126420;  BLOECHL correction: -0.160423