 vasp.5.4.4.18Apr17-6-g9f103f2a35 (build Oct 25 2019 11:13:22) complex

 executed on             LinuxIFC date 2022.02.13  02:33:46

 INCAR:
 POTCAR:    PAW_PBE Pt 04Feb2005
 POTCAR:    PAW_PBE Co 02Aug2007
 POTCAR:    PAW_PBE Ni 02Aug2007
 POTCAR:    PAW_PBE H 15Jun2001

 POTCAR:    PAW_PBE Pt 04Feb2005
   VRHFIN =Pt: s1d9

   TITEL  = PAW_PBE Pt 04Feb2005
   POMASS =  195.080; ZVAL   =   10.000    mass and valenz
   ENMAX  =  230.283; ENMIN  =  172.712 eV

 POTCAR:    PAW_PBE Co 02Aug2007
   VRHFIN =Co: d8 s1

   TITEL  = PAW_PBE Co 02Aug2007
   POMASS =   58.933; ZVAL   =    9.000    mass and valenz
   ENMAX  =  267.968; ENMIN  =  200.976 eV

 POTCAR:    PAW_PBE Ni 02Aug2007
   VRHFIN =Ni:

   TITEL  = PAW_PBE Ni 02Aug2007
   POMASS =   58.690; ZVAL   =   10.000    mass and valenz
   ENMAX  =  269.532; ENMIN  =  202.149 eV

 POTCAR:    PAW_PBE H 15Jun2001
   VRHFIN =H: ultrasoft test

   TITEL  = PAW_PBE H 15Jun2001
   POMASS =    1.000; ZVAL   =    1.000    mass and valenz
   ENMAX  =  250.000; ENMIN  =  200.000 eV

 Optimization of the real space projectors (new method)

 maximal supplied QI-value         = 14.36
 optimisation between [QCUT,QGAM] = [ 11.92, 23.98] = [ 39.79,161.09] Ry
 Optimized for a Real-space Cutoff    1.49 Angstroem

   l    n(q)    QCUT    max X(q) W(low)/X(q) W(high)/X(q)  e(spline)
   2     10    11.920    66.195    0.79E-04    0.18E-03    0.24E-06
   2     10    11.920    64.643    0.81E-04    0.19E-03    0.24E-06
   0     11    11.920    95.520    0.28E-04    0.54E-04    0.18E-06
   0     11    11.920    63.403    0.27E-04    0.52E-04    0.17E-06
   1     10    11.920    19.961    0.18E-04    0.11E-03    0.23E-06
   1     10    11.920    13.289    0.25E-04    0.87E-04    0.19E-06
 Optimization of the real space projectors (new method)

[...]

   l    n(q)    QCUT    max X(q) W(low)/X(q) W(high)/X(q)  e(spline)
   2      9    11.864    60.317    0.21E-03    0.51E-03    0.25E-06
   2      9    11.864    55.921    0.21E-03    0.51E-03    0.26E-06
   0      9    11.864    51.690    0.22E-03    0.30E-04    0.17E-06
   0      9    11.864    30.015    0.20E-03    0.28E-04    0.15E-06
   1      9    11.864    18.849    0.76E-04    0.33E-03    0.17E-06
   1      9    11.864    14.624    0.60E-04    0.28E-03    0.15E-06
 Optimization of the real space projectors (new method)

 maximal supplied QI-value         = 34.20
 optimisation between [QCUT,QGAM] = [ 11.97, 23.94] = [ 40.13,160.53] Ry
 Optimized for a Real-space Cutoff    1.18 Angstroem

   l    n(q)    QCUT    max X(q) W(low)/X(q) W(high)/X(q)  e(spline)
   0      8    11.971    19.460    0.15E-03    0.31E-03    0.25E-06
   0      8    11.971    12.209    0.13E-03    0.29E-03    0.25E-06
   1      8    11.971     4.655    0.22E-03    0.24E-03    0.21E-06
  PAW_PBE Pt 04Feb2005                  :
  PAW_PBE Co 02Aug2007                  :
  PAW_PBE Ni 02Aug2007                  :
  PAW_PBE H 15Jun2001                   :

 POSCAR: 11.26
  positions in cartesian coordinates
 exchange correlation table for  LEXCH =        8
   RHO(1)=    0.500       N(1)  =     2000
   RHO(2)=  100.500       N(2)  =     4000

 ion  position               nearest neighbor table
   1  0.789  0.878  0.301-  49 2.47  59 2.57  60 2.64  28 2.70   2 2.74   4 2.74  29 2.74  19 2.80
                            11 2.84  12 2.84  61 2.87  33 2.95
   2  0.032  0.878  0.292-  79 2.48  77 2.56  60 2.73   1 2.74  28 2.74   4 2.81   6 2.85  16 2.89
                            30 2.90  33 3.01  22 3.18  52 3.26
   3  0.275  0.362  0.311-  64 2.55  31 2.63  68 2.63  39 2.68  33 2.69   5 2.72  30 2.74  13 2.77
                            25 2.78  43 2.81  19 2.81  18 2.89
   4  0.876  0.966  0.399-  60 2.69   9 2.71  17 2.71   1 2.74  16 2.75   6 2.76   2 2.81  12 2.85
                            11 2.86
   5  0.118  0.460  0.413-  81 1.78  39 2.67   3 2.72  10 2.73  33 2.77   7 2.79  12 2.79  25 2.88
                            16 2.88  13 2.93
   6  0.128  0.952  0.397-  52 2.60  22 2.71  16 2.71   4 2.76   8 2.79  14 2.80   2 2.85  10 2.93
                             9 2.96
   7  0.873  0.454  0.412-  75 2.55  39 2.57   9 2.78   5 2.79  10 2.80  27 2.80  29 2.82  15 2.84
                            12 2.92
   8  0.375  0.952  0.415-  52 2.54  43 2.55  61 2.69  13 2.77   6 2.79  27 2.80  10 2.84  14 2.85
                            11 2.85
   9  0.862  0.214  0.397-  75 2.59  22 2.67   4 2.71  17 2.73  15 2.75   7 2.78  60 2.79   6 2.96
                            10 3.00
  10  0.129  0.211  0.413-  22 2.63  43 2.68  13 2.73   5 2.73  39 2.80   7 2.80   8 2.84   6 2.93
                             9 3.00
  11  0.629  0.951  0.409-  61 2.64  12 2.71  19 2.74  27 2.75  17 2.78  13 2.79   1 2.84   8 2.85
                             4 2.86
  12  0.875  0.713  0.408-  29 2.65  11 2.71  16 2.73  33 2.79   5 2.79  27 2.81   1 2.84   4 2.85
                             7 2.92
  13  0.378  0.198  0.414-  43 2.68  10 2.73  19 2.73   3 2.77   8 2.77  11 2.79  17 2.81  25 2.81
                             5 2.93
  14  0.375  0.700  0.401-  52 2.52  44 2.55  15 2.72   6 2.80  16 2.81  25 2.82   8 2.85  30 2.87
                            27 2.89
  15  0.618  0.460  0.399-  75 2.53  44 2.59  14 2.72  25 2.75   9 2.75   7 2.84  27 2.84  18 2.87
                            17 2.88
  16  0.116  0.717  0.402-  81 1.73  30 2.69   6 2.71  12 2.73   4 2.75  33 2.79  14 2.81   5 2.88
                             2 2.89  25 3.01
  17  0.627  0.199  0.404-  18 2.70   4 2.71   9 2.73  25 2.77  11 2.78  19 2.78  13 2.81  60 2.82
                            15 2.88
  18  0.539  0.347  0.301-  67 2.45  26 2.60  68 2.66  60 2.68  19 2.70  17 2.70  25 2.78  15 2.87
                             3 2.89  30 2.95  75 3.18
  19  0.527  0.113  0.308-  59 2.47  80 2.50  68 2.57  43 2.61  61 2.63  18 2.70  13 2.73  11 2.74
                            17 2.78   1 2.80   3 2.81  60 2.92
  20  0.546  0.126  0.067-  48 2.50  57 2.52  47 2.52  62 2.53  37 2.60  56 2.66  34 2.70  63 2.89

  21  0.118  0.408  0.119-  47 2.44  40 2.48  36 2.49  69 2.60  57 2.64  42 2.67  64 2.70  70 2.72
                            31 2.74  50 3.30
  22  0.053  0.148  0.311-  77 2.42  65 2.51  55 2.52  43 2.58  39 2.62  10 2.63   9 2.67   6 2.71
                            75 2.91  52 3.05  31 3.06   2 3.18  60 3.22
  23  0.009  0.102  0.049-  40 2.49  62 2.55  70 2.57  41 2.59  45 2.66  76 2.69  24 2.70  35 2.74
                            53 3.07
  24  0.138  0.927  0.142-  79 2.46  35 2.50  77 2.54  58 2.54  53 2.56  55 2.59  38 2.59  73 2.64
                            70 2.65  23 2.70  66 2.83
  25  0.381  0.446  0.406-  15 2.75  30 2.76  17 2.77  18 2.78   3 2.78  13 2.81  14 2.82   5 2.88
                            16 3.01
  26  0.480  0.554  0.230-  74 2.50  44 2.51  73 2.52  51 2.59  18 2.60  79 2.60  78 2.62  30 2.63
                            32 2.66  67 2.70
  27  0.628  0.707  0.413-  44 2.50  61 2.70  11 2.75   8 2.80  29 2.80   7 2.80  12 2.81  15 2.84
                            14 2.89
  28  0.953  0.759  0.204-  58 2.53  50 2.61  66 2.61  42 2.62  36 2.63  33 2.68   1 2.70   2 2.74
                            64 2.80  49 2.88  34 3.22  59 3.23  35 3.30
  29  0.797  0.631  0.311-  39 2.59  32 2.61  75 2.61  49 2.61  42 2.63  33 2.63  12 2.65  44 2.66
                             1 2.74  27 2.80   7 2.82  61 2.83
  30  0.273  0.606  0.303-  79 2.44  33 2.60  64 2.61  26 2.63  16 2.69   3 2.74  25 2.76  14 2.87
                             2 2.90  18 2.95  52 3.30
  31  0.187  0.262  0.225-  70 2.52  57 2.57  65 2.58  55 2.59  39 2.62   3 2.63  43 2.63  42 2.72
                            80 2.73  21 2.74  68 2.76  64 2.79  22 3.06
  32  0.711  0.561  0.214-  69 2.53  51 2.56  54 2.61  29 2.61  49 2.62  26 2.66  65 2.66  50 2.66
                            75 2.68  42 2.68  78 2.71  67 2.73  44 2.74
  33  0.042  0.607  0.306-  42 2.47  39 2.51  64 2.52  30 2.60  29 2.63  28 2.68   3 2.69   5 2.77
                            16 2.79  12 2.79   1 2.95   2 3.01
  34  0.782  0.884  0.080-  48 2.38  35 2.38  50 2.53  66 2.54  36 2.55  62 2.67  20 2.70  28 3.22

  35  0.002  0.866  0.072-  36 2.37  34 2.38  66 2.43  24 2.50  58 2.60  23 2.74  62 2.75  28 3.30

  36  0.006  0.657  0.094-  50 2.33  35 2.37  58 2.38  21 2.49  34 2.55  28 2.63
  37  0.628  0.234  0.150-  41 2.41  56 2.42  59 2.43  67 2.44  62 2.45  68 2.50  51 2.50  74 2.51
                            20 2.60  66 2.60
  38  0.361  0.942  0.135-  53 2.40  45 2.41  63 2.42  57 2.43  48 2.45  55 2.45  54 2.46  78 2.48
                            80 2.54  73 2.59  24 2.59  70 2.83
  39  0.022  0.395  0.316-  42 2.46  33 2.51  65 2.56  75 2.57   7 2.57  29 2.59  22 2.62  31 2.62
                             5 2.67   3 2.68  10 2.80
  40  0.013  0.321  0.044-  69 2.32  76 2.45  21 2.48  23 2.49  70 2.51  45 2.63  71 2.93
  41  0.844  0.228  0.139-  67 2.35  76 2.37  77 2.38  37 2.41  62 2.44  51 2.48  69 2.48  66 2.49
                            65 2.58  23 2.59  70 2.61
  42  0.967  0.520  0.219-  39 2.46  33 2.47  50 2.48  64 2.48  65 2.50  28 2.62  29 2.63  69 2.65
                            21 2.67  32 2.68  31 2.72
  43  0.303  0.099  0.319-  52 2.45  80 2.47  55 2.51   8 2.55  61 2.58  22 2.58  19 2.61  31 2.63
                            13 2.68  10 2.68   3 2.81
  44  0.552  0.649  0.317-  61 2.46  78 2.47  27 2.50  26 2.51  52 2.55  14 2.55  15 2.59  29 2.66
                            75 2.72  32 2.74
  45  0.251  0.091  0.049-  38 2.41  57 2.45  53 2.48  70 2.50  63 2.54  40 2.63  23 2.66
  46  0.529  0.612  0.047-  54 2.37  73 2.44  51 2.45  71 2.47  72 2.53  53 2.63  56 2.72  76 2.87
                            63 3.07
  47  0.334  0.361  0.072-  74 2.29  56 2.44  21 2.44  57 2.50  72 2.50  20 2.52
  48  0.581  0.937  0.137-  49 2.29  63 2.35  34 2.38  54 2.38  80 2.38  38 2.45  59 2.46  20 2.50
                            57 2.63  50 2.74
  49  0.677  0.809  0.223-  48 2.29  50 2.34  61 2.46  78 2.47   1 2.47  59 2.54  80 2.57  29 2.61
                            32 2.62  54 2.79  28 2.88
  50  0.810  0.679  0.140-  36 2.33  49 2.34  54 2.38  71 2.39  42 2.48  69 2.52  34 2.53  28 2.61
                            32 2.66  48 2.74  21 3.30
  51  0.629  0.454  0.133-  56 2.40  76 2.44  46 2.45  41 2.48  37 2.50  67 2.53  32 2.56  26 2.59
                            74 2.59  69 2.66  73 2.78  54 2.83
  52  0.322  0.873  0.316-  55 2.36  79 2.41  61 2.42  78 2.44  43 2.45  14 2.52   8 2.54  44 2.55
                             6 2.60  22 3.05   2 3.26  30 3.30
  53  0.299  0.850  0.050-  73 2.39  38 2.40  45 2.48  24 2.56  63 2.58  46 2.63  72 2.82  23 3.07

  54  0.581  0.726  0.124-  46 2.37  50 2.38  48 2.38  73 2.40  71 2.42  63 2.42  38 2.46  78 2.50
                            32 2.61  49 2.79  51 2.83
  55  0.229  0.013  0.230-  52 2.36  80 2.44  79 2.44  38 2.45  43 2.51  22 2.52  78 2.56  24 2.59
                            31 2.59  77 2.61  70 2.62
  56  0.549  0.361  0.055-  51 2.40  37 2.42  47 2.44  74 2.52  76 2.56  62 2.60  72 2.61  20 2.66
                            46 2.72
  57  0.344  0.167  0.132-  38 2.43  45 2.45  80 2.47  47 2.50  20 2.52  68 2.55  31 2.57  48 2.63
[...]
     12.89855      6.59993      3.08536         0.004112     -0.022878      0.025137
      9.60902      4.40928      2.93166        -0.012817     -0.002380      0.012515
      8.50537      8.48037      6.95884         0.008352     -0.008808      0.005319
      8.12654      8.25967      1.10014        -0.015431      0.033714     -0.012380
     10.59532      7.05732      2.72628         0.000648      0.018337      0.012703
      2.64345      0.12582      5.05287         0.003519     -0.008772     -0.021115
      8.18206      3.50560      1.21995        -0.009019     -0.040354     -0.003571
      4.79851      1.62222      2.89617        -0.000598     -0.006692      0.025102
      5.80940      6.64990      3.24762        -0.004143     -0.011000     -0.017749
      7.65468      0.41297      4.68699        -0.022252     -0.010964      0.012711
      9.45706      1.12809      6.52395         0.002401     -0.002130     -0.008687
[...]
      9.85949      3.06130      5.05334        -0.024903     -0.014523     -0.023111
      6.31739      2.58312      4.70295        -0.004504     -0.007012      0.001965
     12.25313      4.17493      2.83324        -0.011614     -0.006359     -0.012664
      2.09525      1.75623      3.07324         0.014651      0.001680      0.028692
     11.83128      5.72145      1.13423         0.021571     -0.003046     -0.002699
      6.85743      5.74904      1.30355        -0.008864     -0.005443      0.016116
      8.21979      6.81570      3.00225         0.017482      0.005703      0.013171
      7.04013      4.41026      3.27464         0.005335      0.019712      0.025159
     11.11644      3.90499      6.89910         0.006393     -0.019708     -0.019934
     10.73608      3.41609      1.01158         0.012261     -0.006679      0.028677
     11.35396      0.81935      4.88330        -0.007618      0.013225     -0.035693
      9.67608      7.72321      4.95729         0.020791      0.001694     -0.022770
      7.20385      7.63915      5.11888        -0.004321     -0.034292      0.011164
      5.07803      0.26935      4.93904        -0.006143     -0.016238     -0.057720
      4.66565      5.82601      9.95980         0.000804      0.000545      0.031347
    total drift:                               -0.038514      0.028459     -0.027432

  FREE ENERGIE OF THE ION-ELECTRON SYSTEM (eV)
  free  energy   TOTEN  =      -503.44156526 eV

  energy  without entropy=     -503.44156526  energy(sigma->0) =     -503.44156526

 d Force = 0.7740017E-03[-0.280E-02, 0.435E-02]  d Energy = 0.1300961E-02-0.527E-03
 d Force =-0.4409181E+02[-0.440E+02,-0.442E+02]  d Ewald  =-0.4409193E+02 0.126E-03

 Finite differences progress:
  Degree of freedom:   3/  3
  Displacement:        2/  2
  Total:               6/  6

 SECOND DERIVATIVES (NOT SYMMETRIZED)
              43X         43Y         43Z
 43X    -7.865005    0.056032    0.545065
 43Y     0.210968   -6.312067    1.581852
 43Z     0.488874    1.464424   -7.936859

 Eigenvectors and eigenvalues of the dynamical matrix

   1 f  =    6.102922 THz    38.345791 2PiTHz  203.571563 cm-1    25.239666 meV
             X         Y         Z           dx          dy          dz
     13.783627  8.538003  6.632278            0           0           0
      5.289690  8.535585  6.420022            0           0           0
      5.115285  3.515131  6.851146            0           0           0
     15.251504  9.390836  8.782189            0           0           0
      3.910439  4.470345  9.095555            0           0           0
      6.785421  9.256522  8.742186            0           0           0
     12.347803  4.412665  9.069581            0           0           0
      9.552546  9.256969  9.133913            0           0           0
     10.878488  2.079685  8.726478            0           0           0
      2.631537  2.055233  9.091292            0           0           0
     12.399741  9.244928  9.008806            0           0           0
     13.819052  6.934056  8.979260            0           0           0
      5.357042  1.922244  9.100969            0           0           0
      8.134399  6.806473  8.811691            0           0           0
      9.521923  4.470566  8.784504            0           0           0
      5.327117  6.970772  8.849506            0           0           0
      8.157233  1.937020  8.893241            0           0           0
      7.991868  3.372332  6.615505            0           0           0
      6.549373  1.100885  6.784667            0           0           0
      6.833851  1.229252  1.470327            0           0           0
      3.612352  3.964682  2.619950            0           0           0
      1.428228  1.436148  6.831535            0           0           0
      0.671266  0.989103  1.081883            0           0           0
      6.748073  9.008785  3.123421            0           0           0
      6.782139  4.337350  8.921454            0           0           0
      8.493301  5.384394  5.053784            0           0           0
     11.012160  6.870928  9.096839            0           0           0
     14.948842  7.376730  4.492489            0           0           0
     12.480934  6.131913  6.833153            0           0           0
      6.471031  5.893984  6.660019            0           0           0
      3.574220  2.546241  4.958776            0           0           0
     11.126137  5.452511  4.710247            0           0           0
      3.876129  5.896401  6.724612            0           0           0
     13.734382  8.588522  1.762771            0           0           0
      4.876633  8.413947  1.577885            0           0           0
      3.758771  6.384136  2.060921            0           0           0
      8.358503  2.272242  3.294054            0           0           0
      9.333665  9.158858  2.963491            0           0           0
      2.461059  3.839291  6.946200            0           0           0
      1.948917  3.123684  0.977335            0           0           0
     10.751866  2.212205  3.056235            0           0           0
     13.777989  5.058683  4.814702            0           0           0
      3.953945  0.964465  7.025562     0.328664    0.455645   -0.827265
      9.828990  6.303565  6.974314            0           0           0
      3.327475  0.887173  1.073320            0           0           0
      9.370381  5.944442  1.033549            0           0           0
      5.774364  3.511196  1.588832            0           0           0
     11.780804  9.102106  3.012746            0           0           0
     12.142208  7.864851  4.907167            0           0           0
     12.898551  6.599928  3.085357            0           0           0
      9.609021  4.409279  2.931659            0           0           0
      8.505367  8.480374  6.958838            0           0           0
      8.126536  8.259675  1.100142            0           0           0
     10.595320  7.057317  2.726279            0           0           0
      2.643452  0.125819  5.052866            0           0           0
      8.182065  3.505601  1.219953            0           0           0
      4.798505  1.622219  2.896171            0           0           0
      5.809398  6.649898  3.247617            0           0           0
      7.654684  0.412970  4.686986            0           0           0
      9.457056  1.128085  6.523954            0           0           0
[...]
      9.859490  3.061300  5.053340            0           0           0
      6.317386  2.583125  4.702954            0           0           0
     12.253127  4.174930  2.833240            0           0           0
      2.095248  1.756232  3.073240            0           0           0
     11.831281  5.721446  1.134235            0           0           0
      6.857430  5.749036  1.303551            0           0           0
      8.219787  6.815704  3.002248            0           0           0
      7.040131  4.410259  3.274640            0           0           0
     11.116439  3.904986  6.899097            0           0           0
     10.736077  3.416087  1.011578            0           0           0
     11.353957  0.819354  4.883300            0           0           0
      9.676082  7.723209  4.957292            0           0           0
      7.203849  7.639146  5.118877            0           0           0
      5.078032  0.269348  4.939043            0           0           0
      4.665649  5.826012  9.959796            0           0           0

[...]

   3 f  =    4.705880 THz    29.567915 2PiTHz  156.971250 cm-1    19.461962 meV
             X         Y         Z           dx          dy          dz
     13.783627  8.538003  6.632278            0           0           0
      5.289690  8.535585  6.420022            0           0           0
      5.115285  3.515131  6.851146            0           0           0
     15.251504  9.390836  8.782189            0           0           0
      3.910439  4.470345  9.095555            0           0           0
      6.785421  9.256522  8.742186            0           0           0
     12.347803  4.412665  9.069581            0           0           0
      9.552546  9.256969  9.133913            0           0           0
     10.878488  2.079685  8.726478            0           0           0
      2.631537  2.055233  9.091292            0           0           0
     12.399741  9.244928  9.008806            0           0           0
     13.819052  6.934056  8.979260            0           0           0
      5.357042  1.922244  9.100969            0           0           0
      8.134399  6.806473  8.811691            0           0           0
      9.521923  4.470566  8.784504            0           0           0
      5.327117  6.970772  8.849506            0           0           0
      8.157233  1.937020  8.893241            0           0           0
      7.991868  3.372332  6.615505            0           0           0
      6.549373  1.100885  6.784667            0           0           0
      6.833851  1.229252  1.470327            0           0           0
      3.612352  3.964682  2.619950            0           0           0
      1.428228  1.436148  6.831535            0           0           0
      0.671266  0.989103  1.081883            0           0           0
      6.748073  9.008785  3.123421            0           0           0
      6.782139  4.337350  8.921454            0           0           0
      8.493301  5.384394  5.053784            0           0           0
     11.012160  6.870928  9.096839            0           0           0
     14.948842  7.376730  4.492489            0           0           0
     12.480934  6.131913  6.833153            0           0           0
      6.471031  5.893984  6.660019            0           0           0
      3.574220  2.546241  4.958776            0           0           0
     11.126137  5.452511  4.710247            0           0           0
      3.876129  5.896401  6.724612            0           0           0
     13.734382  8.588522  1.762771            0           0           0
      4.876633  8.413947  1.577885            0           0           0
      3.758771  6.384136  2.060921            0           0           0
      8.358503  2.272242  3.294054            0           0           0
      9.333665  9.158858  2.963491            0           0           0
      2.461059  3.839291  6.946200            0           0           0
      1.948917  3.123684  0.977335            0           0           0
     10.751866  2.212205  3.056235            0           0           0
     13.777989  5.058683  4.814702            0           0           0
      3.953945  0.964465  7.025562    -0.151311   -0.839207   -0.522337
      9.828990  6.303565  6.974314            0           0           0
      3.327475  0.887173  1.073320            0           0           0
      9.370381  5.944442  1.033549            0           0           0
      5.774364  3.511196  1.588832            0           0           0
     11.780804  9.102106  3.012746            0           0           0
     12.142208  7.864851  4.907167            0           0           0
     12.898551  6.599928  3.085357            0           0           0
      9.609021  4.409279  2.931659            0           0           0
      8.505367  8.480374  6.958838            0           0           0
      8.126536  8.259675  1.100142            0           0           0
     10.595320  7.057317  2.726279            0           0           0
      2.643452  0.125819  5.052866            0           0           0
      8.182065  3.505601  1.219953            0           0           0
      4.798505  1.622219  2.896171            0           0           0
      5.809398  6.649898  3.247617            0           0           0
      7.654684  0.412970  4.686986            0           0           0
      9.457056  1.128085  6.523954            0           0           0
[...]
      9.859490  3.061300  5.053340            0           0           0
      6.317386  2.583125  4.702954            0           0           0
     12.253127  4.174930  2.833240            0           0           0
      2.095248  1.756232  3.073240            0           0           0
     11.831281  5.721446  1.134235            0           0           0
      6.857430  5.749036  1.303551            0           0           0
      8.219787  6.815704  3.002248            0           0           0
      7.040131  4.410259  3.274640            0           0           0
     11.116439  3.904986  6.899097            0           0           0
     10.736077  3.416087  1.011578            0           0           0
     11.353957  0.819354  4.883300            0           0           0
      9.676082  7.723209  4.957292            0           0           0
      7.203849  7.639146  5.118877            0           0           0
      5.078032  0.269348  4.939043            0           0           0
      4.665649  5.826012  9.959796            0           0           0

 Finite differences POTIM=  1.500000000000000E-002
  LATTYP: Found a hexagonal cell.
 ALAT       =    11.2227001190
 C/A-ratio  =     1.9603125600

  Lattice vectors:

 A1 = (   5.6113500595,  -9.7191434021,   0.0000000000)
 A2 = ( -11.2227001190,   0.0000000000,   0.0000000000)
 A3 = (   0.0000000000,   0.0000000000, -22.0000000000)

Analysis of symmetry for initial positions (statically):
 Subroutine PRICEL returns:
 Original cell was already a primitive cell.

[...]

The static configuration has the point symmetry C_1 .

Analysis of symmetry for dynamics (positions and initial velocities):
 Subroutine PRICEL returns:
 Original cell was already a primitive cell.

[...]

The dynamic configuration has the point symmetry C_1 .

Analysis of constrained symmetry for selective dynamics:
 Subroutine PRICEL returns:
 Original cell was already a primitive cell.

[...]

The constrained configuration has the point symmetry C_1 .

Analysis of structural, dynamic, and magnetic symmetry:
 Subroutine PRICEL returns:
 Original cell was already a primitive cell.

 Routine SETGRP: Setting up the symmetry group for a
 hexagonal supercell.

 Subroutine GETGRP returns: Found  1 space group operations
 (whereof  1 operations were pure point group operations)
 out of a pool of 24 trial point group operations.

The magnetic configuration has the point symmetry C_1 .

 Subroutine INISYM returns: Found  1 space group operations
 (whereof  1 operations are pure point group operations),
 and found     1 'primitive' translations

 KPOINTS: mesh auto

Automatic generation of k-mesh.
Space group operators:
 irot       det(A)        alpha          n_x          n_y          n_z        tau_x        tau_y        tau_z
    1     1.000000     0.000000     1.000000     0.000000     0.000000     0.000000     0.000000     0.000000

 Subroutine IBZKPT returns following result:

 Found      4 irreducible k-points:

 Following reciprocal coordinates:
            Coordinates               Weight
  0.000000  0.000000  0.000000      1.000000
  0.500000  0.000000  0.000000      1.000000
  0.000000  0.500000  0.000000      1.000000
  0.500000  0.500000  0.000000      1.000000

 Following cartesian coordinates:
            Coordinates               Weight
  0.000000  0.000000  0.000000      1.000000
  0.044553 -0.025722  0.000000      1.000000
  0.000000  0.051445  0.000000      1.000000
  0.044553  0.025722  0.000000      1.000000

 TETIRR: Found     12 inequivalent tetrahedra from       24
 BZINTS: Fermi energy:  1.513493;778.000000 electrons
         Band energy:-899.529496;  BLOECHL correction: -0.230881