 vasp.5.4.4.18Apr17-6-g9f103f2a35 (build Oct 25 2019 11:13:22) complex

 executed on             LinuxIFC date 2022.02.12  02:28:57

 INCAR:
 POTCAR:    PAW_PBE Pt 04Feb2005
 POTCAR:    PAW_PBE Fe 06Sep2000
 POTCAR:    PAW_PBE Co 02Aug2007
 POTCAR:    PAW_PBE Ni 02Aug2007
 POTCAR:    PAW_PBE H 15Jun2001
 POTCAR:    PAW_PBE Pt 04Feb2005
   VRHFIN =Pt: s1d9

   TITEL  = PAW_PBE Pt 04Feb2005
   POMASS =  195.080; ZVAL   =   10.000    mass and valenz
   ENMAX  =  230.283; ENMIN  =  172.712 eV

 POTCAR:    PAW_PBE Fe 06Sep2000
   VRHFIN =Fe:  d7 s1

   TITEL  = PAW_PBE Fe 06Sep2000
   POMASS =   55.847; ZVAL   =    8.000    mass and valenz
   ENMAX  =  267.882; ENMIN  =  200.911 eV

 POTCAR:    PAW_PBE Co 02Aug2007
   VRHFIN =Co: d8 s1

   TITEL  = PAW_PBE Co 02Aug2007
   POMASS =   58.933; ZVAL   =    9.000    mass and valenz
   ENMAX  =  267.968; ENMIN  =  200.976 eV

 POTCAR:    PAW_PBE Ni 02Aug2007
   VRHFIN =Ni:

   TITEL  = PAW_PBE Ni 02Aug2007
   POMASS =   58.690; ZVAL   =   10.000    mass and valenz
   ENMAX  =  269.532; ENMIN  =  202.149 eV

 POTCAR:    PAW_PBE H 15Jun2001
   VRHFIN =H: ultrasoft test

   TITEL  = PAW_PBE H 15Jun2001
   POMASS =    1.000; ZVAL   =    1.000    mass and valenz
   ENMAX  =  250.000; ENMIN  =  200.000 eV

 Optimization of the real space projectors (new method)

 maximal supplied QI-value         = 14.36
 optimisation between [QCUT,QGAM] = [ 11.92, 23.98] = [ 39.79,161.09] Ry
 Optimized for a Real-space Cutoff    1.49 Angstroem

   l    n(q)    QCUT    max X(q) W(low)/X(q) W(high)/X(q)  e(spline)
   2     10    11.920    66.195    0.79E-04    0.18E-03    0.24E-06
   2     10    11.920    64.643    0.81E-04    0.19E-03    0.24E-06
   0     11    11.920    95.520    0.28E-04    0.54E-04    0.18E-06
   0     11    11.920    63.403    0.27E-04    0.52E-04    0.17E-06
   1     10    11.920    19.961    0.18E-04    0.11E-03    0.23E-06
   1     10    11.920    13.289    0.25E-04    0.87E-04    0.19E-06
 Optimization of the real space projectors (new method)

[...]

   l    n(q)    QCUT    max X(q) W(low)/X(q) W(high)/X(q)  e(spline)
   2      9    11.864    60.317    0.21E-03    0.51E-03    0.25E-06
   2      9    11.864    55.921    0.21E-03    0.51E-03    0.26E-06
   0      9    11.864    51.690    0.22E-03    0.30E-04    0.17E-06
   0      9    11.864    30.015    0.20E-03    0.28E-04    0.15E-06
   1      9    11.864    18.849    0.76E-04    0.33E-03    0.17E-06
   1      9    11.864    14.624    0.60E-04    0.28E-03    0.15E-06
 Optimization of the real space projectors (new method)

 maximal supplied QI-value         = 34.20
 optimisation between [QCUT,QGAM] = [ 11.97, 23.94] = [ 40.13,160.53] Ry
 Optimized for a Real-space Cutoff    1.18 Angstroem

   l    n(q)    QCUT    max X(q) W(low)/X(q) W(high)/X(q)  e(spline)
   0      8    11.971    19.460    0.15E-03    0.31E-03    0.25E-06
   0      8    11.971    12.209    0.13E-03    0.29E-03    0.25E-06
   1      8    11.971     4.655    0.22E-03    0.24E-03    0.21E-06
  PAW_PBE Pt 04Feb2005                  :
  PAW_PBE Fe 06Sep2000                  :
  PAW_PBE Co 02Aug2007                  :
  PAW_PBE Ni 02Aug2007                  :
  PAW_PBE H 15Jun2001                   :

 POSCAR: 11.26
  positions in direct lattice
  velocities in cartesian coordinates
 exchange correlation table for  LEXCH =        8
   RHO(1)=    0.500       N(1)  =     2000
   RHO(2)=  100.500       N(2)  =     4000

 ion  position               nearest neighbor table
   1  0.783  0.870  0.304-  52 2.53  59 2.56  28 2.70  19 2.74   2 2.76  61 2.77   4 2.79  29 2.79
                            60 2.81  33 2.81  11 2.86  12 2.86
   2  0.029  0.871  0.301-  79 2.51  77 2.53   1 2.76  30 2.77  33 2.80   4 2.80  28 2.81  60 2.85
                             6 2.86  16 2.95  22 2.95
   3  0.281  0.360  0.311-  64 2.53  68 2.61  31 2.64   5 2.73  43 2.74  13 2.77  39 2.78  25 2.79
                            30 2.79  19 2.84  33 2.85  18 2.92
   4  0.866  0.958  0.406-  81 1.95  60 2.60  17 2.75   9 2.76  11 2.78   1 2.79   2 2.80  12 2.83
                            16 2.87   6 2.87
   5  0.111  0.457  0.410-  39 2.62  33 2.69  12 2.73   3 2.73  16 2.73   7 2.78  10 2.79  25 2.88
                            13 2.89
   6  0.125  0.952  0.405-  55 2.68  22 2.73  14 2.80  10 2.81   9 2.83   8 2.83   2 2.86   4 2.87
                            16 2.90
   7  0.869  0.447  0.411-  39 2.59  75 2.66  29 2.73   9 2.74  15 2.75   5 2.78  10 2.80  27 2.85
                            12 2.89
   8  0.375  0.954  0.417-  55 2.51  43 2.60  61 2.69  13 2.76  11 2.77  27 2.77  10 2.82   6 2.83
                            14 2.88
   9  0.871  0.202  0.406-  75 2.58  60 2.65   7 2.74  17 2.76   4 2.76  22 2.79  15 2.82   6 2.83
                            10 2.84
  10  0.123  0.203  0.411-  43 2.63  39 2.64  22 2.74  13 2.78   5 2.79   7 2.80   6 2.81   8 2.82
                             9 2.84
  11  0.625  0.947  0.413-  81 1.97  61 2.64  19 2.72  12 2.75  27 2.76   8 2.77   4 2.78  13 2.85
                             1 2.86  17 2.88
  12  0.871  0.703  0.411-  29 2.68  33 2.71  16 2.73   5 2.73  11 2.75  27 2.82   4 2.83   1 2.86
                             7 2.89
  13  0.371  0.202  0.415-  43 2.64   8 2.76  19 2.77   3 2.77  10 2.78  25 2.79  17 2.85  11 2.85
                             5 2.89
  14  0.372  0.700  0.404-  44 2.52  55 2.59  15 2.77  25 2.80   6 2.80  27 2.81  30 2.84  16 2.88
                             8 2.88
  15  0.620  0.455  0.408-  75 2.62  44 2.62   7 2.75  14 2.77  18 2.77  17 2.79  27 2.80  25 2.81
                             9 2.82
  16  0.117  0.698  0.411-  33 2.71  30 2.72  12 2.73   5 2.73  25 2.82   4 2.87  14 2.88   6 2.90
                             2 2.95
  17  0.624  0.205  0.411-  81 1.71  60 2.61   4 2.75  19 2.76   9 2.76  18 2.76  15 2.79  25 2.79
                            13 2.85  11 2.88
  18  0.539  0.365  0.307-  67 2.51  68 2.60  26 2.68  60 2.69  25 2.76  17 2.76  15 2.77  75 2.79
                            19 2.85   3 2.92  30 2.94  44 3.01
  19  0.538  0.112  0.313-  68 2.49  80 2.53  59 2.55  43 2.69  61 2.70  11 2.72  60 2.74   1 2.74
                            17 2.76  13 2.77   3 2.84  18 2.85
  20  0.538  0.117  0.053-  47 2.51  37 2.56  51 2.64  63 2.67  50 2.71  62 2.73  34 2.74  46 2.79
                            45 2.87
  21  0.106  0.420  0.118-  40 2.50  36 2.51  50 2.54  70 2.60  47 2.66  42 2.66  64 2.70  69 2.71
                            31 2.79  53 3.03
  22  0.049  0.123  0.306-  77 2.51  65 2.52  58 2.54  39 2.69   6 2.73  10 2.74  43 2.76   9 2.79
                            75 2.86  55 2.92   2 2.95  60 3.07  31 3.27
  23  0.025  0.110  0.043-  40 2.54  41 2.55  70 2.56  35 2.67  62 2.71  24 2.74  56 2.77  76 2.83
                            45 2.93
  24  0.117  0.952  0.146-  79 2.49  35 2.51  70 2.62  77 2.62  58 2.62  56 2.64  48 2.66  73 2.70
                            66 2.72  23 2.74  41 2.84  38 2.93
  25  0.372  0.450  0.409-  18 2.76  30 2.78   3 2.79  17 2.79  13 2.79  14 2.80  15 2.81  16 2.82
                             5 2.88
  26  0.451  0.562  0.222-  73 2.52  74 2.53  54 2.55  79 2.59  30 2.62  44 2.62  32 2.67  18 2.68
                            78 2.68  67 2.98  48 2.99
  27  0.620  0.704  0.413-  44 2.55  61 2.65  11 2.76   8 2.77  29 2.79  15 2.80  14 2.81  12 2.82
                             7 2.85
  28  0.949  0.756  0.207-  48 2.55  53 2.56  66 2.63  42 2.65  33 2.65   1 2.70  64 2.70   2 2.81
                            52 2.85  36 2.90  59 3.15
  29  0.797  0.616  0.313-  42 2.58  52 2.59  32 2.62  39 2.67  12 2.68  33 2.68   7 2.73  44 2.79
                             1 2.79  27 2.79  75 2.85  61 2.89
  30  0.266  0.616  0.306-  79 2.51  33 2.58  26 2.62  64 2.70  16 2.72   2 2.77  25 2.78   3 2.79
                            14 2.84  18 2.94  44 3.19  55 3.29
  31  0.191  0.261  0.224-  70 2.48  58 2.52  47 2.57  39 2.61  43 2.61   3 2.64  65 2.68  64 2.74
                            21 2.79  80 2.81  42 2.83  68 3.00  22 3.27
  32  0.700  0.539  0.222-  69 2.53  54 2.60  44 2.62  29 2.62  75 2.63  57 2.63  65 2.66  26 2.67
                            52 2.68  42 2.70  67 2.73  78 2.76
  33  0.034  0.620  0.311-  64 2.55  30 2.58  28 2.65  29 2.68   5 2.69  16 2.71  12 2.71  42 2.73
                             2 2.80   1 2.81  39 2.82   3 2.85
  34  0.791  0.885  0.059-  51 2.33  66 2.39  53 2.60  62 2.68  35 2.73  20 2.74  36 2.75  63 2.89

  35  0.043  0.865  0.057-  36 2.40  24 2.51  66 2.52  23 2.67  34 2.73  48 2.84  72 2.85  56 2.85
                            62 3.00
  36  0.042  0.658  0.084-  48 2.40  35 2.40  53 2.47  21 2.51  72 2.75  34 2.75  28 2.90
  37  0.624  0.211  0.138-  59 2.38  62 2.40  67 2.45  46 2.46  68 2.48  74 2.55  20 2.56  66 2.66
                            41 2.68  54 2.71  47 2.99  51 3.04
  38  0.377  0.954  0.136-  63 2.36  45 2.39  56 2.40  58 2.42  80 2.45  73 2.50  78 2.54  57 2.61
                            47 2.77  70 2.82  51 2.87  24 2.93
  39  0.028  0.372  0.317-   7 2.59  65 2.61  31 2.61   5 2.62  42 2.64  10 2.64  29 2.67  22 2.69
                            75 2.74   3 2.78  33 2.82  43 3.01
  40  0.983  0.354  0.043-  69 2.31  76 2.42  21 2.50  23 2.54  70 2.62  71 2.63  45 3.12
  41  0.866  0.206  0.135-  77 2.42  76 2.43  67 2.44  62 2.46  65 2.52  23 2.55  69 2.55  66 2.57
                            70 2.65  37 2.68  24 2.84  54 2.87
  42  0.948  0.521  0.217-  53 2.52  69 2.54  64 2.55  65 2.57  29 2.58  39 2.64  28 2.65  21 2.66
                            32 2.70  33 2.73  31 2.83  52 2.97
  43  0.300  0.108  0.320-  58 2.48  55 2.49   8 2.60  31 2.61  80 2.61  10 2.63  13 2.64  61 2.65
                            19 2.69   3 2.74  22 2.76  39 3.01
  44  0.541  0.631  0.318-  14 2.52  78 2.55  27 2.55  32 2.62  15 2.62  26 2.62  55 2.64  61 2.67
                            29 2.79  75 2.86  18 3.01  30 3.19
  45  0.285  0.111  0.053-  38 2.39  70 2.47  47 2.48  56 2.53  63 2.71  20 2.87  23 2.93  40 3.12

  46  0.535  0.367  0.050-  54 2.40  50 2.43  37 2.46  74 2.47  76 2.54  62 2.67  72 2.72  20 2.79
                            49 2.82
  47  0.359  0.209  0.135-  50 2.40  68 2.41  45 2.48  20 2.51  31 2.57  80 2.60  21 2.66  74 2.74
                            38 2.77  70 2.92  37 2.99
  48  0.180  0.691  0.158-  79 2.40  36 2.40  72 2.41  64 2.41  73 2.49  28 2.55  24 2.66  74 2.70
                            35 2.84  26 2.99
  49  0.521  0.625  0.052-  54 2.35  73 2.38  71 2.44  57 2.44  72 2.53  56 2.78  46 2.82  76 2.90
                            63 2.95
  50  0.315  0.374  0.056-  74 2.35  47 2.40  46 2.43  21 2.54  72 2.65  20 2.71
  51  0.642  0.932  0.141-  34 2.33  52 2.34  63 2.45  59 2.53  53 2.55  80 2.56  20 2.64  57 2.67
                            66 2.78  38 2.87  37 3.04
  52  0.683  0.786  0.223-  51 2.34  78 2.41  57 2.48  61 2.52   1 2.53  53 2.55  29 2.59  80 2.65
                            32 2.68  28 2.85  42 2.97  59 3.12
  53  0.830  0.681  0.129-  57 2.36  71 2.40  36 2.47  42 2.52  52 2.55  51 2.55  28 2.56  69 2.59
                            34 2.60  21 3.03
[...]
   0.111E+02 -.551E+02 -.129E+04   -.124E+02 0.550E+02 0.129E+04   0.131E+01 0.150E+00 0.205E+01   -.800E-02 -.202E-01 -.259E-01
   -.371E+02 0.476E+02 -.261E+04   0.377E+02 -.471E+02 0.261E+04   -.648E+00 -.549E+00 0.115E+01   0.101E-01 0.284E-01 0.168E-01
   -.263E+02 -.139E+02 -.264E+04   0.256E+02 0.146E+02 0.264E+04   0.764E+00 -.636E+00 0.244E+01   -.718E-02 -.144E-01 0.208E-01
   0.517E+02 0.150E+02 -.259E+04   -.513E+02 -.155E+02 0.259E+04   -.417E+00 0.489E+00 0.188E+01   -.883E-02 0.250E-01 -.155E-01
   -.257E+02 -.138E+02 -.270E+04   0.255E+02 0.131E+02 0.270E+04   0.235E+00 0.798E+00 0.267E+01   -.282E-01 -.226E-01 -.136E-01
   0.384E+02 -.647E+01 -.279E+04   -.381E+02 0.674E+01 0.279E+04   -.232E+00 -.280E+00 0.343E+01   -.139E-01 0.137E-01 0.156E-01
   -.135E+02 0.472E+02 -.266E+04   0.135E+02 -.468E+02 0.266E+04   -.255E-01 -.450E+00 0.242E+01   0.112E-01 -.174E-02 -.183E-01
   0.202E+02 -.903E+01 -.268E+04   -.195E+02 0.925E+01 0.268E+04   -.627E+00 -.167E+00 0.263E+01   -.227E-01 -.213E-01 -.726E-03
   -.483E+02 0.221E+01 -.270E+04   0.471E+02 -.323E+01 0.270E+04   0.121E+01 0.996E+00 0.169E+01   0.779E-02 0.157E-01 0.350E-01
   -.347E+02 -.104E+02 -.265E+04   0.351E+02 0.956E+01 0.265E+04   -.328E+00 0.883E+00 0.224E+01   0.390E-03 -.100E-02 0.262E-01
   -.186E+02 -.504E+02 -.271E+04   0.178E+02 0.503E+02 0.271E+04   0.934E+00 0.107E+00 0.237E+01   -.135E-01 -.959E-02 0.231E-02
   0.696E+02 0.367E+02 -.263E+04   -.691E+02 -.364E+02 0.263E+04   -.551E+00 -.344E+00 0.256E+01   0.186E-01 0.101E-01 -.431E-04
   0.395E+02 -.104E+02 -.267E+04   -.391E+02 0.110E+02 0.267E+04   -.433E+00 -.580E+00 0.248E+01   0.225E-01 -.153E-01 -.126E-01
   -.133E+02 -.117E+02 -.262E+04   0.128E+02 0.111E+02 0.262E+04   0.457E+00 0.541E+00 0.215E+01   0.149E-03 0.293E-01 0.113E-01
   0.112E+02 -.234E+02 -.269E+04   -.109E+02 0.240E+02 0.269E+04   -.301E+00 -.583E+00 0.181E+01   0.240E-01 0.999E-02 0.187E-01
   0.722E+02 -.780E+02 -.127E+04   -.712E+02 0.772E+02 0.127E+04   -.999E+00 0.786E+00 0.179E+01   0.454E-01 -.113E-01 -.398E-01
   -.150E+02 -.285E+02 -.140E+04   0.145E+02 0.277E+02 0.139E+04   0.434E+00 0.817E+00 0.286E+01   0.674E-02 0.199E-01 0.196E-02
   0.509E+02 0.210E+02 0.274E+04   -.508E+02 -.211E+02 -.274E+04   -.991E-01 0.588E-01 -.270E+01   0.263E-02 -.162E-01 -.103E-01
   -.959E+02 -.110E+03 0.185E+04   0.958E+02 0.110E+03 -.185E+04   0.202E+00 -.215E+00 0.133E+01   -.257E-01 0.271E-02 -.185E-02
   -.251E+01 0.403E+02 -.127E+04   0.318E+01 -.395E+02 0.127E+04   -.659E+00 -.825E+00 0.229E+01   -.254E-01 -.192E-02 -.233E-01
   -.433E+02 0.102E+03 0.286E+04   0.435E+02 -.102E+03 -.286E+04   -.196E+00 -.881E+00 -.236E+01   0.757E-02 -.101E-01 0.490E-02
   0.880E+02 0.240E+02 0.133E+04   -.881E+02 -.249E+02 -.133E+04   0.143E+00 0.879E+00 -.403E+00   0.628E-02 -.352E-02 -.187E-01
   0.125E+02 -.300E+02 -.263E+04   -.123E+02 0.295E+02 0.263E+04   -.189E+00 0.401E+00 0.172E+01   0.761E-02 -.553E-02 0.236E-01
   0.101E+03 0.883E+02 -.258E+01   -.101E+03 -.880E+02 0.211E+01   -.374E+00 -.425E+00 0.173E+00   0.874E-02 0.291E-02 -.357E-01
   -.149E+02 0.401E+02 -.271E+04   0.145E+02 -.396E+02 0.271E+04   0.362E+00 -.437E+00 0.277E+01   -.995E-03 -.177E-01 0.202E-01
   -.478E+02 0.858E+01 0.369E+03   0.479E+02 -.106E+02 -.370E+03   -.176E+00 0.199E+01 0.484E+00   0.190E-01 0.292E-02 -.310E-01
   -.740E+02 -.106E+01 -.132E+04   0.750E+02 0.451E+00 0.131E+04   -.997E+00 0.653E+00 0.255E+01   -.173E-01 -.457E-01 -.193E-01
   0.339E+02 0.254E+02 -.122E+04   -.349E+02 -.249E+02 0.122E+04   0.919E+00 -.424E+00 0.186E+01   0.171E-01 0.205E-01 -.485E-01
   -.444E+02 -.982E+02 0.604E+02   0.440E+02 0.977E+02 -.605E+02   0.400E+00 0.757E+00 0.377E-01   -.246E-01 -.184E-02 -.221E-01
   -.290E+02 -.221E+02 0.337E+02   0.295E+02 0.220E+02 -.339E+02   -.243E+00 0.972E-01 0.120E+00   -.562E-02 -.419E-01 -.214E-01
   0.470E+00 -.716E+01 -.998E+03   -.323E+00 0.716E+01 0.998E+03   -.130E+00 0.592E-01 0.393E+00   0.446E-02 0.333E-02 -.219E-01
   -.367E+02 0.128E+03 0.221E+04   0.381E+02 -.127E+03 -.221E+04   -.131E+01 -.125E+01 -.383E+01   -.858E-03 -.404E-02 -.109E-01
   0.578E+02 0.102E+03 0.219E+04   -.588E+02 -.102E+03 -.218E+04   0.101E+01 -.339E-01 -.351E+01   0.202E-01 0.329E-03 -.285E-02
   0.460E+02 0.442E+02 0.193E+04   -.456E+02 -.427E+02 -.193E+04   -.491E+00 -.133E+01 -.188E+01   0.765E-02 0.107E-01 -.110E-01
   0.775E+02 0.410E+02 0.118E+04   -.769E+02 -.408E+02 -.117E+04   -.653E+00 -.273E+00 -.328E+00   0.184E-01 0.189E-01 -.140E-01
   -.211E+02 -.117E+03 0.123E+04   0.214E+02 0.117E+03 -.123E+04   -.297E+00 0.277E-01 -.142E+00   -.213E-01 -.195E-01 -.350E-01
   -.635E+02 -.327E+02 -.109E+04   0.634E+02 0.328E+02 0.109E+04   0.199E+00 -.122E+00 0.626E-01   -.338E-01 -.203E-01 -.165E-01
   -.245E+03 -.490E+02 0.234E+04   0.243E+03 0.482E+02 -.234E+04   0.238E+01 0.752E+00 -.456E+01   -.168E-01 0.708E-03 0.859E-03
   -.213E+02 0.637E+02 0.120E+04   0.206E+02 -.636E+02 -.120E+04   0.721E+00 -.129E+00 -.488E+00   0.862E-02 0.852E-02 0.612E-02
   -.107E+03 -.437E+02 0.123E+03   0.107E+03 0.439E+02 -.123E+03   0.272E+00 -.138E+00 -.175E+00   -.172E-01 -.179E-01 -.272E-01
   0.639E+01 -.980E+02 -.116E+04   -.632E+01 0.976E+02 0.116E+04   -.338E-01 0.420E+00 0.399E+00   -.254E-01 0.929E-02 -.105E-02
   0.358E+02 0.706E+02 -.114E+04   -.357E+02 -.700E+02 0.114E+04   -.172E+00 -.728E+00 -.491E+00   -.879E-02 -.264E-01 -.183E-01
   -.438E+02 -.107E+03 0.224E+04   0.442E+02 0.105E+03 -.224E+04   -.369E+00 0.263E+01 -.423E+01   -.161E-01 -.257E-01 -.840E-02
   0.834E+02 0.145E+02 0.229E+04   -.832E+02 -.146E+02 -.228E+04   -.231E+00 0.443E-01 -.333E+01   0.242E-01 0.161E-01 0.252E-02
   0.321E+02 -.153E+02 0.123E+04   -.324E+02 0.153E+02 -.123E+04   0.328E+00 -.479E-01 0.311E+00   -.522E-02 -.678E-02 -.768E-02
   0.154E+03 0.727E+00 0.903E+03   -.155E+03 -.696E+00 -.904E+03   0.663E+00 -.638E-01 0.107E+01   0.199E-01 0.107E-01 -.181E-01
   0.507E+02 -.409E+02 0.260E+04   -.509E+02 0.410E+02 -.259E+04   0.201E+00 -.117E+00 -.287E+01   -.363E-02 0.969E-02 0.183E-02
   0.190E+03 -.511E+02 0.250E+04   -.188E+03 0.508E+02 -.250E+04   -.180E+01 0.451E+00 -.375E+01   0.136E-01 0.915E-02 -.342E-02
   -.720E+02 -.553E+02 0.129E+04   0.716E+02 0.547E+02 -.129E+04   0.447E+00 0.657E+00 -.132E+00   -.809E-02 -.734E-02 -.403E-01
   -.167E+03 0.267E+02 0.363E+02   0.166E+03 -.266E+02 -.361E+02   0.351E+00 -.208E+00 -.193E+00   -.224E-02 -.238E-01 -.461E-01
   -.220E+03 -.648E+01 0.150E+04   0.220E+03 0.745E+01 -.150E+04   -.162E+00 -.102E+01 0.593E-01   -.126E-01 -.120E-01 -.249E-01
   0.457E+02 0.873E+01 0.134E+04   -.456E+02 -.917E+01 -.134E+04   0.337E-01 0.460E+00 -.234E+00   0.639E-02 0.428E-02 -.181E-01
   0.122E+03 0.213E+02 -.136E+04   -.121E+03 -.212E+02 0.136E+04   -.917E+00 -.133E+00 0.280E+00   -.444E-01 0.992E-02 -.180E-01
   0.668E+02 -.236E+02 0.256E+04   -.660E+02 0.242E+02 -.256E+04   -.922E+00 -.552E+00 -.280E+01   -.619E-03 -.143E-01 -.121E-02
   -.634E+02 -.736E+01 0.139E+04   0.635E+02 0.782E+01 -.139E+04   -.912E-01 -.465E+00 -.193E-01   -.231E-01 -.115E-01 -.382E-01
   0.847E+02 -.117E+03 0.885E+01   -.845E+02 0.117E+03 -.829E+01   -.422E+00 0.901E-01 -.707E+00   -.341E-01 -.380E-02 -.160E-01
   0.256E+02 0.103E+03 0.908E+02   -.256E+02 -.103E+03 -.906E+02   -.787E-01 -.329E+00 -.252E-01   0.337E-01 0.188E-01 -.170E-01
   -.595E+00 0.531E+02 -.127E+04   0.473E+00 -.530E+02 0.127E+04   0.130E+00 -.135E+00 0.256E+00   0.394E-01 0.214E-01 -.901E-02
[...]
   0.564E+02 -.793E+02 0.989E+02   -.558E+02 0.791E+02 -.986E+02   -.641E+00 0.108E+00 -.155E+00   0.124E-01 0.220E-01 -.233E-01
   -.147E+03 -.476E+02 0.150E+04   0.146E+03 0.479E+02 -.150E+04   0.314E+00 -.274E+00 -.817E+00   -.190E-01 -.127E-01 -.864E-02
   -.905E+02 0.377E+00 0.153E+04   0.910E+02 -.737E+00 -.153E+04   -.487E+00 0.328E+00 -.680E+00   -.273E-01 -.508E-02 -.843E-02
   -.229E+03 -.130E+03 0.291E+04   0.228E+03 0.129E+03 -.291E+04   0.144E+01 0.974E+00 -.353E+01   -.212E-01 -.346E-02 -.657E-02
   0.213E+03 -.341E+02 0.272E+04   -.213E+03 0.338E+02 -.271E+04   -.621E-01 0.315E+00 -.160E+01   0.320E-01 0.288E-01 -.361E-02
   0.106E+03 0.745E+01 0.149E+04   -.106E+03 -.756E+01 -.149E+04   -.248E+00 0.164E+00 0.793E-01   -.217E-02 0.479E-02 -.380E-01
   0.142E+03 -.320E+02 0.130E+04   -.142E+03 0.318E+02 -.130E+04   -.472E+00 0.230E+00 -.429E+00   0.301E-01 0.188E-01 -.858E-02
   -.570E+01 -.375E+02 -.140E+04   0.544E+01 0.372E+02 0.140E+04   0.313E+00 0.315E+00 0.266E+00   -.305E-02 -.258E-01 -.284E-01
   0.242E+02 0.223E+02 0.287E+04   -.248E+02 -.219E+02 -.287E+04   0.545E+00 -.351E+00 -.852E+00   0.245E-02 0.165E-01 0.785E-02
   -.580E+02 0.168E+03 -.123E+02   0.580E+02 -.168E+03 0.127E+02   0.291E-01 -.336E-01 -.513E+00   0.236E-01 0.246E-01 -.591E-02
   -.248E+02 0.563E+02 -.133E+02   0.249E+02 -.554E+02 0.134E+02   0.638E-01 -.844E+00 -.847E-01   -.423E-01 -.178E-01 -.532E-01
   0.210E+03 0.297E+02 -.174E+03   -.210E+03 -.293E+02 0.175E+03   0.533E-01 -.464E+00 -.453E+00   0.250E-02 0.121E-01 -.282E-01
   -.649E+02 -.907E+02 0.123E+03   0.651E+02 0.903E+02 -.123E+03   0.416E-01 0.416E+00 0.201E+00   -.213E-01 0.124E-01 -.395E-01
   -.219E+01 0.196E+01 -.314E+03   0.208E+01 -.204E+01 0.316E+03   0.127E+00 0.786E-01 -.132E+01   0.180E-02 0.337E-03 0.122E-02
   -.177E+01 -.136E+01 -.271E+01   0.240E-12 0.422E-13 -.296E-11   0.181E+01 0.139E+01 0.362E+01   -.235E-01 0.753E-02 -.922E+00

 POSITION                                       TOTAL-FORCE (eV/Angst)
     13.66682      8.46788      6.70534         0.005184     -0.006558     -0.003689
      5.20280      8.45793      6.58753         0.013773     -0.007294     -0.005332
      5.17516      3.50211      6.83235        -0.007663     -0.005334     -0.020127
     15.17946      9.27623      8.95610         0.016527     -0.009197     -0.014576
      3.83666      4.44941      9.02395        -0.018341     -0.010962      0.003861
      6.72706      9.21150      8.84415         0.015409      0.007982      0.013200
     12.26291      4.35593      9.05380        -0.000653     -0.004221     -0.004128
      9.54343      9.26500      9.15243        -0.002617     -0.001480      0.001145
     10.93934      1.97059      8.92335        -0.000386     -0.007658     -0.016716
      2.51510      1.96556      9.03526         0.011833      0.011975     -0.000175
     12.28826      9.20718      9.13263        -0.008823     -0.016320     -0.011330
     13.73329      6.81442      9.04916         0.004929      0.002614     -0.004132
      5.25742      1.98442      9.13773         0.008048     -0.017189     -0.010595
      8.07198      6.82522      8.90258         0.000045     -0.007063      0.003125
      9.50530      4.43181      8.97662         0.006199     -0.006956      0.002039
      5.25295      6.83334      8.96537         0.001399     -0.017168      0.011274
      8.13639      2.03423      9.07959         0.009567     -0.024852     -0.012500
      8.09275      3.54584      6.76357         0.011413      0.003787     -0.021710
      6.66689      1.09322      6.90607        -0.006344     -0.000728     -0.018336
      6.68830      1.13624      1.16869         0.014980     -0.012605     -0.021115
      3.54481      4.07903      2.60632        -0.003547      0.003597     -0.044469
      1.24957      1.21204      6.73118        -0.006465      0.004419      0.014696
      0.89178      1.06685      0.94626        -0.016430      0.000986     -0.015544
      6.65662      9.25676      3.21225        -0.001267      0.008621     -0.042517
      6.68664      4.40218      8.99804         0.004770     -0.003941      0.020660
      8.21162      5.46055      4.88522        -0.228859     -0.007561     -0.275761
     10.90520      6.84412      9.06503        -0.016580      0.012963      0.004492
     14.89052      7.35140      4.54429        -0.020098      0.032265      0.066379
     12.40938      5.98881      6.87350        -0.008214     -0.004738      0.002630
      6.44887      5.97163      6.72593         0.004275      0.009313     -0.017841
      3.61025      2.53567      4.92929        -0.126534      0.195101     -0.073355
     10.87699      5.23710      4.87771         0.218546     -0.030217     -0.091617
      3.85929      6.04469      6.84806         0.013787     -0.000341      0.003858
     13.83953      8.59728      1.29834         0.011792      0.004754      0.015630
      5.33586      8.40288      1.25445         0.011316     -0.008048      0.056494
      4.16277      6.39081      1.85096         0.017959     -0.012155      0.017550
      8.19107      2.05273      3.03386         0.001670     -0.025475     -0.022438
      9.58169      9.27602      2.99468         0.043527     -0.004449      0.029418
      2.41816      3.62204      6.98367        -0.006920      0.002963     -0.005497
     13.01773      3.43953      0.94254        -0.024477      0.009566      0.004674
     10.87071      1.99839      2.96738         0.026308     -0.005871     -0.013982
     13.56890      5.06817      4.77058         0.021503      0.014575      0.014170
      3.98666      1.04879      7.03586        -0.006447      0.002486      0.005155
      9.59939      6.13187      6.99488         0.004839     -0.007609      0.006204
      3.81646      1.07543      1.16136        -0.008070     -0.012103      0.019165
      8.06104      3.56771      1.10023        -0.016765     -0.001859     -0.001785
      5.20370      2.03419      2.97809         0.005416     -0.055880      0.069373
      5.89506      6.72021      3.47528        -0.028365     -0.012304     -0.045209
      9.35391      6.06988      1.14808         0.009487     -0.034752      0.023721
      5.63380      3.63292      1.23723         0.048026      0.052736     -0.004744
     12.43866      9.06023      3.09611         0.024089      0.010747     -0.042568
     12.07766      7.63668      4.91324         0.014952     -0.007675      0.017653
     13.13008      6.61689      2.83040        -0.045794      0.003410     -0.032477
      9.41148      4.47169      2.86934         0.035482     -0.027173      0.008966
      8.50683      8.51720      7.00786         0.004597      0.004501     -0.008201
      8.18243      8.58957      1.16315        -0.015235      0.010705     -0.017489
     10.79405      6.97057      2.90238        -0.004059      0.019597      0.040761
      2.82111      0.14512      5.04740        -0.186574     -0.068473     -0.042639
      8.14725      0.55026      4.88481        -0.027616     -0.017162      0.142807
      9.39982      1.20031      6.90339         0.005070      0.014384     -0.013960
[...]
      9.60048      2.82018      4.87865        -0.051529      0.038586      0.081908
      6.60502      2.54502      4.87077         0.013944     -0.063163      0.088430
     12.08196      4.24602      2.88896         0.013458      0.004268     -0.046288
      2.28916      1.82528      2.94996        -0.000325     -0.035766      0.040014
     11.76886      5.74999      1.05362         0.003506     -0.008386     -0.008120
      6.84033      5.98705      1.38644        -0.012882     -0.004038      0.006256
      8.30437      7.12497      3.00063        -0.003279      0.055879      0.025598
      6.85459      4.22009      3.15394        -0.053056     -0.034497      0.006458
     10.87703      3.58081      6.91404         0.007897      0.009877     -0.010076
     10.60151      3.45495      1.03917        -0.011083     -0.011739     -0.022344
     10.73179      0.68889      4.99664        -0.024303      0.002347     -0.022919
      9.67006      7.71157      4.99333         0.050176      0.133102      0.086326
      7.17143      7.81748      5.18228         0.032457     -0.009308      0.009026
      5.29940      0.29561      4.91544         0.198158     -0.043114      0.013470
      8.20780      0.36854      9.87169         0.011792      0.003222     -0.000775
    total drift:                                0.015855      0.038862     -0.014125

  FREE ENERGIE OF THE ION-ELECTRON SYSTEM (eV)
  free  energy   TOTEN  =      -538.54889466 eV

  energy  without entropy=     -538.56935513  energy(sigma->0) =     -538.55571482

 d Force = 0.1595866E-02[ 0.445E-03, 0.275E-02]  d Energy = 0.1541759E-02 0.541E-04
 d Force =-0.3623643E+02[-0.363E+02,-0.362E+02]  d Ewald  =-0.3623643E+02-0.497E-05

 Conjugate gradient step on ions:
 trial-energy change:   -0.001542  1 .order   -0.001596   -0.002746   -0.000445
  (g-gl).g = 0.107E-02      g.g   = 0.132E-02  gl.gl    = 0.329E-02
 g(Force)  = 0.132E-02   g(Stress)= 0.000E+00 ortho     =-0.804E-04
 gamma     =   0.32407
 trial     =   2.11466
 opt step  =   2.61018  (harmonic =   2.52389) maximal distance =0.00897132
 next E    =  -538.548946   (d E  =  -0.00159)

 reached required accuracy - stopping structural energy minimisation