 vasp.5.4.4.18Apr17-6-g9f103f2a35 (build Nov 30 2020 22:55:02) complex

 executed on             LinuxIFC date 2021.10.10  12:06:42

 INCAR:
 POTCAR:    PAW_PBE Pt 04Feb2005
 POTCAR:    PAW_PBE Fe 06Sep2000
 POTCAR:    PAW_PBE Co 02Aug2007
 POTCAR:    PAW_PBE Cu 22Jun2005
 POTCAR:    PAW_PBE Ni 02Aug2007
 POTCAR:    PAW_PBE Pt 04Feb2005
   VRHFIN =Pt: s1d9

   TITEL  = PAW_PBE Pt 04Feb2005
   POMASS =  195.080; ZVAL   =   10.000    mass and valenz
   ENMAX  =  230.283; ENMIN  =  172.712 eV

 POTCAR:    PAW_PBE Fe 06Sep2000
   VRHFIN =Fe:  d7 s1

   TITEL  = PAW_PBE Fe 06Sep2000
   POMASS =   55.847; ZVAL   =    8.000    mass and valenz
   ENMAX  =  267.882; ENMIN  =  200.911 eV

 POTCAR:    PAW_PBE Co 02Aug2007
   VRHFIN =Co: d8 s1

   TITEL  = PAW_PBE Co 02Aug2007
   POMASS =   58.933; ZVAL   =    9.000    mass and valenz
   ENMAX  =  267.968; ENMIN  =  200.976 eV

 POTCAR:    PAW_PBE Cu 22Jun2005
   VRHFIN =Cu: d10 p1

   TITEL  = PAW_PBE Cu 22Jun2005
   POMASS =   63.546; ZVAL   =   11.000    mass and valenz
   ENMAX  =  295.446; ENMIN  =  221.585 eV

 POTCAR:    PAW_PBE Ni 02Aug2007
   VRHFIN =Ni:

   TITEL  = PAW_PBE Ni 02Aug2007
   POMASS =   58.690; ZVAL   =   10.000    mass and valenz
   ENMAX  =  269.532; ENMIN  =  202.149 eV

 Optimization of the real space projectors (new method)

 maximal supplied QI-value         = 14.36
 optimisation between [QCUT,QGAM] = [ 11.92, 23.98] = [ 39.79,161.09] Ry
 Optimized for a Real-space Cutoff    1.49 Angstroem

   l    n(q)    QCUT    max X(q) W(low)/X(q) W(high)/X(q)  e(spline)
   2     10    11.920    66.195    0.79E-04    0.18E-03    0.24E-06
   2     10    11.920    64.643    0.81E-04    0.19E-03    0.24E-06
   0     11    11.920    95.520    0.28E-04    0.54E-04    0.18E-06
   0     11    11.920    63.403    0.27E-04    0.52E-04    0.17E-06
   1     10    11.920    19.961    0.18E-04    0.11E-03    0.23E-06
   1     10    11.920    13.289    0.25E-04    0.87E-04    0.19E-06
 Optimization of the real space projectors (new method)

[...]

   l    n(q)    QCUT    max X(q) W(low)/X(q) W(high)/X(q)  e(spline)
   2     10    11.864     4.610    0.10E-03    0.20E-03    0.29E-06
   2     10    11.864     8.522    0.17E-03    0.33E-03    0.50E-06
   0     11    11.864    51.609    0.52E-04    0.55E-04    0.33E-06
   0     11    11.864    27.747    0.46E-04    0.52E-04    0.31E-06
   1     10    11.864    20.408    0.54E-04    0.25E-04    0.21E-06
   1     10    11.864    13.425    0.48E-04    0.22E-04    0.18E-06
 Optimization of the real space projectors (new method)

 maximal supplied QI-value         = 16.25
 optimisation between [QCUT,QGAM] = [ 11.86, 23.89] = [ 39.41,159.82] Ry
 Optimized for a Real-space Cutoff    1.33 Angstroem

   l    n(q)    QCUT    max X(q) W(low)/X(q) W(high)/X(q)  e(spline)
   2      9    11.864    60.317    0.21E-03    0.51E-03    0.25E-06
   2      9    11.864    55.921    0.21E-03    0.51E-03    0.26E-06
   0      9    11.864    51.690    0.22E-03    0.30E-04    0.17E-06
   0      9    11.864    30.015    0.20E-03    0.28E-04    0.15E-06
   1      9    11.864    18.849    0.76E-04    0.33E-03    0.17E-06
   1      9    11.864    14.624    0.60E-04    0.28E-03    0.15E-06
  PAW_PBE Pt 04Feb2005                  :
  PAW_PBE Fe 06Sep2000                  :
  PAW_PBE Co 02Aug2007                  :
  PAW_PBE Cu 22Jun2005                  :
  PAW_PBE Ni 02Aug2007                  :

 POSCAR: 10.46
  positions in direct lattice
 exchange correlation table for  LEXCH =        8
   RHO(1)=    0.500       N(1)  =     2000
   RHO(2)=  100.500       N(2)  =     4000

 ion  position               nearest neighbor table
   1  0.789  0.869  0.319-  29 2.50  28 2.50  49 2.55  12 2.57  61 2.58  33 2.61  19 2.62   4 2.66
                            11 2.67  60 2.69  59 2.71   2 2.80
   2  0.054  0.873  0.320-  79 2.44  30 2.48  52 2.52  28 2.58   6 2.60  16 2.62  22 2.62  33 2.65
                            77 2.66   4 2.67  60 2.67   1 2.80
   3  0.284  0.380  0.321-  31 2.47  64 2.50  33 2.55  39 2.57   5 2.60  30 2.63  13 2.64  68 2.64
                            25 2.68  43 2.68  18 2.70  19 2.71
   4  0.873  0.961  0.416-  12 2.60   9 2.60  17 2.61  16 2.61  11 2.62   6 2.62   1 2.66  60 2.66
                             2 2.67
   5  0.125  0.462  0.420-  25 2.59   3 2.60  13 2.61  16 2.61  33 2.62  10 2.62  12 2.63  39 2.64
                             7 2.65
   6  0.124  0.961  0.419-   2 2.60  16 2.60  14 2.61   8 2.61   9 2.62   4 2.62  10 2.62  52 2.70
                            22 2.78
   7  0.871  0.462  0.422-  15 2.60  75 2.61  27 2.62   9 2.63  12 2.64   5 2.65  10 2.65  39 2.68
                            29 2.74
   8  0.374  0.961  0.417-  27 2.59  14 2.60  10 2.61   6 2.61  11 2.61  13 2.62  43 2.62  52 2.65
                            61 2.71
   9  0.872  0.210  0.416-   4 2.60  17 2.60   6 2.62  15 2.62   7 2.63  10 2.65  75 2.66  60 2.70
                            22 2.73
  10  0.126  0.211  0.417-  13 2.59   8 2.61   5 2.62   6 2.62   7 2.65   9 2.65  43 2.67  39 2.67
                            22 2.73
  11  0.624  0.960  0.420-  12 2.60  27 2.60   8 2.61  17 2.61   4 2.62  13 2.62   1 2.67  19 2.76
                            61 2.77
  12  0.873  0.713  0.417-   1 2.57   4 2.60  11 2.60  33 2.61  16 2.61   5 2.63  27 2.63   7 2.64
                            29 2.65
  13  0.373  0.211  0.419-  10 2.59   5 2.61   8 2.62  17 2.62  25 2.62  11 2.62   3 2.64  43 2.72
                            19 2.79
  14  0.374  0.712  0.417-  27 2.60   8 2.60   6 2.61  15 2.61  16 2.62  25 2.62  52 2.63  44 2.64
                            30 2.65
  15  0.623  0.462  0.420-   7 2.60  14 2.61  27 2.62  25 2.62   9 2.62  17 2.63  75 2.66  44 2.67
                            18 2.70
  16  0.123  0.712  0.419-   6 2.60  25 2.61   4 2.61   5 2.61  12 2.61  14 2.62  33 2.62   2 2.62
                            30 2.65
  17  0.624  0.210  0.419-   9 2.60   4 2.61  11 2.61  13 2.62  15 2.63  25 2.63  18 2.73  60 2.78
                            19 2.83
  18  0.543  0.379  0.317-  68 2.54  67 2.56  44 2.60  26 2.60  60 2.65  75 2.67  30 2.68   3 2.70
                            15 2.70  17 2.73  19 2.73  25 2.77
  19  0.540  0.119  0.313-  80 2.50  59 2.52  68 2.53  43 2.58  61 2.60   1 2.62  60 2.68   3 2.71
                            18 2.73  11 2.76  13 2.79  17 2.83  31 3.49
  20  0.555  0.113  0.035-  34 2.58  62 2.59  63 2.62  48 2.62  37 2.62  45 2.66  57 2.66  56 2.75
                            47 2.78
  21  0.124  0.465  0.134-  36 2.52  47 2.55  64 2.56  58 2.56  40 2.61  74 2.61  42 2.62  50 2.63
                            31 2.68  70 2.70  69 2.72  57 2.76
  22  0.041  0.130  0.313-  65 2.46  55 2.49  77 2.50  43 2.59   2 2.62  60 2.63  52 2.66  75 2.67
                            39 2.68  10 2.73   9 2.73   6 2.78  31 3.47
  23  0.045  0.123  0.032-  62 2.58  76 2.62  45 2.64  41 2.64  35 2.65  40 2.67  70 2.71  24 2.72
                            53 2.72
  24  0.131  0.949  0.133-  79 2.51  77 2.53  58 2.54  35 2.54  53 2.57  73 2.59  55 2.61  66 2.65
                            38 2.66  70 2.66  23 2.72  41 2.72
  25  0.372  0.462  0.421-   5 2.59  16 2.61  14 2.62  15 2.62  13 2.62  17 2.63   3 2.68  30 2.72
                            18 2.77
  26  0.454  0.555  0.223-  73 2.48  51 2.53  78 2.54  79 2.56  44 2.57  74 2.57  30 2.60  18 2.60
                            32 2.61  64 2.63  68 2.68  67 2.73
  27  0.621  0.713  0.417-   8 2.59  14 2.60  11 2.60  15 2.62  44 2.62   7 2.62  12 2.63  61 2.64
                            29 2.68
  28  0.952  0.797  0.228-   1 2.50  33 2.58   2 2.58  59 2.61  42 2.61  58 2.61  49 2.62  50 2.62
                            66 2.63  77 2.64  79 2.68  64 2.70
  29  0.791  0.629  0.318-  42 2.43  32 2.44  75 2.49   1 2.50  39 2.53  49 2.55  61 2.56  44 2.60
                            33 2.62  12 2.65  27 2.68   7 2.74
  30  0.285  0.631  0.319-  64 2.47   2 2.48  79 2.48  33 2.56  52 2.59  26 2.60   3 2.63  16 2.65
                            14 2.65  18 2.68  44 2.68  25 2.72
  31  0.209  0.291  0.232-  43 2.44   3 2.47  39 2.51  70 2.61  68 2.63  64 2.63  55 2.65  65 2.65
                            80 2.67  21 2.68  57 2.70  42 2.70  22 3.47  19 3.49
  32  0.701  0.559  0.229-  29 2.44  44 2.45  49 2.47  78 2.52  54 2.53  75 2.54  42 2.55  69 2.57
                            26 2.61  65 2.64  51 2.66  67 2.71
  33  0.043  0.626  0.322-  39 2.52  64 2.54   3 2.55  42 2.55  30 2.56  28 2.58   1 2.61  12 2.61
                             5 2.62  16 2.62  29 2.62   2 2.65
  34  0.797  0.863  0.042-  50 2.39  48 2.47  71 2.47  66 2.50  36 2.55  20 2.58  63 2.59  35 2.71
                            62 2.72
  35  0.055  0.865  0.038-  72 2.48  24 2.54  36 2.54  58 2.57  66 2.61  53 2.65  23 2.65  62 2.67
                            34 2.71
  36  0.047  0.626  0.040-  21 2.52  35 2.54  34 2.55  47 2.56  58 2.57  50 2.58  72 2.59  40 2.60
                            71 2.64
  37  0.629  0.217  0.129-  41 2.51  56 2.53  59 2.54  51 2.56  67 2.56  74 2.58  66 2.60  57 2.62
                            62 2.62  68 2.62  20 2.62  48 2.81
  38  0.385  0.949  0.130-  53 2.43  54 2.48  80 2.49  78 2.50  73 2.51  63 2.52  45 2.56  48 2.57
                            55 2.62  57 2.64  24 2.66  70 2.68
  39  0.034  0.389  0.320-  42 2.48  31 2.51  33 2.52  75 2.53  29 2.53  65 2.57   3 2.57   5 2.64
                            10 2.67  22 2.68   7 2.68  43 2.76
  40  0.037  0.382  0.038-  71 2.57  76 2.59  36 2.60  21 2.61  69 2.61  47 2.66  70 2.66  23 2.67
                            45 2.74
  41  0.872  0.210  0.129-  76 2.46  37 2.51  67 2.53  77 2.54  62 2.57  66 2.59  51 2.63  69 2.64
                            23 2.64  65 2.65  70 2.67  24 2.72
  42  0.950  0.549  0.229-  29 2.43  39 2.48  32 2.55  33 2.55  49 2.57  65 2.58  50 2.61  69 2.61
                            28 2.61  21 2.62  64 2.69  31 2.70
  43  0.293  0.120  0.318-  31 2.44  55 2.44  80 2.54  52 2.56  19 2.58  22 2.59  61 2.62   8 2.62
                            10 2.67   3 2.68  13 2.72  39 2.76
  44  0.543  0.628  0.319-  32 2.45  61 2.52  75 2.54  26 2.57  78 2.58  52 2.60  18 2.60  29 2.60
                            27 2.62  14 2.64  15 2.67  30 2.68
  45  0.298  0.119  0.037-  38 2.56  53 2.60  63 2.62  57 2.62  23 2.64  70 2.64  20 2.66  47 2.71
                            40 2.74
  46  0.547  0.627  0.045-  73 2.37  51 2.41  54 2.44  53 2.51  63 2.53  56 2.59  71 2.59  76 2.63
                            72 2.65
  47  0.292  0.381  0.041-  74 2.47  21 2.55  36 2.56  72 2.60  57 2.62  56 2.62  40 2.66  45 2.71
                            20 2.78
  48  0.632  0.946  0.132-  49 2.46  50 2.46  34 2.47  54 2.48  59 2.52  63 2.56  38 2.57  80 2.58
                            66 2.59  57 2.61  20 2.62  37 2.81
  49  0.704  0.793  0.224-  48 2.46  32 2.47  54 2.47  61 2.49  50 2.53  80 2.53  29 2.55   1 2.55
                            42 2.57  78 2.57  28 2.62  59 2.67
  50  0.869  0.712  0.131-  34 2.39  71 2.45  48 2.46  49 2.53  54 2.55  36 2.58  69 2.60  42 2.61
                            28 2.62  21 2.63  66 2.64  58 2.72
[...]
   0.354E+02 -.134E+02 -.158E+04   -.371E+02 0.137E+02 0.158E+04   0.171E+01 -.244E+00 0.209E+01   0.105E-01 0.214E-01 0.435E-01
   -.547E+01 0.197E+02 -.298E+04   0.556E+01 -.196E+02 0.298E+04   -.736E-01 -.525E-01 0.571E+00   0.144E-02 -.213E-01 -.256E-01
   -.807E+01 0.681E+01 -.296E+04   0.767E+01 -.648E+01 0.296E+04   0.405E+00 -.348E+00 0.131E+01   -.107E-02 0.165E-01 -.384E-01
   -.450E+01 0.222E+01 -.294E+04   0.441E+01 -.249E+01 0.294E+04   0.183E+00 0.239E+00 0.681E+00   -.318E-01 -.725E-02 0.494E-02
   -.153E+02 -.267E+01 -.299E+04   0.154E+02 0.241E+01 0.299E+04   -.132E+00 0.234E+00 0.121E+01   -.887E-02 -.107E-01 -.371E-01
   0.134E+02 -.168E+02 -.296E+04   -.136E+02 0.169E+02 0.296E+04   0.245E+00 -.981E-01 0.166E+01   0.443E-02 0.138E-01 -.171E-01
   -.213E+02 0.108E+02 -.297E+04   0.212E+02 -.106E+02 0.297E+04   0.124E+00 -.205E+00 0.855E+00   0.719E-03 0.962E-02 -.235E-01
   -.939E+01 0.321E+00 -.294E+04   0.972E+01 -.803E-01 0.293E+04   -.282E+00 -.246E+00 0.139E+01   -.318E-02 0.212E-01 -.166E-01
   -.275E+01 -.418E+01 -.298E+04   0.305E+01 0.404E+01 0.298E+04   -.360E+00 0.116E+00 0.484E+00   0.172E-01 0.478E-02 -.229E-01
   -.788E+01 0.201E+01 -.296E+04   0.815E+01 -.228E+01 0.295E+04   -.276E+00 0.255E+00 0.862E+00   0.261E-01 0.747E-02 -.397E-01
   0.399E+01 -.155E+02 -.296E+04   -.425E+01 0.153E+02 0.296E+04   0.272E+00 0.200E+00 0.661E+00   0.320E-02 0.610E-02 -.215E-01
   0.186E+02 0.474E+01 -.297E+04   -.182E+02 -.468E+01 0.296E+04   -.360E+00 -.521E-01 0.115E+01   -.240E-01 -.126E-01 -.113E-01
   0.174E+02 -.111E+02 -.296E+04   -.172E+02 0.113E+02 0.296E+04   -.212E+00 -.161E+00 0.104E+01   0.228E-01 -.300E-02 -.199E-01
   -.250E+01 -.173E+00 -.295E+04   0.225E+01 -.169E+00 0.295E+04   0.273E+00 0.339E+00 0.848E+00   -.275E-01 0.585E-02 -.387E-01
   0.258E+02 -.760E+01 -.296E+04   -.256E+02 0.778E+01 0.296E+04   -.160E+00 -.194E+00 0.746E+00   -.474E-02 -.111E-01 -.310E-01
   0.710E+02 -.762E+02 -.156E+04   -.697E+02 0.764E+02 0.156E+04   -.120E+01 -.250E+00 0.176E+01   0.215E-01 0.101E-01 0.358E-01
   0.324E+02 -.429E+02 -.156E+04   -.336E+02 0.425E+02 0.155E+04   0.109E+01 0.409E+00 0.247E+01   0.747E-02 -.194E-01 0.224E-01
   0.346E+02 0.330E+02 0.308E+04   -.348E+02 -.332E+02 -.308E+04   0.164E+00 0.197E+00 -.227E+01   -.776E-04 -.525E-02 0.702E-02
   0.386E+02 -.864E+01 0.161E+04   -.394E+02 0.932E+01 -.161E+04   0.892E+00 -.638E+00 0.945E+00   0.315E-01 0.222E-01 0.268E-01
   -.729E+02 0.869E+01 -.151E+04   0.738E+02 -.802E+01 0.151E+04   -.915E+00 -.653E+00 0.267E+01   -.314E-01 0.114E-01 0.527E-01
   -.556E+02 0.489E+02 0.312E+04   0.562E+02 -.480E+02 -.312E+04   -.711E+00 -.765E+00 -.188E+01   0.165E-01 -.520E-01 -.303E-01
   -.439E+01 -.523E+02 0.161E+04   0.467E+01 0.519E+02 -.161E+04   -.331E+00 0.382E+00 -.772E+00   0.121E-02 -.490E-01 0.673E-02
   0.718E+01 0.227E+01 -.296E+04   -.734E+01 -.222E+01 0.296E+04   0.179E+00 -.708E-01 0.504E+00   -.143E-01 0.815E-02 -.106E-01
   -.250E+02 -.106E+02 0.107E+01   0.249E+02 0.108E+02 -.250E+01   0.332E-01 -.303E+00 0.135E+01   -.599E-02 0.145E-01 0.870E-01
   -.922E+01 0.707E+01 -.297E+04   0.878E+01 -.722E+01 0.297E+04   0.461E+00 0.198E+00 0.103E+01   0.151E-01 -.185E-01 -.142E-01
   0.226E+02 0.708E+02 -.116E+02   -.235E+02 -.720E+02 0.111E+02   0.984E+00 0.110E+01 0.394E+00   -.283E-01 0.276E-01 0.635E-01
   -.670E+02 0.895E+01 -.152E+04   0.673E+02 -.102E+02 0.151E+04   -.285E+00 0.130E+01 0.288E+01   -.409E-02 0.302E-01 0.427E-01
   0.278E+02 0.280E+02 -.158E+04   -.275E+02 -.273E+02 0.157E+04   -.339E+00 -.700E+00 0.232E+01   -.978E-02 -.687E-02 0.405E-01
   0.266E+02 -.624E+02 -.867E+02   -.275E+02 0.618E+02 0.869E+02   0.960E+00 0.451E+00 -.215E+00   0.268E-01 0.627E-02 0.559E-01
   -.228E+02 -.240E+02 -.245E+01   0.236E+02 0.246E+02 0.158E+01   -.897E+00 -.721E+00 0.758E+00   -.143E-01 0.389E-01 0.117E+00
   0.189E+02 0.146E+02 -.128E+04   -.190E+02 -.150E+02 0.128E+04   0.139E+00 0.464E+00 0.531E+00   -.681E-03 0.192E-01 0.376E-01
   -.572E+02 -.174E+01 0.247E+04   0.576E+02 0.473E+00 -.247E+04   -.433E+00 0.130E+01 -.257E+01   0.783E-02 0.612E-03 0.128E-01
   0.289E+02 -.126E+02 0.250E+04   -.288E+02 0.113E+02 -.250E+04   -.588E-01 0.142E+01 -.214E+01   0.126E-01 -.205E-01 0.134E-02
   0.224E+02 -.759E+01 0.251E+04   -.227E+02 0.808E+01 -.251E+04   0.184E+00 -.528E+00 -.274E+01   0.197E-01 0.374E-02 -.363E-03
   0.185E+01 0.470E+02 0.131E+04   -.995E+00 -.464E+02 -.131E+04   -.859E+00 -.626E+00 -.166E+00   -.220E-01 -.303E-01 0.316E-01
   0.358E+02 -.516E+02 0.129E+04   -.357E+02 0.513E+02 -.129E+04   -.130E+00 0.225E+00 -.409E+00   0.132E-01 -.165E-01 0.170E-01
   -.533E+02 -.253E+02 -.126E+04   0.534E+02 0.255E+02 0.126E+04   -.143E+00 -.242E+00 0.808E+00   -.736E-02 0.126E-01 0.433E-01
   -.858E+02 0.231E+02 0.251E+04   0.856E+02 -.228E+02 -.251E+04   0.813E-01 -.284E+00 -.249E+01   0.366E-01 0.388E-02 -.240E-01
   -.325E+02 0.459E+02 0.131E+04   0.317E+02 -.454E+02 -.131E+04   0.774E+00 -.546E+00 -.417E+00   -.369E-02 -.450E-01 0.360E-01
   -.388E+02 0.209E+01 -.507E+02   0.386E+02 -.175E+01 0.506E+02   0.161E+00 -.404E+00 -.561E-01   0.657E-02 0.340E-01 0.600E-01
   0.141E+02 -.823E+02 -.127E+04   -.143E+02 0.821E+02 0.127E+04   0.154E+00 0.217E+00 0.118E+01   0.201E-01 -.194E-02 0.368E-01
   0.131E+02 0.321E+02 -.126E+04   -.132E+02 -.321E+02 0.126E+04   0.106E+00 -.891E-01 0.440E+00   0.752E-02 -.115E-01 0.142E-01
   0.178E+02 -.424E+02 0.248E+04   -.184E+02 0.417E+02 -.248E+04   0.637E+00 0.611E+00 -.261E+01   0.422E-02 -.179E-01 0.176E-02
   0.182E+01 -.216E+02 0.279E+04   -.189E+01 0.218E+02 -.279E+04   0.131E+00 -.235E+00 -.219E+01   -.390E-01 0.493E-01 -.136E-01
   0.115E+03 0.301E+02 0.283E+04   -.116E+03 -.294E+02 -.282E+04   0.532E+00 -.677E+00 -.218E+01   -.846E-03 0.111E-01 -.749E-02
   -.309E+02 -.213E+02 0.144E+04   0.305E+02 0.203E+02 -.144E+04   0.394E+00 0.103E+01 -.489E+00   -.441E-02 -.779E-02 0.540E-01
   -.585E+02 0.724E+02 0.193E+02   0.585E+02 -.722E+02 -.203E+02   -.130E-01 -.250E+00 0.914E+00   0.340E-02 0.297E-01 0.591E-01
   -.822E+02 0.230E+02 0.142E+04   0.817E+02 -.226E+02 -.142E+04   0.519E+00 -.491E+00 -.744E-01   0.124E-01 0.370E-01 0.496E-01
   -.201E+02 0.132E+02 0.140E+04   0.203E+02 -.134E+02 -.140E+04   -.158E+00 0.247E+00 -.628E-01   -.352E-01 0.127E-01 0.603E-01
   0.470E+02 0.890E+01 -.142E+04   -.468E+02 -.910E+01 0.142E+04   -.329E+00 0.268E+00 0.158E+01   -.265E-02 -.223E-01 0.283E-01
   0.503E+02 -.832E+02 0.279E+04   -.501E+02 0.830E+02 -.279E+04   -.306E+00 0.218E+00 -.221E+01   -.105E-01 -.134E-02 0.258E-02
   -.138E+02 -.984E+00 0.139E+04   0.139E+02 0.111E+01 -.139E+04   -.109E+00 -.212E+00 -.397E+00   0.347E-02 0.717E-01 0.618E-01
   0.143E+02 -.667E+02 -.211E+02   -.135E+02 0.662E+02 0.213E+02   -.785E+00 0.599E+00 -.312E+00   0.873E-02 -.309E-01 0.391E-01
   0.310E+02 0.332E+02 0.348E+04   -.310E+02 -.324E+02 -.348E+04   0.959E-01 -.846E+00 -.335E+01   -.572E-01 0.367E-02 -.277E-01
   0.665E+02 0.817E+01 0.176E+04   -.666E+02 -.885E+01 -.176E+04   0.860E-01 0.735E+00 -.157E+00   0.130E-01 -.205E-01 0.416E-01
   0.961E+02 -.284E+02 0.174E+04   -.960E+02 0.284E+02 -.174E+04   -.179E+00 0.366E-01 0.120E+00   0.961E-02 0.432E-02 0.278E-01
   0.142E+02 0.743E+02 0.699E+02   -.147E+02 -.741E+02 -.708E+02   0.545E+00 -.204E+00 0.836E+00   -.216E-01 -.425E-01 0.616E-01
   0.134E+02 0.544E+02 -.174E+04   -.130E+02 -.539E+02 0.174E+04   -.468E+00 -.471E+00 0.162E+01   -.311E-02 -.317E-02 0.361E-01
[...]
   0.563E+01 -.837E+02 0.484E+02   -.524E+01 0.826E+02 -.493E+02   -.396E+00 0.135E+01 0.715E+00   -.147E-01 0.231E-02 0.120E+00
   0.557E+02 -.446E+02 -.398E+01   -.551E+02 0.442E+02 0.345E+01   -.570E+00 0.463E+00 0.507E+00   0.131E-02 -.174E-01 0.707E-01
   -.758E+02 0.175E+01 0.157E+04   0.754E+02 -.163E+01 -.157E+04   0.386E+00 -.659E-01 -.384E-01   0.424E-01 0.187E-01 0.523E-01
   -.116E+02 0.209E+02 0.164E+04   0.119E+02 -.210E+02 -.164E+04   -.341E+00 0.191E+00 -.412E+00   0.302E-01 -.238E-01 0.173E-01
   -.988E+02 -.344E+01 0.312E+04   0.993E+02 0.350E+01 -.312E+04   -.540E+00 -.661E-01 -.113E+01   0.361E-01 0.288E-01 -.177E-01
   0.712E+02 -.554E+02 0.312E+04   -.715E+02 0.559E+02 -.312E+04   0.308E+00 -.579E+00 -.688E+00   -.223E-01 0.229E-01 -.472E-02
   0.135E+02 -.451E+02 0.156E+04   -.132E+02 0.449E+02 -.156E+04   -.376E+00 0.244E+00 0.517E-01   -.248E-01 0.464E-01 0.277E-01
   0.506E+02 0.190E+01 0.161E+04   -.501E+02 -.185E+01 -.161E+04   -.474E+00 -.890E-02 -.477E-01   -.349E-01 0.174E-01 0.248E-01
   -.414E+02 -.777E+02 -.157E+04   0.414E+02 0.778E+02 0.157E+04   0.123E+00 -.950E-01 0.896E+00   -.123E-01 0.635E-02 0.458E-01
   -.582E+02 0.295E+02 0.311E+04   0.586E+02 -.290E+02 -.310E+04   -.377E+00 -.552E+00 -.180E+01   0.537E-02 -.186E-01 -.405E-01
   -.476E+02 0.713E+02 0.691E+02   0.480E+02 -.710E+02 -.694E+02   -.309E+00 -.319E+00 0.165E+00   -.265E-01 -.228E-01 0.675E-01
   0.714E+00 0.640E+02 -.518E+01   -.805E+00 -.632E+02 0.504E+01   0.801E-01 -.848E+00 -.363E-01   0.268E-01 -.460E-02 0.481E-01
   0.416E+02 0.106E+02 -.389E+02   -.412E+02 -.100E+02 0.386E+02   -.356E+00 -.608E+00 0.129E+00   -.113E-01 -.229E-01 0.464E-01
   0.304E+02 -.449E+02 0.264E+02   -.308E+02 0.445E+02 -.267E+02   0.319E+00 0.468E+00 0.212E+00   0.431E-01 -.359E-01 0.414E-01
   -.210E+01 -.890E+00 -.124E+02   -.142E-12 -.313E-12 -.273E-10   0.214E+01 0.889E+00 0.106E+02   -.220E-01 0.160E-01 0.175E+01

 POSITION                                       TOTAL-FORCE (eV/Angst)
     12.83127      7.96218      7.00626        -0.002806     -0.014856     -0.012468
      5.05829      8.00140      6.97002        -0.009380     -0.005159      0.015671
      4.91019      3.45060      7.05791        -0.013160     -0.003639      0.006074
     14.17010      8.71299      9.39915         0.014050     -0.006842     -0.007142
      3.69320      4.18775      9.46884         0.008437     -0.023391      0.023288
      6.32392      8.71063      9.31587         0.025618     -0.002598     -0.003174
     11.54598      4.17216      9.43883        -0.015708     -0.012862      0.017866
      8.93682      8.69841      9.28250        -0.016384      0.007033     -0.001846
     10.24373      1.91489      9.28439         0.016418      0.017203      0.010883
      2.40820      1.91233      9.32803        -0.004952     -0.010637      0.012915
     11.55463      8.70477      9.36951        -0.005245      0.020252      0.001513
     12.85523      6.44060      9.43179         0.012568     -0.009501      0.006684
      5.00917      1.89954      9.39850         0.007047     -0.004566      0.016472
      7.64461      6.45191      9.37758         0.003652      0.002530     -0.012222
      8.94874      4.18047      9.33573         0.014812     -0.011205     -0.006812
      5.01437      6.44211      9.42984         0.004174      0.016161      0.013692
      7.63447      1.91012      9.31336        -0.000201      0.006834      0.015862
      7.69691      3.40838      6.99126         0.026503     -0.004787     -0.032781
      6.24164      1.13119      6.94530         0.003926     -0.028067     -0.001172
      6.36060      1.11842      0.83643        -0.006867     -0.006110     -0.005465
      3.67604      4.17054      2.79730         0.006227      0.008789     -0.010975
      1.16459      1.24498      6.91606        -0.012241      0.014191     -0.008148
      1.12703      1.17594      0.69812        -0.025787      0.007929     -0.001857
      6.37362      8.68069      2.88743        -0.002826      0.004164     -0.003443
      6.32589      4.18169      9.44519         0.013069     -0.003077     -0.002391
      7.60189      4.94104      4.81158         0.005164     -0.017046      0.003059
     10.23240      6.44516      9.36385         0.004745     -0.010991     -0.007763
     14.13769      7.16055      4.86796        -0.004356     -0.000974     -0.007972
     11.55393      5.63841      7.02844         0.008402     -0.000273     -0.001967
      6.35442      5.72234      7.02345         0.015512     -0.014346     -0.010507
      3.59772      2.55377      4.95823        -0.004547     -0.002697      0.006638
     10.26754      4.96975      4.85148        -0.015766     -0.016340      0.000132
      3.71938      5.71387      7.19025        -0.009253     -0.001827      0.014299
     12.85228      7.80762      0.88868        -0.003446      0.007708     -0.002479
      5.11408      7.84972      0.79309         0.008725      0.015364      0.017038
      3.77023      5.68258      0.76914         0.008796     -0.005970     -0.005705
      7.70970      1.99756      2.81572        -0.010453     -0.009225     -0.018709
      8.99527      8.65169      2.84555        -0.002582      0.000959     -0.007921
      2.37518      3.47734      7.16389         0.010287     -0.009168      0.008472
      2.33777      3.46419      0.78556         0.004833      0.003718      0.001003
     10.24620      1.95217      2.80512        -0.029683     -0.010318     -0.017529
     12.84195      4.93745      4.92144        -0.014602     -0.006327     -0.010053
      3.70324      1.05487      7.08613        -0.005593      0.007390      0.011303
      8.94635      5.71722      7.10531         0.005679     -0.013741     -0.022972
      3.71395      1.08784      0.82514         0.002518      0.000040      0.005536
      8.99829      5.66522      0.92800         0.005494      0.004554     -0.004820
      5.06743      3.44147      0.81265         0.001303      0.022642      0.005305
     11.51727      8.61665      2.89228         0.000120     -0.000525     -0.005862
     11.54465      7.19978      4.83241         0.000113      0.012402      0.005358
     12.75801      6.40091      2.81726         0.022120     -0.002011      0.003263
      8.95770      4.17295      2.77896        -0.011084      0.005143     -0.008376
      7.69880      7.93758      6.99516        -0.010905      0.005306      0.001441
      7.73138      7.86096      0.86088        -0.012185      0.003413      0.004115
     10.29450      6.46618      2.80924        -0.010511      0.004139     -0.011551
      2.48849      0.26233      4.99690         0.001271      0.015404     -0.004605
      7.67241      3.44637      0.72761        -0.005732     -0.013117      0.010072
      5.03303      1.85843      2.89234        -0.018869      0.003009      0.010092
      5.10108      6.38920      2.87489        -0.008553      0.000620      0.001645
      7.63667      0.45282      4.84968        -0.009013     -0.004092      0.009391
      8.97005      1.17912      6.98674        -0.000874      0.000984      0.005641
[...]
     14.15581      8.72502      2.82041         0.001441      0.003382     -0.008749
      8.97964      2.61894      4.90350        -0.020206      0.011921      0.012161
      6.30589      2.63413      4.85503         0.003016      0.013553     -0.016281
     11.54224      4.13511      2.79014         0.002829      0.004652     -0.003836
      2.41993      1.87995      2.81735         0.010967      0.014449      0.018608
     11.54338      5.63874      0.85840         0.008400      0.020774     -0.015974
      6.38743      5.66222      0.89172        -0.011053      0.009549     -0.009727
      7.74928      6.43552      2.82185        -0.002607      0.013054     -0.004792
      6.36172      4.09062      2.75984        -0.005919      0.007234      0.003861
     10.27089      3.43110      7.05536        -0.003097     -0.003658      0.019520
     10.24544      3.41772      0.83401         0.002620     -0.006958     -0.012904
     10.26946      0.46989      4.86907        -0.000239     -0.003180      0.004802
      8.95807      7.22027      4.93062        -0.005934     -0.003434     -0.009354
      6.39295      7.22925      4.93874         0.019710     -0.004568      0.005163
      4.99996      0.28300      4.87997         0.001664     -0.000443      0.004067
    total drift:                                0.020307      0.014806     -0.056499

  FREE ENERGIE OF THE ION-ELECTRON SYSTEM (eV)
  free  energy   TOTEN  =      -507.84011724 eV

  energy  without entropy=     -507.85545268  energy(sigma->0) =     -507.84522905

 d Force = 0.3702650E-02[ 0.807E-03, 0.660E-02]  d Energy = 0.2847828E-02 0.855E-03
 d Force = 0.2711971E+03[ 0.271E+03, 0.271E+03]  d Ewald  = 0.2711971E+03-0.115E-04

 Conjugate gradient step on ions:
 trial-energy change:   -0.002848  1 .order   -0.003703   -0.006598   -0.000807
  (g-gl).g = 0.512E-02      g.g   = 0.466E-02  gl.gl    = 0.105E-01
 g(Force)  = 0.466E-02   g(Stress)= 0.000E+00 ortho     =-0.123E-03
 gamma     =   0.48793
 trial     =   1.43459
 opt step  =   1.63457  (harmonic =   1.63457) maximal distance =0.00640859
 next E    =  -507.841028   (d E  =  -0.00376)

 reached required accuracy - stopping structural energy minimisation