 vasp.5.4.4.18Apr17-6-g9f103f2a35 (build Oct 25 2019 11:13:22) complex

 executed on             LinuxIFC date 2021.10.16  19:27:47

 INCAR:
 POTCAR:    PAW_PBE Pt 04Feb2005
 POTCAR:    PAW_PBE Fe 06Sep2000
 POTCAR:    PAW_PBE Co 02Aug2007
 POTCAR:    PAW_PBE Cu 22Jun2005
 POTCAR:    PAW_PBE Ni 02Aug2007
 POTCAR:    PAW_PBE H 15Jun2001
 POTCAR:    PAW_PBE Pt 04Feb2005
   VRHFIN =Pt: s1d9

   TITEL  = PAW_PBE Pt 04Feb2005
   POMASS =  195.080; ZVAL   =   10.000    mass and valenz
   ENMAX  =  230.283; ENMIN  =  172.712 eV

 POTCAR:    PAW_PBE Fe 06Sep2000
   VRHFIN =Fe:  d7 s1

   TITEL  = PAW_PBE Fe 06Sep2000
   POMASS =   55.847; ZVAL   =    8.000    mass and valenz
   ENMAX  =  267.882; ENMIN  =  200.911 eV

 POTCAR:    PAW_PBE Co 02Aug2007
   VRHFIN =Co: d8 s1

   TITEL  = PAW_PBE Co 02Aug2007
   POMASS =   58.933; ZVAL   =    9.000    mass and valenz
   ENMAX  =  267.968; ENMIN  =  200.976 eV

 POTCAR:    PAW_PBE Cu 22Jun2005
   VRHFIN =Cu: d10 p1

   TITEL  = PAW_PBE Cu 22Jun2005
   POMASS =   63.546; ZVAL   =   11.000    mass and valenz
   ENMAX  =  295.446; ENMIN  =  221.585 eV

 POTCAR:    PAW_PBE Ni 02Aug2007
   VRHFIN =Ni:

   TITEL  = PAW_PBE Ni 02Aug2007
   POMASS =   58.690; ZVAL   =   10.000    mass and valenz
   ENMAX  =  269.532; ENMIN  =  202.149 eV

 POTCAR:    PAW_PBE H 15Jun2001
   VRHFIN =H: ultrasoft test

   TITEL  = PAW_PBE H 15Jun2001
   POMASS =    1.000; ZVAL   =    1.000    mass and valenz
   ENMAX  =  250.000; ENMIN  =  200.000 eV

 Optimization of the real space projectors (new method)

 maximal supplied QI-value         = 14.36
 optimisation between [QCUT,QGAM] = [ 11.92, 23.98] = [ 39.79,161.09] Ry
 Optimized for a Real-space Cutoff    1.49 Angstroem

   l    n(q)    QCUT    max X(q) W(low)/X(q) W(high)/X(q)  e(spline)
   2     10    11.920    66.195    0.79E-04    0.18E-03    0.24E-06
   2     10    11.920    64.643    0.81E-04    0.19E-03    0.24E-06
   0     11    11.920    95.520    0.28E-04    0.54E-04    0.18E-06
   0     11    11.920    63.403    0.27E-04    0.52E-04    0.17E-06
   1     10    11.920    19.961    0.18E-04    0.11E-03    0.23E-06
   1     10    11.920    13.289    0.25E-04    0.87E-04    0.19E-06
 Optimization of the real space projectors (new method)

[...]

   l    n(q)    QCUT    max X(q) W(low)/X(q) W(high)/X(q)  e(spline)
   2      9    11.864    60.317    0.21E-03    0.51E-03    0.25E-06
   2      9    11.864    55.921    0.21E-03    0.51E-03    0.26E-06
   0      9    11.864    51.690    0.22E-03    0.30E-04    0.17E-06
   0      9    11.864    30.015    0.20E-03    0.28E-04    0.15E-06
   1      9    11.864    18.849    0.76E-04    0.33E-03    0.17E-06
   1      9    11.864    14.624    0.60E-04    0.28E-03    0.15E-06
 Optimization of the real space projectors (new method)

 maximal supplied QI-value         = 34.20
 optimisation between [QCUT,QGAM] = [ 11.97, 23.94] = [ 40.13,160.53] Ry
 Optimized for a Real-space Cutoff    1.18 Angstroem

   l    n(q)    QCUT    max X(q) W(low)/X(q) W(high)/X(q)  e(spline)
   0      8    11.971    19.460    0.15E-03    0.31E-03    0.25E-06
   0      8    11.971    12.209    0.13E-03    0.29E-03    0.25E-06
   1      8    11.971     4.655    0.22E-03    0.24E-03    0.21E-06
  PAW_PBE Pt 04Feb2005                  :
  PAW_PBE Fe 06Sep2000                  :
  PAW_PBE Co 02Aug2007                  :
  PAW_PBE Cu 22Jun2005                  :
  PAW_PBE Ni 02Aug2007                  :
  PAW_PBE H 15Jun2001                   :

 POSCAR: 11.06
  positions in direct lattice
  velocities in cartesian coordinates
 exchange correlation table for  LEXCH =        8
   RHO(1)=    0.500       N(1)  =     2000
   RHO(2)=  100.500       N(2)  =     4000

 ion  position               nearest neighbor table
   1  0.788  0.880  0.311-  49 2.57  59 2.62  28 2.65  11 2.76  19 2.76  33 2.76  61 2.77  29 2.78
                            60 2.78   4 2.79   2 2.83  12 2.85
   2  0.044  0.880  0.308-  79 2.55  77 2.60  28 2.73  30 2.73  33 2.75  60 2.76  52 2.79   6 2.82
                             1 2.83  22 2.84   4 2.88  16 2.95
   3  0.280  0.378  0.315-  64 2.55  68 2.65  31 2.66  39 2.67   5 2.74  33 2.75  13 2.77  25 2.80
                            43 2.81  19 2.81  30 2.84  18 2.96
   4  0.871  0.965  0.415-  17 2.71  60 2.72  11 2.75   9 2.76   1 2.79  12 2.80   6 2.83  16 2.85
                             2 2.88
   5  0.118  0.466  0.417-  39 2.64  33 2.70  12 2.71   7 2.71  16 2.71   3 2.74  10 2.74  25 2.80
                            13 2.87
   6  0.128  0.962  0.414-  52 2.67   8 2.71  10 2.77  22 2.79  14 2.79   9 2.81   2 2.82   4 2.83
                            16 2.84
   7  0.878  0.457  0.418-  39 2.63  75 2.66   5 2.71   9 2.72  15 2.72  10 2.74  29 2.75  12 2.79
                            27 2.82
   8  0.375  0.959  0.414-  81 1.83  43 2.56  52 2.63  61 2.68   6 2.71  14 2.74  27 2.74  13 2.75
                            10 2.77  11 2.77
   9  0.872  0.214  0.412-  75 2.63  60 2.67   7 2.72  15 2.72  17 2.74   4 2.76  22 2.78   6 2.81
                            10 2.83
  10  0.128  0.212  0.415-  39 2.64  43 2.68  13 2.72  22 2.73   7 2.74   5 2.74   8 2.77   6 2.77
                             9 2.83
  11  0.626  0.958  0.414-  81 1.86  61 2.71  12 2.74  27 2.75  13 2.75   4 2.75   1 2.76   8 2.77
                            17 2.78  19 2.78
  12  0.874  0.711  0.417-  33 2.69  29 2.70   5 2.71  11 2.74  27 2.77  16 2.78   7 2.79   4 2.80
                             1 2.85
  13  0.378  0.206  0.416-  43 2.68  10 2.72   8 2.75  11 2.75  19 2.76  17 2.77   3 2.77  25 2.78
                             5 2.87
  14  0.380  0.710  0.415-  44 2.61  52 2.65  27 2.70   8 2.74  15 2.74  30 2.76   6 2.79  25 2.80
                            16 2.81
  15  0.629  0.462  0.415-  44 2.62  75 2.64   9 2.72  27 2.72   7 2.72  18 2.73  14 2.74  17 2.81
                            25 2.83
  16  0.128  0.706  0.418-  33 2.66   5 2.71  25 2.72  30 2.76  12 2.78  14 2.81   6 2.84   4 2.85
                             2 2.95
  17  0.626  0.210  0.413-   4 2.71  18 2.71  60 2.73   9 2.74  13 2.77  25 2.78  11 2.78  19 2.81
                            15 2.81
  18  0.547  0.378  0.315-  67 2.54  68 2.61  26 2.67  17 2.71  44 2.73  15 2.73  60 2.74  75 2.76
                            25 2.79  30 2.83  19 2.86   3 2.96
  19  0.535  0.125  0.311-  80 2.53  68 2.56  59 2.57  43 2.66  13 2.76   1 2.76  61 2.77  11 2.78
                             3 2.81  17 2.81  18 2.86  60 2.89
  20  0.552  0.124  0.052-  37 2.54  57 2.54  48 2.56  62 2.67  63 2.77  47 2.79  34 2.81  56 2.83
                            45 2.95
  21  0.117  0.448  0.127-  47 2.51  36 2.52  40 2.52  42 2.62  70 2.69  69 2.70  64 2.70  31 2.74
                            50 2.78  57 2.79  74 3.04  58 3.09
  22  0.048  0.135  0.312-  65 2.53  77 2.54  55 2.56  43 2.69  39 2.70  10 2.73   9 2.78   6 2.79
                            75 2.81   2 2.84  52 2.84  60 2.84  31 3.35
  23  0.032  0.132  0.039-  70 2.56  41 2.58  40 2.58  62 2.69  76 2.70  24 2.71  45 2.77  35 2.89
                            53 2.93
  24  0.132  0.957  0.136-  79 2.51  35 2.56  77 2.57  53 2.57  55 2.59  70 2.65  58 2.68  23 2.71
                            73 2.74  38 2.74  66 2.81  41 2.91
  25  0.374  0.460  0.417-  16 2.72  17 2.78  13 2.78  30 2.78  18 2.79   5 2.80  14 2.80   3 2.80
                            15 2.83
  26  0.458  0.551  0.220-  74 2.50  73 2.52  51 2.55  79 2.63  30 2.64  18 2.67  44 2.68  32 2.73
                            78 2.74  68 2.81  67 2.84  64 2.85
  27  0.623  0.712  0.416-  81 1.75  44 2.64  61 2.68  14 2.70  15 2.72   8 2.74  11 2.75  29 2.77
                            12 2.77   7 2.82
  28  0.955  0.779  0.215-  58 2.56  50 2.56  66 2.61   1 2.65  42 2.65  33 2.67  49 2.68   2 2.73
                            64 2.75  59 2.94  77 3.16  79 3.16
  29  0.800  0.624  0.317-  42 2.55  32 2.63  39 2.63  49 2.64  75 2.68  12 2.70  33 2.73   7 2.75
                            27 2.77   1 2.78  61 2.79  44 2.83
  30  0.288  0.630  0.314-  79 2.53  64 2.63  26 2.64  33 2.71   2 2.73  52 2.75  16 2.76  14 2.76
                            25 2.78  44 2.80  18 2.83   3 2.84
  31  0.197  0.274  0.226-  70 2.49  43 2.57  57 2.57  55 2.61  39 2.62  65 2.63   3 2.66  21 2.74
                            42 2.80  80 2.84  64 2.96  68 3.01  22 3.35
  32  0.704  0.554  0.222-  54 2.55  69 2.55  51 2.59  49 2.63  29 2.63  44 2.66  78 2.67  75 2.67
                            65 2.72  42 2.73  26 2.73  67 2.77
  33  0.041  0.635  0.319-  16 2.66  28 2.67  64 2.68  12 2.69   5 2.70  30 2.71  42 2.71  29 2.73
                             2 2.75   3 2.75   1 2.76  39 2.80
  34  0.794  0.860  0.055-  50 2.37  48 2.43  66 2.54  36 2.60  63 2.69  71 2.72  20 2.81  35 2.85

  35  0.050  0.863  0.048-  36 2.43  58 2.54  24 2.56  66 2.58  72 2.69  34 2.85  23 2.89  53 2.90
                            62 2.92
  36  0.046  0.646  0.053-  35 2.43  21 2.52  58 2.52  50 2.58  34 2.60  72 2.68  47 2.90  71 3.06

  37  0.627  0.234  0.134-  67 2.50  56 2.50  51 2.50  20 2.54  59 2.54  74 2.55  68 2.55  62 2.57
                            41 2.59  66 2.76
  38  0.383  0.952  0.134-  45 2.42  53 2.43  80 2.46  55 2.52  78 2.52  63 2.54  73 2.58  54 2.59
                            48 2.62  24 2.74  57 2.75  70 2.83
  39  0.035  0.384  0.321-  42 2.60  31 2.62   7 2.63  29 2.63  10 2.64   5 2.64   3 2.67  65 2.68
                            75 2.68  22 2.70  33 2.80  43 2.96
  40  0.009  0.376  0.044-  69 2.35  76 2.47  21 2.52  23 2.58  70 2.59  71 2.60  45 3.03
  41  0.868  0.220  0.132-  76 2.44  77 2.46  67 2.52  65 2.54  62 2.56  23 2.58  37 2.59  69 2.60
                            51 2.66  66 2.68  70 2.71  24 2.91
  42  0.958  0.538  0.223-  50 2.48  29 2.55  39 2.60  21 2.62  69 2.62  28 2.65  65 2.66  33 2.71
                            32 2.73  64 2.76  49 2.77  31 2.80
  43  0.301  0.114  0.319-  55 2.51   8 2.56  31 2.57  80 2.58  19 2.66  10 2.68  52 2.68  13 2.68
                            61 2.68  22 2.69   3 2.81  39 2.96
  44  0.543  0.626  0.320-  14 2.61  78 2.62  15 2.62  27 2.64  32 2.66  26 2.68  61 2.71  75 2.71
                            52 2.71  18 2.73  30 2.80  29 2.83
  45  0.291  0.112  0.049-  38 2.42  70 2.44  53 2.53  57 2.59  63 2.71  23 2.77  20 2.95  40 3.03
                            47 3.10
  46  0.550  0.626  0.049-  54 2.38  51 2.39  73 2.40  71 2.55  76 2.70  56 2.73  53 2.75  63 2.76
                            72 2.80
  47  0.309  0.384  0.051-  74 2.30  21 2.51  56 2.59  57 2.60  72 2.60  20 2.79  36 2.90  45 3.10

  48  0.625  0.943  0.137-  49 2.35  34 2.43  80 2.48  54 2.52  63 2.52  20 2.56  59 2.58  38 2.62
                            50 2.70  57 2.82  66 2.91
  49  0.707  0.789  0.221-  48 2.35  50 2.43  54 2.50   1 2.57  61 2.62  32 2.63  29 2.64  80 2.66
                            78 2.67  28 2.68  42 2.77  59 2.93
  50  0.857  0.689  0.133-  71 2.36  34 2.37  49 2.43  42 2.48  54 2.49  69 2.53  28 2.56  36 2.58
                            48 2.70  21 2.78
  51  0.628  0.460  0.130-  46 2.39  76 2.43  37 2.50  56 2.51  26 2.55  32 2.59  67 2.62  69 2.64
                            41 2.66  74 2.68  73 2.76  54 2.82
[...]
   0.402E+02 -.125E+02 -.143E+04   -.418E+02 0.127E+02 0.143E+04   0.160E+01 -.144E+00 0.193E+01   -.966E-02 -.164E-01 0.368E-01
   -.118E+02 0.422E+02 -.276E+04   0.121E+02 -.417E+02 0.276E+04   -.296E+00 -.424E+00 0.140E+01   0.752E-03 -.287E-01 0.387E-02
   -.270E+02 0.342E+01 -.276E+04   0.260E+02 -.273E+01 0.276E+04   0.870E+00 -.684E+00 0.210E+01   0.313E-01 -.155E-02 -.153E-01
   0.272E+02 -.264E+01 -.275E+04   -.271E+02 0.217E+01 0.275E+04   -.204E+00 0.480E+00 0.179E+01   0.502E-01 -.360E-01 -.314E-01
   -.315E+02 -.491E+01 -.282E+04   0.316E+02 0.404E+01 0.282E+04   -.132E+00 0.829E+00 0.220E+01   0.679E-01 0.315E-01 0.810E-01
   0.185E+02 -.282E+02 -.281E+04   -.200E+02 0.290E+02 0.281E+04   0.151E+01 -.801E+00 0.251E+01   -.181E-01 0.113E-01 -.476E-01
   -.269E+02 0.303E+02 -.280E+04   0.266E+02 -.300E+02 0.279E+04   0.346E+00 -.189E+00 0.189E+01   0.125E-01 -.869E-01 0.612E-01
   -.223E+01 0.769E+00 -.276E+04   0.281E+01 -.283E+00 0.276E+04   -.603E+00 -.433E+00 0.240E+01   0.622E-01 -.434E-01 -.365E-04
   -.361E+02 -.153E+02 -.278E+04   0.365E+02 0.151E+02 0.278E+04   -.512E+00 0.125E+00 0.581E+00   0.467E-02 0.287E-01 -.173E-01
   -.214E+02 -.945E+01 -.276E+04   0.220E+02 0.902E+01 0.276E+04   -.549E+00 0.419E+00 0.208E+01   0.251E-01 0.123E-01 -.560E-02
   -.102E+01 -.296E+02 -.278E+04   0.731E+00 0.295E+02 0.277E+04   0.312E+00 0.165E+00 0.195E+01   -.104E-01 -.982E-02 -.136E-01
   0.405E+02 0.171E+02 -.279E+04   -.400E+02 -.171E+02 0.278E+04   -.531E+00 -.128E+00 0.231E+01   -.345E-01 0.588E-01 -.173E-01
   0.419E+02 0.334E+01 -.281E+04   -.412E+02 -.280E+01 0.281E+04   -.636E+00 -.544E+00 0.217E+01   -.637E-01 0.282E-01 0.863E-01
   0.201E+01 -.613E+01 -.276E+04   -.230E+01 0.558E+01 0.276E+04   0.306E+00 0.561E+00 0.178E+01   -.132E-01 -.660E-02 -.244E-01
   0.279E+02 -.100E+02 -.279E+04   -.277E+02 0.102E+02 0.279E+04   -.911E-01 -.172E+00 0.187E+01   -.559E-01 -.117E-01 0.134E-01
   0.772E+02 -.546E+02 -.147E+04   -.759E+02 0.548E+02 0.146E+04   -.118E+01 -.174E+00 0.154E+01   -.121E+00 -.177E-01 0.292E-01
   0.202E+02 -.346E+02 -.142E+04   -.213E+02 0.340E+02 0.142E+04   0.117E+01 0.571E+00 0.230E+01   -.548E-01 -.424E-02 0.309E-01
   0.596E+02 0.340E+02 0.281E+04   -.594E+02 -.341E+02 -.281E+04   -.362E+00 0.124E+00 -.284E+01   -.168E-01 0.323E-01 0.595E-02
   -.138E+02 -.315E+02 0.164E+04   0.126E+02 0.320E+02 -.164E+04   0.121E+01 -.467E+00 0.131E+01   0.473E-01 -.492E-01 0.132E-02
   -.535E+02 0.222E+02 -.141E+04   0.542E+02 -.216E+02 0.140E+04   -.804E+00 -.456E+00 0.235E+01   0.130E+00 -.124E+00 0.897E-02
   -.709E+02 0.943E+02 0.293E+04   0.715E+02 -.927E+02 -.293E+04   -.507E+00 -.165E+01 -.269E+01   0.196E-01 -.513E-04 0.132E-01
   0.397E+02 -.476E+02 0.151E+04   -.395E+02 0.469E+02 -.151E+04   -.323E+00 0.605E+00 -.730E+00   0.171E-01 0.549E-01 0.597E-01
   0.164E+02 -.228E+01 -.277E+04   -.165E+02 0.216E+01 0.277E+04   0.201E+00 0.121E+00 0.171E+01   -.473E-01 -.775E-02 0.126E-02
   0.102E+02 0.105E+02 -.593E+01   -.101E+02 -.102E+02 0.499E+01   -.192E+00 -.386E+00 0.850E+00   -.576E-01 0.806E-02 0.617E-01
   -.189E+02 0.154E+02 -.280E+04   0.181E+02 -.164E+02 0.280E+04   0.727E+00 0.103E+01 0.165E+01   -.328E-02 0.750E-01 0.346E-01
   -.801E+01 0.285E+02 0.146E+03   0.687E+01 -.301E+02 -.146E+03   0.121E+01 0.165E+01 -.192E+00   0.181E-01 -.443E-02 0.651E-01
   -.724E+02 -.458E+01 -.143E+04   0.729E+02 0.346E+01 0.142E+04   -.542E+00 0.108E+01 0.259E+01   0.720E-01 0.849E-01 0.450E-01
   0.449E+02 0.260E+02 -.144E+04   -.450E+02 -.252E+02 0.144E+04   0.363E-01 -.808E+00 0.207E+01   -.281E-01 0.286E-01 0.611E-01
   -.216E+02 -.728E+02 -.498E+02   0.206E+02 0.725E+02 0.501E+02   0.106E+01 0.450E+00 -.233E+00   0.263E-01 -.663E-01 0.308E-01
   -.338E+02 -.243E+02 -.720E+01   0.343E+02 0.249E+02 0.679E+01   -.558E+00 -.743E+00 0.390E+00   0.110E-01 0.726E-01 0.555E-02
   0.142E+02 0.588E+01 -.113E+04   -.142E+02 -.603E+01 0.113E+04   -.635E-02 0.232E+00 0.157E+00   0.107E-01 -.238E-02 0.265E-01
   -.850E+02 0.564E+01 0.224E+04   0.854E+02 -.686E+01 -.224E+04   -.463E+00 0.124E+01 -.288E+01   0.278E-01 0.246E-01 -.194E-01
   0.368E+02 -.119E+02 0.231E+04   -.372E+02 0.101E+02 -.230E+04   0.538E+00 0.195E+01 -.302E+01   -.281E-01 -.342E-03 -.131E-02
   0.597E+02 0.346E+02 0.225E+04   -.591E+02 -.329E+02 -.225E+04   -.652E+00 -.171E+01 -.289E+01   0.217E-01 -.157E-01 -.753E-02
   0.480E+02 0.812E+02 0.119E+04   -.470E+02 -.804E+02 -.119E+04   -.955E+00 -.838E+00 -.736E-01   -.448E-01 -.282E-01 0.114E-01
   0.207E+02 -.879E+02 0.121E+04   -.206E+02 0.873E+02 -.121E+04   -.136E+00 0.448E+00 -.532E+00   -.752E-02 0.685E-01 0.951E-01
   -.663E+02 -.215E+02 -.117E+04   0.663E+02 0.216E+02 0.117E+04   -.138E+00 -.194E+00 0.293E+00   0.996E-01 -.123E-01 0.129E-01
   -.200E+03 -.363E+01 0.236E+04   0.197E+03 0.329E+01 -.236E+04   0.215E+01 0.326E+00 -.379E+01   0.558E-01 -.274E-01 0.620E-02
   -.438E+02 0.701E+02 0.123E+04   0.429E+02 -.695E+02 -.123E+04   0.918E+00 -.620E+00 -.526E+00   0.184E-01 -.462E-01 0.922E-02
   -.818E+02 -.918E+01 -.151E+02   0.814E+02 0.959E+01 0.152E+02   0.210E+00 -.447E+00 -.203E+00   0.569E-01 -.774E-02 0.391E-01
   0.132E+02 -.813E+02 -.119E+04   -.133E+02 0.812E+02 0.119E+04   0.113E+00 0.228E+00 0.606E+00   -.262E-01 -.422E-01 -.527E-02
   0.148E+02 0.181E+02 -.119E+04   -.149E+02 -.183E+02 0.119E+04   0.117E+00 0.177E-01 -.149E+00   -.522E-01 0.102E+00 0.200E-01
   -.222E+02 -.106E+03 0.230E+04   0.210E+02 0.104E+03 -.230E+04   0.120E+01 0.210E+01 -.330E+01   0.143E-01 0.465E-01 0.248E-01
   0.303E+02 -.371E+02 0.263E+04   -.301E+02 0.372E+02 -.263E+04   -.188E+00 -.102E+00 -.299E+01   -.885E-02 0.534E-02 -.323E-01
   0.202E+03 0.430E+02 0.261E+04   -.201E+03 -.421E+02 -.261E+04   -.789E+00 -.939E+00 -.315E+01   -.197E-01 -.162E-01 0.113E-01
   -.777E+02 -.578E+02 0.131E+04   0.770E+02 0.567E+02 -.131E+04   0.703E+00 0.111E+01 -.150E+00   -.961E-02 0.496E-01 0.288E-01
   -.952E+02 0.296E+02 0.169E+02   0.954E+02 -.296E+02 -.173E+02   -.111E+00 -.879E-01 0.309E+00   -.174E-01 0.412E-01 0.674E-01
   -.169E+03 -.472E+01 0.135E+04   0.169E+03 0.527E+01 -.135E+04   0.632E-01 -.606E+00 -.119E+00   0.491E-01 0.762E-02 0.163E-01
   -.587E+01 -.127E+02 0.133E+04   0.608E+01 0.124E+02 -.133E+04   -.185E+00 0.467E+00 -.257E+00   -.307E-01 -.502E-01 0.414E-01
   0.494E+02 -.473E+00 -.136E+04   -.493E+02 0.396E+00 0.136E+04   -.248E+00 0.676E-01 0.720E+00   0.410E-01 0.452E-01 0.104E-01
   0.824E+02 -.599E+02 0.264E+04   -.815E+02 0.601E+02 -.264E+04   -.836E+00 -.261E+00 -.333E+01   -.172E-01 0.651E-01 -.231E-02
   -.302E+02 -.281E+01 0.134E+04   0.302E+02 0.310E+01 -.134E+04   -.112E+00 -.368E+00 -.566E+00   0.110E-01 0.612E-01 0.753E-01
   0.439E+02 -.897E+02 -.244E+02   -.431E+02 0.892E+02 0.247E+02   -.838E+00 0.473E+00 -.478E+00   0.507E-01 -.114E-01 0.827E-01
   0.687E+02 0.360E+02 0.328E+04   -.686E+02 -.350E+02 -.328E+04   0.812E-01 -.915E+00 -.421E+01   -.103E+00 -.667E-01 -.150E-01
   0.644E+02 -.113E+02 0.162E+04   -.648E+02 0.107E+02 -.162E+04   0.304E+00 0.597E+00 0.200E-01   -.274E-01 0.223E-01 0.295E-01
   0.185E+03 -.419E+02 0.154E+04   -.185E+03 0.424E+02 -.154E+04   -.197E+00 -.522E+00 -.980E-02   -.494E-01 -.233E-01 0.104E-01
   0.327E+02 0.899E+02 0.120E+03   -.332E+02 -.897E+02 -.120E+03   0.540E+00 -.333E+00 -.729E-01   -.346E-01 0.865E-02 0.426E-01
   0.127E+02 0.729E+02 -.160E+04   -.121E+02 -.728E+02 0.160E+04   -.477E+00 -.440E-01 0.835E+00   -.552E-01 -.976E-01 0.340E-01
[...]
   0.757E+02 0.528E+00 0.402E+01   -.749E+02 -.530E+00 -.366E+01   -.769E+00 0.226E-01 -.353E+00   -.613E-01 -.280E-01 0.377E-01
   -.118E+03 -.107E+02 0.148E+04   0.117E+03 0.110E+02 -.148E+04   0.557E+00 -.206E+00 -.562E+00   0.744E-01 -.497E-01 0.221E-01
   -.553E+02 0.532E+01 0.155E+04   0.557E+02 -.563E+01 -.155E+04   -.453E+00 0.348E+00 -.580E+00   0.503E-01 -.238E-01 0.484E-01
   -.164E+03 -.287E+02 0.296E+04   0.164E+03 0.285E+02 -.295E+04   0.261E-01 0.125E+00 -.267E+01   0.724E-01 0.653E-02 -.291E-01
   0.938E+02 -.663E+02 0.294E+04   -.944E+02 0.667E+02 -.293E+04   0.834E+00 -.310E+00 -.162E+01   -.940E-01 -.482E-01 -.141E-01
   0.274E+02 -.307E+02 0.153E+04   -.270E+02 0.305E+02 -.153E+04   -.369E+00 0.160E+00 0.135E-01   -.311E-01 0.457E-01 0.871E-01
   0.101E+03 0.997E+01 0.148E+04   -.999E+02 -.991E+01 -.148E+04   -.853E+00 0.405E-01 -.575E+00   -.870E-01 -.573E-01 0.265E-02
   -.317E+02 -.450E+02 -.150E+04   0.317E+02 0.452E+02 0.150E+04   0.358E-01 -.176E+00 0.216E+00   0.233E-01 -.125E-01 0.239E-01
   -.475E+02 0.195E+02 0.294E+04   0.478E+02 -.188E+02 -.293E+04   -.390E+00 -.582E+00 -.198E+01   0.320E-01 -.689E-01 -.234E-01
   -.484E+02 0.133E+03 0.802E+02   0.488E+02 -.133E+03 -.799E+02   -.429E+00 -.344E+00 -.486E+00   0.408E-01 -.422E-01 0.282E-01
   -.959E+01 0.497E+02 -.437E+02   0.954E+01 -.490E+02 0.435E+02   0.139E+00 -.806E+00 0.232E-01   -.316E-01 0.127E+00 0.103E+00
   0.117E+03 -.148E+02 -.502E+02   -.117E+03 0.153E+02 0.503E+02   -.452E+00 -.690E+00 -.322E+00   0.511E-01 0.746E-01 0.119E+00
   -.239E+02 -.885E+02 0.130E+02   0.236E+02 0.881E+02 -.131E+02   0.394E+00 0.371E+00 -.396E-01   -.845E-01 0.227E-01 0.726E-01
   0.203E+01 -.138E+01 -.329E+03   -.231E+01 0.138E+01 0.330E+03   0.311E+00 0.194E-02 -.141E+01   -.294E-02 0.148E-02 -.232E-02
   -.321E+01 0.270E+00 0.251E+01   -.147E-13 -.508E-12 0.112E-10   0.330E+01 -.224E+00 -.421E+01   -.970E-01 -.258E-01 0.171E+01

 POSITION                                       TOTAL-FORCE (eV/Angst)
     13.56796      8.43276      6.83580         0.005474     -0.000474     -0.009278
      5.34696      8.43344      6.73996         0.008541     -0.003209     -0.011995
      5.18279      3.62391      6.92684         0.004991     -0.002453     -0.009127
     15.01876      9.22735      9.05977         0.016194      0.006101      0.007632
      3.88656      4.46572      9.18310        -0.014006     -0.012857      0.002003
      6.69606      9.18120      9.04633        -0.001466     -0.004221      0.007343
     12.22719      4.37521      9.20504        -0.001542     -0.002514     -0.004720
      9.39153      9.20731      9.14974         0.010060     -0.001162     -0.007702
     10.83431      2.01555      9.04978         0.004821     -0.004607      0.001830
      2.58588      2.04311      9.11766         0.006951     -0.004684     -0.003921
     12.25947      9.20740      9.16160        -0.007533      0.000431      0.001301
     13.63931      6.81462      9.16358         0.006073      0.005891      0.013100
      5.30404      2.00911      9.15466         0.004951      0.000425     -0.013467
      8.08429      6.79762      9.12801        -0.002779      0.002508     -0.008082
      9.49663      4.41148      9.13744        -0.003128      0.014551     -0.008744
      5.30347      6.81004      9.14138         0.006611      0.006813      0.006871
      8.08673      1.99322      9.09557         0.003573      0.014938     -0.010747
      8.14207      3.60633      6.91715         0.004407      0.001746      0.011695
      6.59822      1.20034      6.84565         0.004727      0.013282      0.004581
      6.78710      1.18523      1.14924         0.003874     -0.002526     -0.015645
      3.76654      4.28943      2.79191        -0.003953      0.000728      0.013127
      1.28382      1.29097      6.84502        -0.006397     -0.005333      0.007506
      1.08322      1.26580      0.86116         0.004145     -0.014996     -0.009965
      6.75769      9.17044      2.98650         0.000311     -0.008015      0.013122
      6.68667      4.39705      9.16285        -0.000678      0.005450      0.003033
      8.11381      5.27353      4.83171         0.034306      0.007098     -0.000373
     10.82171      6.74483      9.20151        -0.010013      0.019946     -0.000435
     14.86749      7.46195      4.73691         0.006228     -0.011128     -0.027696
     12.28334      5.98162      6.96710         0.002615     -0.006556     -0.006489
      6.66540      6.02904      6.90042        -0.004041     -0.000172      0.004572
      3.69611      2.62221      4.96528         0.009242     -0.004252      0.005701
     10.84750      5.30333      4.87795        -0.018425     -0.000927     -0.021263
      3.95663      6.06747      7.00307        -0.000220      0.002364     -0.003560
     13.54014      8.23685      1.21769        -0.010986     -0.002742      0.010059
      5.32877      8.26421      1.06683         0.007538     -0.013437     -0.010386
      4.07872      6.18644      1.16963         0.004029     -0.001234      0.002487
      8.23293      2.23943      2.94956         0.002065      0.002251      0.004303
      9.50197      9.12028      2.95366         0.002423      0.003402     -0.003294
      2.51740      3.68256      7.05641        -0.010580      0.000734      0.004219
      2.17813      3.60438      0.95905        -0.016018     -0.005505      0.001508
     10.81855      2.10616      2.90557        -0.004768     -0.008851      0.001265
     13.56981      5.15767      4.91632        -0.009613     -0.000778     -0.008580
      3.96396      1.08733      7.01908        -0.005762      0.005867      0.009763
      9.45545      5.99979      7.03758        -0.000145     -0.008522      0.006411
      3.84082      1.07508      1.08740        -0.012181      0.001413      0.001383
      9.54360      5.99174      1.07418        -0.019864      0.025637     -0.002180
      5.53326      3.67383      1.11237        -0.016098      0.011975     -0.005332
     12.12391      9.03535      3.02482         0.000330     -0.000330      0.005559
     12.19001      7.56078      4.85800        -0.018906      0.013620      0.026336
     13.29175      6.60251      2.91585         0.002848      0.004085      0.003736
      9.48696      4.40599      2.86728        -0.009196      0.024791      0.001793
      8.13961      8.36207      6.97764         0.002033     -0.007075      0.006693
      8.22572      8.40044      1.02038         0.019773     -0.022226      0.009217
     10.81470      6.88846      2.87925        -0.020513      0.010241     -0.012349
      2.70342      0.21102      5.02247         0.015148     -0.021381      0.003731
      8.11520      3.66906      0.89878        -0.003944      0.003304     -0.006933
      5.28377      1.95964      3.04932        -0.005193      0.007217     -0.000024
      5.61899      6.74656      3.08047         0.001458     -0.009154      0.007962
      8.07791      0.54162      4.83808        -0.003740      0.000774      0.015355
      9.49184      1.23895      6.87977        -0.002472     -0.002314      0.002647
[...]
      9.57359      2.84462      4.96726         0.014742     -0.000457     -0.028211
      6.69370      2.85116      4.88285         0.001185     -0.007759     -0.002587
     12.12773      4.35211      2.88488        -0.002646      0.000560      0.005591
      2.46536      1.93297      2.91282         0.013222      0.000033      0.000939
     12.08907      5.94123      0.99380        -0.011207     -0.015329     -0.006647
      6.74616      5.97802      1.08730         0.014474      0.000847      0.017147
      8.23740      6.87147      2.88707         0.014053     -0.011105     -0.011892
      6.80581      4.34717      2.90754         0.006003      0.003031      0.006215
     10.89763      3.69315      7.01096        -0.000626      0.001913     -0.003320
     10.76626      3.58716      0.97095        -0.015284      0.000662      0.001509
     10.88657      0.63149      4.87040        -0.001621     -0.002062     -0.032403
      9.52479      7.61651      4.98098         0.029708      0.014673      0.055929
      6.95958      7.62760      4.96170        -0.022383      0.014225      0.000944
      5.23455      0.23107      4.94671         0.010009     -0.035477      0.045529
     10.91449      8.40765     10.01985         0.030921      0.006206      0.020653
    total drift:                               -0.010898      0.020548      0.012682

  FREE ENERGIE OF THE ION-ELECTRON SYSTEM (eV)
  free  energy   TOTEN  =      -504.58049886 eV

  energy  without entropy=     -504.59711980  energy(sigma->0) =     -504.58603917

 d Force = 0.8817427E-03[ 0.403E-03, 0.136E-02]  d Energy = 0.8775480E-03 0.419E-05
 d Force =-0.2094830E+02[-0.210E+02,-0.209E+02]  d Ewald  =-0.2094830E+02-0.176E-05

 Conjugate gradient step on ions:
 trial-energy change:   -0.000878  1 .order   -0.000882   -0.001360   -0.000403
  (g-gl).g = 0.708E-03      g.g   = 0.720E-03  gl.gl    = 0.173E-02
 g(Force)  = 0.720E-03   g(Stress)= 0.000E+00 ortho     = 0.160E-04
 gamma     =   0.41042
 trial     =   1.87233
 opt step  =   2.66165  (harmonic =   2.66165) maximal distance =0.01164699
 next E    =  -504.580588   (d E  =  -0.00097)

 reached required accuracy - stopping structural energy minimisation