 vasp.5.4.4.18Apr17-6-g9f103f2a35 (build Nov 06 2019 15:09:28) complex

 executed on             LinuxIFC date 2023.08.09  11:47:43

 INCAR:
 POTCAR:    PAW_PBE Pt 04Feb2005
 POTCAR:    PAW_PBE Fe 06Sep2000
 POTCAR:    PAW_PBE Co 02Aug2007
 POTCAR:    PAW_PBE Cu 22Jun2005
 POTCAR:    PAW_PBE Ni 02Aug2007
 POTCAR:    PAW_PBE H 15Jun2001

 POTCAR:    PAW_PBE Pt 04Feb2005
   VRHFIN =Pt: s1d9

   TITEL  = PAW_PBE Pt 04Feb2005
   POMASS =  195.080; ZVAL   =   10.000    mass and valenz
   ENMAX  =  230.283; ENMIN  =  172.712 eV

 POTCAR:    PAW_PBE Fe 06Sep2000
   VRHFIN =Fe:  d7 s1

   TITEL  = PAW_PBE Fe 06Sep2000
   POMASS =   55.847; ZVAL   =    8.000    mass and valenz
   ENMAX  =  267.882; ENMIN  =  200.911 eV

 POTCAR:    PAW_PBE Co 02Aug2007
   VRHFIN =Co: d8 s1

   TITEL  = PAW_PBE Co 02Aug2007
   POMASS =   58.933; ZVAL   =    9.000    mass and valenz
   ENMAX  =  267.968; ENMIN  =  200.976 eV

 POTCAR:    PAW_PBE Cu 22Jun2005
   VRHFIN =Cu: d10 p1

   TITEL  = PAW_PBE Cu 22Jun2005
   POMASS =   63.546; ZVAL   =   11.000    mass and valenz
   ENMAX  =  295.446; ENMIN  =  221.585 eV

 POTCAR:    PAW_PBE Ni 02Aug2007
   VRHFIN =Ni:

   TITEL  = PAW_PBE Ni 02Aug2007
   POMASS =   58.690; ZVAL   =   10.000    mass and valenz
   ENMAX  =  269.532; ENMIN  =  202.149 eV

 POTCAR:    PAW_PBE H 15Jun2001
   VRHFIN =H: ultrasoft test

   TITEL  = PAW_PBE H 15Jun2001
   POMASS =    1.000; ZVAL   =    1.000    mass and valenz
   ENMAX  =  250.000; ENMIN  =  200.000 eV

 Optimization of the real space projectors (new method)

 maximal supplied QI-value         = 14.36
 optimisation between [QCUT,QGAM] = [ 11.92, 23.98] = [ 39.79,161.09] Ry
 Optimized for a Real-space Cutoff    1.49 Angstroem

   l    n(q)    QCUT    max X(q) W(low)/X(q) W(high)/X(q)  e(spline)
   2     10    11.920    66.195    0.79E-04    0.18E-03    0.24E-06
   2     10    11.920    64.643    0.81E-04    0.19E-03    0.24E-06
   0     11    11.920    95.520    0.28E-04    0.54E-04    0.18E-06
   0     11    11.920    63.403    0.27E-04    0.52E-04    0.17E-06
   1     10    11.920    19.961    0.18E-04    0.11E-03    0.23E-06
   1     10    11.920    13.289    0.25E-04    0.87E-04    0.19E-06
 Optimization of the real space projectors (new method)

[...]

   l    n(q)    QCUT    max X(q) W(low)/X(q) W(high)/X(q)  e(spline)
   2      9    11.864    60.317    0.21E-03    0.51E-03    0.25E-06
   2      9    11.864    55.921    0.21E-03    0.51E-03    0.26E-06
   0      9    11.864    51.690    0.22E-03    0.30E-04    0.17E-06
   0      9    11.864    30.015    0.20E-03    0.28E-04    0.15E-06
   1      9    11.864    18.849    0.76E-04    0.33E-03    0.17E-06
   1      9    11.864    14.624    0.60E-04    0.28E-03    0.15E-06
 Optimization of the real space projectors (new method)

 maximal supplied QI-value         = 34.20
 optimisation between [QCUT,QGAM] = [ 11.97, 23.94] = [ 40.13,160.53] Ry
 Optimized for a Real-space Cutoff    1.18 Angstroem

   l    n(q)    QCUT    max X(q) W(low)/X(q) W(high)/X(q)  e(spline)
   0      8    11.971    19.460    0.15E-03    0.31E-03    0.25E-06
   0      8    11.971    12.209    0.13E-03    0.29E-03    0.25E-06
   1      8    11.971     4.655    0.22E-03    0.24E-03    0.21E-06
  PAW_PBE Pt 04Feb2005                  :
  PAW_PBE Fe 06Sep2000                  :
  PAW_PBE Co 02Aug2007                  :
  PAW_PBE Cu 22Jun2005                  :
  PAW_PBE Ni 02Aug2007                  :
  PAW_PBE H 15Jun2001                   :

 POSCAR: Pt   Fe   Co   Cu   Ni   H
  positions in direct lattice
  velocities in cartesian coordinates
 exchange correlation table for  LEXCH =        8
   RHO(1)=    0.500       N(1)  =     2000
   RHO(2)=  100.500       N(2)  =     4000

 VTST: version 3.2, (02/03/18)

 CHAIN: initializing optimizer

 OPT: Using VASP QUASI-newton optimizer
 CHAIN: Read ICHAIN            0
 CHAIN: Running the NEB
 NEB:          SPRING     -5.000000
 NEB:          LCLIMB      T
 NEB:     LTANGENTOLD      F
 NEB:           LDNEB      F
 NEB:        LDNEBORG      F
 NEB:        LNEBCELL      F
 NEB:          EFIRST      0.000000
 NEB:           ELAST      0.000000

 POSCAR: 11.26
  positions in direct lattice
  velocities in cartesian coordinates

 POSCAR: Pt   Fe   Co   Cu   Ni   H
  positions in direct lattice

 ion  position               nearest neighbor table
   1  0.782  0.871  0.305-  49 2.52  59 2.61  28 2.68  61 2.75  19 2.79  33 2.79   4 2.79  11 2.81
                             2 2.81  29 2.83  12 2.85  60 2.87
   2  0.032  0.871  0.300-  79 2.51  77 2.55  28 2.77  33 2.77  30 2.78   1 2.81   4 2.81  60 2.83
                             6 2.84  16 2.91  22 2.97  52 3.10
   3  0.277  0.363  0.314-  64 2.54  31 2.66  68 2.66  39 2.71   5 2.73  43 2.75  13 2.76  25 2.77
                            19 2.81  30 2.82  33 2.86  18 2.97
   4  0.870  0.957  0.406-  60 2.65   9 2.76   6 2.77  17 2.78   1 2.79  16 2.80  11 2.80   2 2.81
                            12 2.81
   5  0.108  0.464  0.413-  39 2.62  33 2.69  12 2.72   3 2.73  16 2.75   7 2.75  10 2.79  25 2.84
                            13 3.01
   6  0.122  0.948  0.405-  52 2.61  22 2.71  14 2.75  16 2.76   4 2.77   2 2.84   8 2.84   9 2.85
                            10 2.93
   7  0.872  0.447  0.416-  39 2.62  75 2.63  29 2.74   5 2.75   9 2.75  10 2.78  15 2.78  27 2.86
                            12 2.91
   8  0.372  0.952  0.414-  52 2.54  43 2.58  61 2.71  13 2.76  27 2.78  14 2.79  10 2.81  11 2.83
                             6 2.84
   9  0.870  0.204  0.407-  75 2.61  60 2.65   7 2.75  22 2.76   4 2.76  17 2.77  15 2.80   6 2.85
                            10 2.90
  10  0.126  0.207  0.413-  39 2.63  43 2.65  22 2.72  13 2.75   7 2.78   5 2.79   8 2.81   9 2.90
                             6 2.93
  11  0.625  0.950  0.412-  61 2.66  12 2.72  19 2.74  13 2.78   4 2.80   1 2.81  27 2.82   8 2.83
                            17 2.84
  12  0.868  0.708  0.412-  29 2.68  33 2.69   5 2.72  11 2.72  16 2.76   4 2.81  27 2.85   1 2.85
                             7 2.91
  13  0.376  0.196  0.415-  43 2.64  19 2.74  10 2.75   3 2.76   8 2.76  11 2.78  17 2.81  25 2.84
                             5 3.01
  14  0.369  0.705  0.407-  44 2.56  52 2.62   6 2.75  27 2.77   8 2.79  15 2.83  30 2.83  25 2.84
                            16 2.84
  15  0.621  0.454  0.412-  44 2.59  75 2.60  18 2.76  27 2.77   7 2.78  17 2.80   9 2.80  14 2.83
                            25 2.86
  16  0.116  0.705  0.410-  33 2.64  30 2.69   5 2.75  12 2.76   6 2.76   4 2.80  25 2.82  14 2.84
                             2 2.91
  17  0.622  0.204  0.410-  60 2.69  18 2.74  19 2.77   9 2.77   4 2.78  15 2.80  13 2.81  25 2.84
                            11 2.84
  18  0.536  0.373  0.310-  67 2.53  68 2.63  26 2.68  17 2.74  15 2.76  44 2.77  60 2.78  25 2.78
                            75 2.84  30 2.87  19 2.90   3 2.97
  19  0.531  0.117  0.311-  80 2.52  68 2.54  59 2.57  43 2.68  13 2.74  11 2.74  61 2.75  17 2.77
                             1 2.79   3 2.81  60 2.88  18 2.90
  20  0.557  0.109  0.059-  37 2.52  48 2.53  57 2.55  62 2.63  34 2.71  63 2.75  56 2.89  45 3.25

  21  0.093  0.426  0.123-  47 2.48  40 2.50  36 2.53  70 2.60  42 2.61  69 2.66  31 2.74  57 2.74
                            64 2.76  50 2.79
  22  0.051  0.125  0.310-  77 2.51  65 2.53  55 2.56  43 2.69  39 2.71   6 2.71  10 2.72   9 2.76
                            52 2.78  75 2.95   2 2.97  60 2.99  31 3.30
  23  0.024  0.112  0.042-  40 2.53  41 2.56  70 2.59  62 2.65  24 2.72  45 2.74  35 2.80  76 2.81
                            53 2.86
  24  0.129  0.948  0.141-  79 2.49  35 2.53  77 2.57  55 2.58  70 2.60  53 2.61  58 2.68  73 2.68
                            23 2.72  66 2.78  38 2.80  41 2.95
  25  0.366  0.453  0.412-   3 2.77  30 2.78  18 2.78  16 2.82  17 2.84  13 2.84  14 2.84   5 2.84
                            15 2.86
  26  0.446  0.559  0.220-  73 2.48  74 2.49  51 2.53  79 2.55  30 2.61  44 2.62  18 2.68  32 2.72
                            78 2.74  67 2.97  58 3.06  68 3.13  64 3.14
  27  0.617  0.702  0.413-  44 2.61  61 2.67  29 2.75  15 2.77  14 2.77   8 2.78  11 2.82  12 2.85
                             7 2.86
  28  0.950  0.757  0.209-  58 2.57  50 2.57  66 2.61  42 2.62  33 2.64   1 2.68  49 2.69   2 2.77
                            64 2.78
  29  0.794  0.614  0.316-  42 2.55  49 2.62  32 2.64  39 2.65  75 2.67  12 2.68  33 2.73   7 2.74
                            27 2.75   1 2.83  61 2.85  44 2.85
  30  0.271  0.617  0.309-  79 2.52  26 2.61  33 2.64  64 2.69  16 2.69   2 2.78  25 2.78   3 2.82
                            14 2.83  18 2.87  44 3.02  52 3.15
  31  0.189  0.266  0.225-  70 2.50  55 2.57  57 2.59  43 2.61  39 2.62  65 2.65   3 2.66  21 2.74
                            64 2.76  42 2.84  80 2.85  68 3.01  22 3.30
  32  0.693  0.549  0.221-  69 2.52  54 2.57  49 2.58  51 2.59  44 2.62  29 2.64  78 2.67  75 2.67
                            42 2.71  26 2.72  67 2.75  65 2.79  50 3.30
  33  0.032  0.626  0.314-  28 2.64  30 2.64  16 2.64  64 2.67  12 2.69   5 2.69  42 2.72  29 2.73
                             2 2.77   1 2.79  39 2.82   3 2.86
  34  0.791  0.861  0.064-  48 2.37  50 2.40  66 2.51  36 2.70  20 2.71  62 2.82  63 2.83  35 2.86

  35  0.050  0.852  0.056-  36 2.39  24 2.53  66 2.57  58 2.66  72 2.69  23 2.80  34 2.86  53 2.90
                            62 2.93
  36  0.048  0.640  0.066-  35 2.39  47 2.52  21 2.53  58 2.57  50 2.59  34 2.70  72 2.75
  37  0.628  0.231  0.134-  67 2.48  51 2.49  74 2.50  56 2.50  20 2.52  41 2.53  59 2.53  62 2.56
                            68 2.61  66 2.82
  38  0.378  0.948  0.136-  45 2.38  80 2.45  55 2.46  53 2.47  73 2.51  63 2.51  78 2.52  54 2.58
                            48 2.62  57 2.79  24 2.80  70 2.85
  39  0.029  0.376  0.319-  42 2.61   7 2.62  31 2.62   5 2.62  10 2.63  65 2.64  29 2.65  22 2.71
                             3 2.71  75 2.72  33 2.82  43 3.01
  40  0.980  0.356  0.044-  69 2.33  76 2.41  21 2.50  23 2.53  71 2.54  70 2.64  45 3.11
  41  0.864  0.208  0.134-  77 2.39  76 2.41  69 2.49  67 2.50  37 2.53  23 2.56  65 2.57  62 2.59
                            66 2.61  70 2.67  51 2.84  24 2.95
  42  0.945  0.527  0.221-  50 2.47  29 2.55  65 2.61  21 2.61  39 2.61  28 2.62  69 2.65  32 2.71
                            64 2.71  33 2.72  49 2.75  31 2.84
  43  0.298  0.109  0.320-  55 2.51  52 2.54   8 2.58  31 2.61  80 2.61  13 2.64  10 2.65  19 2.68
                            22 2.69  61 2.71   3 2.75  39 3.01
  44  0.539  0.617  0.319-  14 2.56  15 2.59  27 2.61  32 2.62  26 2.62  78 2.64  75 2.69  18 2.77
                            61 2.82  52 2.83  29 2.85  30 3.02
  45  0.273  0.099  0.052-  38 2.38  53 2.39  70 2.41  57 2.59  63 2.73  23 2.74  40 3.11  20 3.25

  46  0.533  0.620  0.050-  51 2.36  73 2.40  54 2.41  71 2.45  72 2.60  56 2.76  53 2.78  76 2.82
                            63 2.89
  47  0.277  0.422  0.059-  74 2.25  72 2.41  21 2.48  36 2.52  56 2.59  57 2.67
  48  0.621  0.927  0.141-  49 2.29  34 2.37  80 2.44  54 2.48  63 2.51  20 2.53  38 2.62  59 2.63
                            50 2.71
[...]
   -.354E+02 -.192E+02 -.966E+01   0.360E+02 0.199E+02 0.928E+01   -.468E+00 -.718E+00 0.380E+00   -.333E-01 -.598E-01 0.623E-02
   0.994E+00 -.122E+01 -.108E+04   -.892E+00 0.133E+01 0.108E+04   -.118E+00 -.537E-01 0.179E+00   0.599E-02 0.440E-02 0.169E-01
   -.687E+02 0.805E+02 0.217E+04   0.697E+02 -.807E+02 -.216E+04   -.902E+00 0.598E-01 -.310E+01   -.154E-01 0.102E-01 -.108E-03
   0.796E+02 0.323E+02 0.223E+04   -.798E+02 -.336E+02 -.223E+04   0.371E+00 0.133E+01 -.281E+01   0.861E-02 -.389E-02 -.157E-01
   0.114E+03 0.447E+01 0.212E+04   -.113E+03 -.349E+01 -.212E+04   -.111E+01 -.896E+00 -.201E+01   0.699E-02 0.194E-02 -.200E-01
   0.813E+02 0.912E+02 0.119E+04   -.805E+02 -.904E+02 -.119E+04   -.850E+00 -.846E+00 0.593E-01   -.253E-02 -.131E-02 -.150E-01
   -.873E+01 -.112E+03 0.121E+04   0.882E+01 0.111E+03 -.121E+04   -.194E+00 0.555E+00 -.700E+00   0.276E-01 -.478E-02 -.449E-01
   -.717E+02 -.305E+02 -.117E+04   0.719E+02 0.307E+02 0.117E+04   -.919E-01 -.186E+00 0.807E-01   -.421E-01 -.937E-02 0.297E-01
   -.254E+03 -.243E+02 0.237E+04   0.251E+03 0.239E+02 -.237E+04   0.274E+01 0.428E+00 -.419E+01   -.551E-02 -.106E-03 -.146E-01
   -.320E+02 0.736E+02 0.121E+04   0.312E+02 -.732E+02 -.121E+04   0.837E+00 -.535E+00 -.603E+00   -.124E-01 0.107E-01 -.217E-01
   -.107E+03 -.271E+02 0.268E+02   0.106E+03 0.276E+02 -.266E+02   0.344E+00 -.547E+00 -.337E+00   -.429E-02 -.188E-01 -.756E-02
   0.690E+01 -.945E+02 -.121E+04   -.717E+01 0.945E+02 0.120E+04   0.267E+00 0.853E-01 0.358E+00   0.151E-01 0.227E-01 0.808E-02
   0.423E+02 0.144E+02 -.119E+04   -.424E+02 -.146E+02 0.119E+04   0.537E-01 0.252E+00 -.499E+00   0.266E-01 -.674E-01 0.874E-02
   -.834E+02 -.156E+03 0.229E+04   0.813E+02 0.153E+03 -.229E+04   0.206E+01 0.309E+01 -.376E+01   0.216E-02 -.130E-01 -.803E-02
   0.134E+02 -.513E+02 0.264E+04   -.135E+02 0.516E+02 -.263E+04   0.441E-01 -.216E+00 -.304E+01   -.330E-02 0.444E-02 -.103E-01
   0.233E+03 0.980E+02 0.253E+04   -.232E+03 -.956E+02 -.253E+04   -.655E+00 -.241E+01 -.311E+01   0.658E-02 0.280E-02 -.136E-01
   -.111E+03 -.728E+02 0.129E+04   0.110E+03 0.718E+02 -.129E+04   0.963E+00 0.957E+00 0.669E-01   -.147E-01 0.370E-01 -.429E-01
   -.136E+03 0.138E+02 0.310E+02   0.136E+03 -.139E+02 -.310E+02   -.293E-01 -.355E-02 0.733E-01   -.116E-01 0.361E-01 -.460E-01
   -.210E+03 -.158E+02 0.146E+04   0.211E+03 0.165E+02 -.146E+04   -.346E+00 -.829E+00 0.628E-01   -.580E-02 0.113E-01 -.643E-01
   0.650E+01 -.603E+01 0.131E+04   -.632E+01 0.566E+01 -.131E+04   -.137E+00 0.491E+00 -.395E+00   -.385E-02 -.612E-02 -.238E-01
   0.923E+02 0.377E+02 -.139E+04   -.919E+02 -.374E+02 0.139E+04   -.597E+00 -.300E+00 0.334E+00   0.125E-02 0.106E-01 0.206E-01
   0.771E+02 -.441E+02 0.263E+04   -.765E+02 0.445E+02 -.263E+04   -.658E+00 -.462E+00 -.318E+01   0.626E-02 -.764E-02 -.115E-01
   -.717E+02 -.883E+01 0.138E+04   0.718E+02 0.917E+01 -.138E+04   -.992E-01 -.406E+00 -.480E+00   -.142E-01 0.156E-01 -.535E-01
   0.550E+02 -.102E+03 -.248E+02   -.543E+02 0.101E+03 0.252E+02   -.734E+00 0.410E+00 -.459E+00   0.194E-01 0.190E-01 -.322E-01
   0.131E+03 0.938E+02 0.327E+04   -.131E+03 -.923E+02 -.327E+04   0.693E-03 -.149E+01 -.483E+01   0.888E-02 0.274E-02 -.233E-02
   0.371E+02 -.219E+02 0.179E+04   -.374E+02 0.216E+02 -.180E+04   0.264E+00 0.316E+00 0.427E+00   0.202E-01 -.263E-01 -.260E-01
   0.239E+03 -.342E+02 0.132E+04   -.240E+03 0.347E+02 -.132E+04   0.491E+00 -.481E+00 0.647E+00   0.658E-02 -.532E-02 -.524E-01
   0.300E+02 0.118E+03 0.156E+03   -.307E+02 -.118E+03 -.155E+03   0.685E+00 -.485E+00 -.508E+00   -.145E-01 0.224E-01 -.427E-01
   0.105E+02 0.841E+02 -.158E+04   -.101E+02 -.842E+02 0.158E+04   -.461E+00 -.491E-01 0.500E+00   0.180E-01 0.573E-01 0.959E-02
[...]
   -.148E+03 -.417E+02 0.148E+04   0.148E+03 0.421E+02 -.148E+04   0.325E+00 -.376E+00 -.685E+00   -.238E-01 -.134E-01 -.464E-01
   -.808E+02 -.133E+02 0.153E+04   0.814E+02 0.130E+02 -.153E+04   -.574E+00 0.350E+00 -.694E+00   -.772E-03 0.502E-02 -.484E-01
   -.234E+03 -.103E+03 0.295E+04   0.233E+03 0.102E+03 -.294E+04   0.115E+01 0.950E+00 -.332E+01   -.113E-01 -.345E-02 -.189E-01
   0.145E+03 -.764E+02 0.285E+04   -.145E+03 0.766E+02 -.285E+04   0.384E+00 -.145E+00 -.807E+00   0.122E-01 0.876E-02 -.161E-01
   0.420E+02 -.256E+02 0.149E+04   -.417E+02 0.256E+02 -.149E+04   -.328E+00 0.420E-01 0.169E+00   0.890E-02 -.439E-02 -.571E-01
   0.124E+03 0.260E+02 0.137E+04   -.123E+03 -.262E+02 -.137E+04   -.949E+00 0.270E+00 -.850E+00   0.166E-01 -.768E-02 -.275E-01
   -.213E+02 -.345E+02 -.151E+04   0.213E+02 0.348E+02 0.151E+04   0.844E-01 -.273E+00 -.343E-01   -.101E-01 -.206E-01 0.187E-01
   -.271E+02 0.263E+02 0.291E+04   0.275E+02 -.256E+02 -.291E+04   -.339E+00 -.633E+00 -.174E+01   -.659E-03 0.562E-02 -.923E-02
   -.377E+02 0.167E+03 0.159E+02   0.379E+02 -.167E+03 -.153E+02   -.215E+00 0.779E-01 -.691E+00   -.236E-01 0.316E-01 -.112E-01
   -.177E+02 0.545E+02 -.812E+02   0.176E+02 -.536E+02 0.812E+02   0.130E+00 -.889E+00 -.943E-01   0.805E-02 -.871E-02 -.532E-01
   0.163E+03 0.286E+01 -.193E+03   -.163E+03 -.213E+01 0.193E+03   0.170E-01 -.704E+00 -.449E+00   -.150E-01 -.260E-01 -.445E-01
   -.449E+02 -.935E+02 0.560E+02   0.444E+02 0.932E+02 -.559E+02   0.389E+00 0.349E+00 -.116E+00   0.300E-01 0.168E-01 -.514E-01
   0.169E+02 -.121E+02 -.244E+03   -.207E+02 0.152E+02 0.244E+03   0.386E+01 -.318E+01 -.340E+00   0.355E-03 0.196E-02 -.224E-02
   -.140E+02 0.134E+02 -.245E+03   0.179E+02 -.165E+02 0.244E+03   -.387E+01 0.317E+01 0.355E+00   0.108E-02 0.122E-02 -.189E-02
   -.378E+01 0.243E+00 0.244E+01   -.522E-12 0.657E-12 0.333E-11   0.378E+01 -.289E+00 -.160E+01   -.651E-02 0.272E-01 -.869E+00

 POSITION                                       TOTAL-FORCE (eV/Angst)
     13.66494      8.46975      6.70288        -0.000181      0.000751      0.001287
      5.24596      8.46647      6.59327        -0.001072     -0.000219      0.000605
      5.14309      3.52578      6.91437        -0.000536      0.000541     -0.001997
     15.13742      9.30530      8.92271        -0.000147      0.001831      0.001396
      3.81685      4.50743      9.08597        -0.001848     -0.001284      0.000111
      6.68566      9.21480      8.92142        -0.002734     -0.000384     -0.000032
     12.29297      4.34776      9.14996        -0.002657     -0.000402     -0.003492
      9.51683      9.25451      9.11813         0.000697      0.000079     -0.002831
     10.90273      1.98004      8.94855        -0.000608      0.004139     -0.001125
      2.57194      2.01294      9.08175        -0.002030      0.001866     -0.000438
     12.34155      9.23111      9.05667         0.001208      0.000311      0.002259
     13.71681      6.88099      9.07381         0.000855     -0.001664      0.000878
      5.31974      1.90372      9.13641        -0.000642      0.000281      0.001952
      8.09595      6.85357      8.96117         0.000836     -0.001510     -0.002557
      9.51577      4.41174      9.05494         0.003657     -0.003131     -0.003145
      5.25570      6.85044      9.01800        -0.001780      0.000570      0.002674
      8.12897      1.98330      9.01505         0.001412     -0.001258      0.001482
      8.10478      3.62135      6.82127         0.003724      0.000765      0.001984
      6.61962      1.13671      6.85005         0.003102     -0.000928      0.001854
      6.85997      1.05619      1.30452        -0.006610     -0.003770     -0.004904
      3.43490      4.14022      2.70460         0.008124      0.003210     -0.005376
      1.27131      1.21614      6.83076        -0.002042      0.001350     -0.000666
      0.89096      1.08547      0.91422         0.022785      0.013879     -0.007335
      6.76854      9.20926      3.10248         0.017863      0.013820      0.004807
      6.65709      4.40777      9.06333        -0.000147     -0.000973      0.001762
      8.14659      5.43358      4.84371        -0.008130      0.018857      0.007409
     10.86539      6.82645      9.08340        -0.000904     -0.000287     -0.000473
     14.90317      7.35364      4.60198         0.005169     -0.001577     -0.009567
     12.36289      5.97138      6.94501        -0.002679     -0.006353      0.003538
      6.50019      5.99827      6.78844        -0.001408      0.000377     -0.000413
      3.61430      2.58306      4.95012         0.003733      0.009107     -0.019692
     10.86385      5.33986      4.86887        -0.005019     -0.004287      0.005870
      3.86544      6.08172      6.90625        -0.001040     -0.001950     -0.001953
     13.70592      8.36565      1.41581        -0.007477     -0.009437      0.003784
      5.33677      8.27602      1.23892        -0.006466     -0.013134     -0.042015
      4.13554      6.22470      1.46246        -0.001188      0.012785      0.023511
      8.34268      2.24715      2.95426        -0.002966     -0.002724      0.001794
      9.56642      9.21763      2.98551        -0.001380     -0.003253     -0.011467
      2.43510      3.65817      7.02860        -0.000750      0.000179     -0.003702
     12.99964      3.45759      0.96035         0.004443      0.008848      0.000714
     10.86191      2.01860      2.94877         0.003740      0.008594     -0.002991
     13.56226      5.11862      4.86453        -0.002796      0.003764     -0.006722
      3.95297      1.05543      7.03811        -0.003485     -0.003184      0.000861
      9.51196      5.99698      7.00959        -0.002370      0.004447     -0.001054
      3.61805      0.95781      1.13737         0.005090     -0.008394     -0.005518
      9.46777      6.02936      1.09765        -0.016006     -0.003989      0.037444
      5.47508      4.09678      1.29215         0.011984     -0.014556      0.000022
     12.17188      9.01006      3.09748         0.007729      0.001609     -0.007749
     12.23201      7.52981      4.84967        -0.002301     -0.034649     -0.008070
     13.20191      6.51639      2.86005         0.009344     -0.001167     -0.009351
      9.43936      4.48143      2.88198         0.029910      0.014681     -0.009173
      8.31694      8.56257      6.98984         0.000193     -0.002835     -0.001441
      8.21587      8.51474      1.04613         0.019361     -0.010596      0.025317
     10.79730      6.95699      2.87721        -0.013168     -0.012772     -0.016632
      2.74728      0.16957      5.01634         0.005848     -0.003090     -0.001204
      8.01211      3.68639      0.93635         0.015922      0.007220      0.010535
      5.15117      2.01811      2.93976         0.000408     -0.003926      0.007650
      5.82064      6.71680      3.33353         0.003039     -0.004471      0.011783
      8.08961      0.55272      4.82086        -0.011493     -0.000927      0.000286
      9.50341      1.22172      6.83170        -0.000240     -0.000296     -0.000452
[...]
      6.61860      2.70072      4.85414         0.004931      0.007066      0.001546
     12.00438      4.22973      2.91463        -0.007835     -0.005715      0.003970
      2.29947      1.81745      2.96062         0.009054      0.001514     -0.006447
     11.89741      5.74769      1.03654        -0.008859      0.012226      0.000431
      6.86693      6.06581      1.23796         0.028107     -0.010665      0.002307
      8.32773      7.03578      2.95620         0.007566      0.005610     -0.024338
      6.88302      4.26924      3.03792        -0.005972     -0.008320     -0.001582
     10.93509      3.71123      6.98872         0.001204      0.003823      0.011093
     10.59153      3.44288      1.02771        -0.009100      0.017683      0.004381
     10.97701      0.65866      4.91478        -0.023155     -0.004086     -0.011559
      9.65018      7.71810      5.00765         0.010157     -0.004271     -0.011179
      7.13050      7.75542      5.09564        -0.013188      0.029902      0.001565
      5.25728      0.25492      4.92126        -0.002311     -0.001544     -0.004718
      1.03815      0.48254     11.85950        -0.011677     -0.004996      0.033670
      1.61891      0.00522     11.80641        -0.007079     -0.005205      0.025736
    total drift:                               -0.011354     -0.018505     -0.022619

  FREE ENERGIE OF THE ION-ELECTRON SYSTEM (eV)
  free  energy   TOTEN  =      -504.62422995 eV

  energy  without entropy=     -504.65233678  energy(sigma->0) =     -504.63359889

 d Force = 0.1260044E-03[ 0.118E-03, 0.134E-03]  d Energy = 0.1340320E-03-0.803E-05
 d Force = 0.9746867E+00[ 0.974E+00, 0.975E+00]  d Ewald  = 0.9746871E+00-0.472E-06

 NEB: the previous image is higher in energy: T
 NEB: the next image is higher in energy    : T
 NEB: image is at an extrema
 NEB: diff energy (min, max):     0.002344    0.002377

 NEB: Tangent
      0.00068      0.00016      0.00127
     -0.00271     -0.00152     -0.00284
      0.00077     -0.00029      0.00057
      0.00574     -0.00257     -0.00006
      0.00295     -0.00087      0.00047
      0.00142     -0.00622     -0.00370
      0.00155     -0.00011      0.00004
     -0.00236     -0.00121      0.00234
      0.00520     -0.00381      0.00057
     -0.00007     -0.00268      0.00232
      0.00146      0.00024      0.00069
      0.00025     -0.00164      0.00049
      0.00046     -0.00145      0.00030
      0.00221      0.00105      0.00081
      0.00063     -0.00108      0.00067
      0.00306     -0.00029     -0.00020
      0.00161     -0.00151     -0.00017
      0.00032     -0.00043      0.00070
      0.00010     -0.00047      0.00017
      0.00000      0.00000      0.00000
      0.00000      0.00000      0.00000
      0.00234     -0.00085      0.00049
      0.00000      0.00000      0.00000
      0.00000      0.00000      0.00000
      0.00189     -0.00065     -0.00104
      0.00000      0.00000      0.00000
      0.00156     -0.00127     -0.00059
      0.00000      0.00000      0.00000
      0.00125      0.00027     -0.00032
      0.00064      0.00001      0.00022
      0.00000      0.00000      0.00000
      0.00000      0.00000      0.00000
      0.00051     -0.00100      0.00115
      0.00000      0.00000      0.00000
      0.00000      0.00000      0.00000
      0.00000      0.00000      0.00000
      0.00000      0.00000      0.00000
      0.00000      0.00000      0.00000
      0.00246     -0.00224      0.00306
      0.00000      0.00000      0.00000
      0.00000      0.00000      0.00000
      0.00000      0.00000      0.00000
      0.00183      0.00263      0.00160
      0.00078     -0.00581      0.00044
      0.00000      0.00000      0.00000
      0.00000      0.00000      0.00000
      0.00000      0.00000      0.00000
      0.00000      0.00000      0.00000
      0.00000      0.00000      0.00000
      0.00000      0.00000      0.00000
      0.00000      0.00000      0.00000
      0.00497      0.00045     -0.00068
      0.00000      0.00000      0.00000
      0.00000      0.00000      0.00000
      0.00000      0.00000      0.00000
      0.00000      0.00000      0.00000
      0.00000      0.00000      0.00000
      0.00000      0.00000      0.00000
      0.00000      0.00000      0.00000
      0.00078      0.00026      0.00069
[...]
      0.00000      0.00000      0.00000
      0.00000      0.00000      0.00000
      0.00000      0.00000      0.00000
      0.00000      0.00000      0.00000
      0.00000      0.00000      0.00000
      0.00000      0.00000      0.00000
      0.00000      0.00000      0.00000
      0.00165     -0.00075      0.00268
      0.00000      0.00000      0.00000
      0.00000      0.00000      0.00000
      0.00000      0.00000      0.00000
      0.00000      0.00000      0.00000
      0.00000      0.00000      0.00000
      0.36884      0.54466      0.21745
      0.38922      0.57732      0.18674

 NEB: forces: par spring, perp REAL, dneb     0.005538    0.050192    0.000000
 NEB: distance to prev, next image, angle between     0.424122    0.423014  161.229809
 NEB: projections on to tangent (spring, REAL)    -0.005538   -0.000744

 stress matrix after NEB project (eV)
   -105.96073      5.99792     -0.29719
      5.99792   -112.56613     -0.11204
     -0.29719     -0.11204     -0.69493
  FORCES: max atom, RMS     0.036100    0.005576
  FORCE total and by dimension    0.050497    0.032627
  Stress total and by dimension  154.827143  112.566129
 Quasi-Newton relaxation of ions (Broydens 2nd method)
  g(Force)  = 0.677E-03   g(Stress)= 0.000E+00

 retain information from N=  7 steps
 eigenvalues of (default step * inverse Hessian matrix)
  average eigenvalue of G=   2.1956
 eigenvalue spectrum of G is  5.6789  5.6789  2.5799  0.2993  0.6392  0.4623  0.0310

 reached required accuracy - stopping structural energy minimisation