 vasp.5.4.4.18Apr17-6-g9f103f2a35 (build Nov 30 2020 22:55:02) complex

 executed on             LinuxIFC date 2021.11.25  12:50:51

 INCAR:
 POTCAR:    PAW_PBE Pt 04Feb2005
 POTCAR:    PAW_PBE H 15Jun2001

 POTCAR:    PAW_PBE Pt 04Feb2005
   VRHFIN =Pt: s1d9

   TITEL  = PAW_PBE Pt 04Feb2005
   POMASS =  195.080; ZVAL   =   10.000    mass and valenz
   ENMAX  =  230.283; ENMIN  =  172.712 eV

 POTCAR:    PAW_PBE H 15Jun2001
   VRHFIN =H: ultrasoft test

   TITEL  = PAW_PBE H 15Jun2001
   POMASS =    1.000; ZVAL   =    1.000    mass and valenz
   ENMAX  =  250.000; ENMIN  =  200.000 eV

 Optimization of the real space projectors (new method)

 maximal supplied QI-value         = 14.36
 optimisation between [QCUT,QGAM] = [ 11.92, 23.98] = [ 39.79,161.09] Ry
 Optimized for a Real-space Cutoff    1.49 Angstroem

   l    n(q)    QCUT    max X(q) W(low)/X(q) W(high)/X(q)  e(spline)
   2     10    11.920    66.195    0.79E-04    0.18E-03    0.24E-06
   2     10    11.920    64.643    0.81E-04    0.19E-03    0.24E-06
   0     11    11.920    95.520    0.28E-04    0.54E-04    0.18E-06
   0     11    11.920    63.403    0.27E-04    0.52E-04    0.17E-06
   1     10    11.920    19.961    0.18E-04    0.11E-03    0.23E-06
   1     10    11.920    13.289    0.25E-04    0.87E-04    0.19E-06
 Optimization of the real space projectors (new method)

 maximal supplied QI-value         = 34.20
 optimisation between [QCUT,QGAM] = [ 11.97, 23.94] = [ 40.13,160.53] Ry
 Optimized for a Real-space Cutoff    1.18 Angstroem

   l    n(q)    QCUT    max X(q) W(low)/X(q) W(high)/X(q)  e(spline)
   0      8    11.971    19.460    0.15E-03    0.31E-03    0.25E-06
   0      8    11.971    12.209    0.13E-03    0.29E-03    0.25E-06
   1      8    11.971     4.655    0.22E-03    0.24E-03    0.21E-06
  PAW_PBE Pt 04Feb2005                  :
  PAW_PBE H 15Jun2001                   :

 POSCAR: Pt111
  positions in cartesian coordinates
 exchange correlation table for  LEXCH =        8
   RHO(1)=    0.500       N(1)  =     2000
   RHO(2)=  100.500       N(2)  =     4000

 ion  position               nearest neighbor table
   1  0.785  0.869  0.327-  71 2.74  20 2.74  55 2.74  35 2.79  34 2.79  27 2.79  43 2.81  72 2.81
                             2 2.81   3 2.81  73 2.81  56 2.81
   2  0.035  0.869  0.327-  65 2.74  68 2.74  55 2.74  39 2.77  29 2.79  27 2.79  23 2.80  47 2.80
                             1 2.81   3 2.81  72 2.81  57 2.81
   3  0.035  0.619  0.326-  55 2.73  76 2.74  12 2.74  39 2.78  28 2.78  35 2.79  15 2.80  56 2.81
                             9 2.81   2 2.81   1 2.81  57 2.81
   4  0.786  0.868  0.023-  21 2.78  78 2.79  19 2.79  44 2.80   6 2.80  75 2.80  58 2.80  74 2.81
                             5 2.81
   5  0.036  0.868  0.023-  49 2.78  70 2.78  78 2.79  48 2.80   6 2.80  59 2.80  24 2.80  74 2.81
                             4 2.81
   6  0.036  0.618  0.023-  46 2.78  70 2.79  21 2.79   5 2.80  59 2.80   4 2.80  10 2.81  58 2.81
                            18 2.81
   7  0.619  0.202  0.126-  71 2.73  80 2.74  79 2.74  42 2.78  44 2.79  74 2.79  11 2.80  53 2.80
                            61 2.81  78 2.81  19 2.81  22 2.81
   8  0.369  0.951  0.126-  69 2.74  26 2.74  66 2.74  24 2.78  16 2.79  75 2.79  25 2.80  60 2.80
                            49 2.81  19 2.81  54 2.81  53 2.81
   9  0.035  0.369  0.326-  77 2.73  12 2.74  62 2.74  30 2.77  28 2.78  33 2.79  15 2.80  56 2.80
                            47 2.80  13 2.81   3 2.81  63 2.81
  10  0.036  0.369  0.023-  54 2.78  46 2.78  45 2.79  58 2.80   6 2.81  64 2.81  18 2.81  48 2.81
                            16 2.81
  11  0.869  0.202  0.126-  77 2.73  65 2.74  79 2.75  64 2.78  74 2.78  48 2.79   7 2.80  78 2.80
                            45 2.81  54 2.81  22 2.81  49 2.81
  12  0.952  0.535  0.226-  21 2.73  45 2.74   9 2.74   3 2.74  46 2.74  56 2.75  62 2.80  55 2.81
                            77 2.81  20 2.81  76 2.81  67 2.81
  13  0.285  0.119  0.326-  26 2.73  62 2.74  69 2.74  31 2.77  36 2.78  33 2.79  73 2.80  15 2.80
                            47 2.80   9 2.81  43 2.81  23 2.81
  14  0.535  0.619  0.328-  51 2.75  66 2.76  67 2.76  63 2.80  23 2.80  57 2.80  41 2.80  56 2.81
                            73 2.81  52 2.84  38 2.85  37 2.85
  15  0.285  0.369  0.326-  76 2.73  80 2.74  62 2.74  50 2.76  36 2.79  28 2.80   9 2.80   3 2.80
                            13 2.80  43 2.80  57 2.81  41 2.81
  16  0.287  0.118  0.023-  54 2.78  53 2.78   8 2.79  75 2.80  44 2.81  24 2.81  18 2.81  48 2.81
                            10 2.81
  17  0.536  0.618  0.023-  25 2.78  22 2.78  60 2.79  64 2.80  24 2.81  58 2.81  42 2.81  59 2.81
                            75 2.81
  18  0.286  0.368  0.023-  53 2.78  46 2.79  61 2.79  59 2.80  42 2.80   6 2.81  44 2.81  10 2.81
                            16 2.81
  19  0.619  0.952  0.126-  69 2.74  71 2.74  20 2.74  75 2.79  44 2.79   4 2.79  21 2.80  25 2.81
                            53 2.81  78 2.81   7 2.81   8 2.81
  20  0.702  0.785  0.226-  56 2.74  25 2.74   1 2.74  19 2.74  73 2.74  21 2.74  67 2.81  66 2.81
                            12 2.81  69 2.81  55 2.81  71 2.81
  21  0.869  0.702  0.126-  12 2.73  55 2.74  20 2.74   4 2.78  58 2.78   6 2.79  19 2.80  46 2.81
                            78 2.81  25 2.81  70 2.81  45 2.81
  22  0.619  0.452  0.126-  79 2.73  67 2.74  51 2.75  17 2.78  42 2.79  64 2.79  61 2.80  60 2.80
                            45 2.80  25 2.80  11 2.81   7 2.81
  23  0.285  0.868  0.328-  68 2.74  66 2.74  26 2.76  31 2.78  29 2.79  14 2.80  57 2.80   2 2.80
                            73 2.80  37 2.81  13 2.81  47 2.81
  24  0.286  0.868  0.023-   8 2.78  49 2.79  60 2.79  59 2.80   5 2.80  17 2.81  16 2.81  48 2.81
                            75 2.81
  25  0.619  0.702  0.126-  20 2.74  67 2.74  66 2.75  17 2.78  75 2.79  58 2.79   8 2.80  45 2.80
                            60 2.80  22 2.80  19 2.81  21 2.81
  26  0.202  0.035  0.226-  13 2.73  49 2.73   8 2.74  47 2.74  54 2.74  23 2.76  62 2.80  65 2.80
                            68 2.80  69 2.81  66 2.81  77 2.81
  27  0.868  0.953  0.430-  39 2.77  40 2.78  72 2.79   1 2.79   2 2.79  29 2.79  32 2.79  35 2.80
                            34 2.80
  28  0.116  0.453  0.429-  50 2.74  30 2.76   9 2.78   3 2.78  35 2.79  15 2.80  33 2.80  39 2.82
                            36 2.82
  29  0.117  0.954  0.430-  37 2.77  32 2.78  47 2.79  23 2.79   2 2.79  27 2.79  33 2.79  39 2.81
                            31 2.81
  30  0.871  0.451  0.430-  28 2.76   9 2.77  63 2.78  33 2.78  56 2.79  38 2.81  32 2.81  35 2.82
                            52 2.83
  31  0.366  0.956  0.430-  36 2.76  13 2.77  23 2.78  33 2.78  73 2.79  37 2.81  29 2.81  34 2.82
                            52 2.83
  32  0.869  0.202  0.430-  38 2.77  29 2.78  63 2.78  72 2.79  47 2.79  33 2.79  27 2.79  30 2.81
                            40 2.81
  33  0.117  0.202  0.429-  30 2.78  31 2.78  47 2.78   9 2.79  13 2.79  32 2.79  29 2.79  28 2.80
                            36 2.80
  34  0.618  0.954  0.430-  52 2.74  40 2.76  43 2.78  36 2.79   1 2.79  73 2.79  27 2.80  31 2.82
                            35 2.82
  35  0.870  0.703  0.430-  52 2.74  39 2.76   3 2.79   1 2.79  28 2.79  56 2.79  27 2.80  30 2.82
                            34 2.82
  36  0.368  0.201  0.429-  50 2.74  31 2.76  13 2.78  43 2.79  34 2.79  15 2.79  33 2.80  40 2.82
                            28 2.82
  37  0.363  0.707  0.434-  81 1.93  82 1.95  29 2.77  31 2.81  39 2.81  23 2.81  57 2.83  14 2.85
                            38 2.91  52 2.91  50 2.92
  38  0.622  0.448  0.434-  81 1.93  82 1.96  32 2.77  30 2.81  40 2.81  63 2.81  41 2.83  14 2.85
                            37 2.91  52 2.91  50 2.92
  39  0.114  0.705  0.430-  35 2.76  27 2.77   2 2.77   3 2.78  57 2.79  29 2.81  37 2.81  28 2.82
                            50 2.84
  40  0.620  0.199  0.430-  34 2.76  27 2.78  72 2.78  43 2.78  41 2.78  32 2.81  38 2.81  36 2.82
                            50 2.84
  41  0.535  0.370  0.328-  51 2.74  79 2.76  80 2.76  40 2.78  57 2.80  63 2.80  14 2.80  43 2.81
                            15 2.81  72 2.81  50 2.82  38 2.83
  42  0.536  0.368  0.023-   7 2.78  22 2.79  61 2.79  64 2.80  74 2.80  18 2.80  44 2.80  17 2.81
                            59 2.81
  43  0.535  0.119  0.326-  80 2.73  71 2.74  69 2.74  40 2.78  34 2.78  36 2.79  15 2.80  73 2.81
                             1 2.81  72 2.81  41 2.81  13 2.81
  44  0.537  0.118  0.023-  19 2.79  53 2.79   7 2.79   4 2.80  74 2.80  42 2.80  75 2.80  16 2.81
                            18 2.81
  45  0.868  0.452  0.126-  77 2.73  12 2.74  67 2.75  58 2.78  64 2.78  10 2.79  25 2.80  22 2.80
                            11 2.81  21 2.81  54 2.81  46 2.81
  46  0.119  0.452  0.126-  62 2.73  12 2.74  76 2.74   6 2.78  10 2.78  18 2.79  70 2.80  21 2.81
                            53 2.81  61 2.81  54 2.81  45 2.81
  47  0.035  0.119  0.327-  65 2.73  77 2.74  26 2.74  33 2.78  29 2.79  32 2.79   2 2.80  72 2.80
                            13 2.80   9 2.80  23 2.81  63 2.82
  48  0.036  0.118  0.023-  54 2.77  49 2.79  11 2.79   5 2.80  74 2.80  24 2.81  64 2.81  16 2.81
                            10 2.81
  49  0.119  0.952  0.126-  26 2.73  68 2.74  65 2.74   5 2.78  48 2.79  24 2.79  70 2.80  78 2.80
                             8 2.81  60 2.81  54 2.81  11 2.81
  50  0.363  0.447  0.431-  81 1.75  36 2.74  28 2.74  15 2.76  57 2.82  41 2.82  40 2.84  39 2.84
                            37 2.92  38 2.92
  51  0.452  0.536  0.227-  41 2.74  57 2.74  60 2.74  61 2.75  22 2.75  14 2.75  68 2.80  66 2.80
                            67 2.80  79 2.80  76 2.80  80 2.80
  52  0.623  0.708  0.431-  82 1.73  35 2.74  34 2.74  73 2.79  56 2.79  30 2.83  31 2.83  14 2.84
                            38 2.91  37 2.91
  53  0.369  0.202  0.126-  69 2.73  62 2.74  80 2.74  18 2.78  16 2.78  44 2.79   7 2.80  19 2.81
                            46 2.81  61 2.81  54 2.81   8 2.81
  54  0.119  0.202  0.125-  62 2.74  26 2.74  77 2.75  48 2.77  10 2.78  16 2.78  11 2.81  49 2.81
                            45 2.81  46 2.81  53 2.81   8 2.81
  55  0.952  0.786  0.226-   3 2.73  78 2.74   2 2.74  21 2.74  70 2.74   1 2.74  12 2.81  71 2.81
                            65 2.81  76 2.81  20 2.81  68 2.81
  56  0.785  0.619  0.327-  67 2.73  20 2.74  12 2.75  52 2.79  30 2.79  35 2.79   9 2.80  63 2.80
                            14 2.81   3 2.81   1 2.81  73 2.81
  57  0.285  0.619  0.328-  51 2.74  68 2.75  76 2.76  39 2.79  41 2.80  23 2.80  14 2.80   3 2.81
                            15 2.81   2 2.81  50 2.82  37 2.83
  58  0.786  0.618  0.023-  45 2.78  21 2.78  25 2.79  10 2.80   4 2.80   6 2.81  75 2.81  17 2.81
                            64 2.81
  59  0.286  0.618  0.023-  61 2.78  70 2.79  60 2.79  18 2.80   5 2.80  24 2.80   6 2.80  17 2.81
                            42 2.81
  60  0.369  0.702  0.126-  66 2.74  68 2.74  51 2.74  59 2.79  17 2.79  24 2.79  61 2.80  22 2.80
                             8 2.80  25 2.80  49 2.81  70 2.81
[...]
     12.289855  9.275516  9.454959            0           0           0
     13.701852  6.829959  9.455134            0           0           0
      5.254747  1.953219  9.447470            0           0           0
      8.044621  6.874246  9.542004            0           0           0
      9.500092  4.354984  9.541075            0           0           0
      5.237106  6.848667  9.452777            0           0           0
      8.073278  1.935515  9.453203            0           0           0
      8.073654  3.592897  7.215828            0           0           0
      8.085430  3.577814  0.508620            0           0           0
      6.672207  1.159518  7.181958            0           0           0
      6.684124  1.147965  0.502955            0           0           0
     12.282667  4.395285  2.772588            0           0           0
      3.873596  4.394734  2.767942            0           0           0
      1.060028  1.157204  7.183138            0           0           0
      1.068702  1.147784  0.504953            0           0           0
      6.677163  9.248051  2.772639            0           0           0
      6.579859  4.348301  9.487463            0           0           0
      8.077803  5.205690  4.999213            0           0           0
     10.958663  6.876475  9.486624            0           0           0
      5.277628  1.962280  2.767691            0           0           0
      2.466180  1.961067  2.759036            0           0           0
     15.092518  7.635141  4.979677            0           0           0
     12.283728  6.015574  7.188854            0           0           0
      6.675959  6.014123  7.215659            0           0           0
     12.294035  6.008877  0.504919            0           0           0
      6.681554  6.009500  0.508749            0           0           0
      8.082749  6.819530  2.778897            0           0           0
[...]
      6.679433  7.631950  4.986543            0           0           0
      5.271399  0.347971  4.973723            0           0           0
      5.275611  6.823485  2.773460            0           0           0
      8.077977  0.346437  4.979858            0           0           0
      9.479217  1.160368  7.186261            0           0           0
     10.878756  8.449613  7.188579            0           0           0
      9.487756  1.149888  0.504732            0           0           0
     10.891247  8.438936  0.504554            0           0           0
      5.275119  5.205764  4.979267            0           0           0
     12.284447  2.775458  4.975935            0           0           0
     15.096145  9.252078  2.772317            0           0           0
      9.480124  2.780763  4.986373            0           0           0
      6.676177  2.777748  4.979760            0           0           0
      7.911103  5.120155 10.328042     0.291809    0.168569    0.263285
      9.658149  6.130899 10.344417    -0.548620   -0.315863    0.645260

[...]

   5 f  =    8.634085 THz    54.249553 2PiTHz  288.002050 cm-1    35.707716 meV
             X         Y         Z           dx          dy          dz
     13.687457  8.448503  7.187987            0           0           0
      5.271751  8.448021  7.185599            0           0           0
      3.867960  6.016570  7.181963            0           0           0
     13.695720  8.438295  0.505804            0           0           0
      5.280258  8.438054  0.504305            0           0           0
      3.877205  6.010714  0.502571            0           0           0
      8.081470  1.962574  2.773577            0           0           0
      9.482997  9.244411  2.772551            0           0           0
      2.461576  3.586691  7.179134            0           0           0
      2.472936  3.582201  0.503927            0           0           0
     10.883023  1.963839  2.772447            0           0           0
     13.690493  5.204470  4.973605            0           0           0
      3.863838  1.157001  7.179697            0           0           0
      9.477336  6.017266  7.225991            0           0           0
      5.264713  3.585707  7.179573            0           0           0
      3.878492  1.147219  0.504465            0           0           0
      9.487972  6.008537  0.510783            0           0           0
      5.281200  3.580443  0.506661            0           0           0
     12.289941  9.250520  2.772001            0           0           0
     12.284055  7.633513  4.982451            0           0           0
     13.691971  6.823164  2.771493            0           0           0
      9.482019  4.395349  2.779079            0           0           0
      8.074129  8.436634  7.205236            0           0           0
      8.084630  8.437272  0.505561            0           0           0
     10.885776  6.821991  2.774858            0           0           0
      2.465560  0.344490  4.975831            0           0           0
     15.091546  9.262422  9.456223            0           0           0
      3.842921  4.398040  9.447279            0           0           0
      6.661850  9.269419  9.457868            0           0           0
     12.303934  4.383040  9.450663            0           0           0
      9.471244  9.288616  9.451267            0           0           0
     10.882742  1.959446  9.458249            0           0           0
      2.452471  1.966133  9.448748            0           0           0
     12.289855  9.275516  9.454959            0           0           0
     13.701852  6.829959  9.455134            0           0           0
      5.254747  1.953219  9.447470            0           0           0
      8.044621  6.874246  9.542004            0           0           0
      9.500092  4.354984  9.541075            0           0           0
      5.237106  6.848667  9.452777            0           0           0
      8.073278  1.935515  9.453203            0           0           0
      8.073654  3.592897  7.215828            0           0           0
      8.085430  3.577814  0.508620            0           0           0
      6.672207  1.159518  7.181958            0           0           0
      6.684124  1.147965  0.502955            0           0           0
     12.282667  4.395285  2.772588            0           0           0
      3.873596  4.394734  2.767942            0           0           0
      1.060028  1.157204  7.183138            0           0           0
      1.068702  1.147784  0.504953            0           0           0
      6.677163  9.248051  2.772639            0           0           0
      6.579859  4.348301  9.487463            0           0           0
      8.077803  5.205690  4.999213            0           0           0
     10.958663  6.876475  9.486624            0           0           0
      5.277628  1.962280  2.767691            0           0           0
      2.466180  1.961067  2.759036            0           0           0
     15.092518  7.635141  4.979677            0           0           0
     12.283728  6.015574  7.188854            0           0           0
      6.675959  6.014123  7.215659            0           0           0
     12.294035  6.008877  0.504919            0           0           0
      6.681554  6.009500  0.508749            0           0           0
      8.082749  6.819530  2.778897            0           0           0
[...]
      6.679433  7.631950  4.986543            0           0           0
      5.271399  0.347971  4.973723            0           0           0
      5.275611  6.823485  2.773460            0           0           0
      8.077977  0.346437  4.979858            0           0           0
      9.479217  1.160368  7.186261            0           0           0
     10.878756  8.449613  7.188579            0           0           0
      9.487756  1.149888  0.504732            0           0           0
     10.891247  8.438936  0.504554            0           0           0
      5.275119  5.205764  4.979267            0           0           0
     12.284447  2.775458  4.975935            0           0           0
     15.096145  9.252078  2.772317            0           0           0
      9.480124  2.780763  4.986373            0           0           0
      6.676177  2.777748  4.979760            0           0           0
      7.911103  5.120155 10.328042     0.510522   -0.859578   -0.011025
      9.658149  6.130899 10.344417     0.014128   -0.012426    0.004110

   6 f/i=    7.702771 THz    48.397940 2PiTHz  256.936789 cm-1    31.856113 meV
             X         Y         Z           dx          dy          dz
     13.687457  8.448503  7.187987            0           0           0
      5.271751  8.448021  7.185599            0           0           0
      3.867960  6.016570  7.181963            0           0           0
     13.695720  8.438295  0.505804            0           0           0
      5.280258  8.438054  0.504305            0           0           0
      3.877205  6.010714  0.502571            0           0           0
      8.081470  1.962574  2.773577            0           0           0
      9.482997  9.244411  2.772551            0           0           0
      2.461576  3.586691  7.179134            0           0           0
      2.472936  3.582201  0.503927            0           0           0
     10.883023  1.963839  2.772447            0           0           0
     13.690493  5.204470  4.973605            0           0           0
      3.863838  1.157001  7.179697            0           0           0
      9.477336  6.017266  7.225991            0           0           0
      5.264713  3.585707  7.179573            0           0           0
      3.878492  1.147219  0.504465            0           0           0
      9.487972  6.008537  0.510783            0           0           0
      5.281200  3.580443  0.506661            0           0           0
     12.289941  9.250520  2.772001            0           0           0
     12.284055  7.633513  4.982451            0           0           0
     13.691971  6.823164  2.771493            0           0           0
      9.482019  4.395349  2.779079            0           0           0
      8.074129  8.436634  7.205236            0           0           0
      8.084630  8.437272  0.505561            0           0           0
     10.885776  6.821991  2.774858            0           0           0
      2.465560  0.344490  4.975831            0           0           0
     15.091546  9.262422  9.456223            0           0           0
      3.842921  4.398040  9.447279            0           0           0
      6.661850  9.269419  9.457868            0           0           0
     12.303934  4.383040  9.450663            0           0           0
      9.471244  9.288616  9.451267            0           0           0
     10.882742  1.959446  9.458249            0           0           0
      2.452471  1.966133  9.448748            0           0           0
     12.289855  9.275516  9.454959            0           0           0
     13.701852  6.829959  9.455134            0           0           0
      5.254747  1.953219  9.447470            0           0           0
      8.044621  6.874246  9.542004            0           0           0
      9.500092  4.354984  9.541075            0           0           0
      5.237106  6.848667  9.452777            0           0           0
      8.073278  1.935515  9.453203            0           0           0
      8.073654  3.592897  7.215828            0           0           0
      8.085430  3.577814  0.508620            0           0           0
      6.672207  1.159518  7.181958            0           0           0
      6.684124  1.147965  0.502955            0           0           0
     12.282667  4.395285  2.772588            0           0           0
      3.873596  4.394734  2.767942            0           0           0
      1.060028  1.157204  7.183138            0           0           0
      1.068702  1.147784  0.504953            0           0           0
      6.677163  9.248051  2.772639            0           0           0
      6.579859  4.348301  9.487463            0           0           0
      8.077803  5.205690  4.999213            0           0           0
     10.958663  6.876475  9.486624            0           0           0
      5.277628  1.962280  2.767691            0           0           0
      2.466180  1.961067  2.759036            0           0           0
     15.092518  7.635141  4.979677            0           0           0
     12.283728  6.015574  7.188854            0           0           0
      6.675959  6.014123  7.215659            0           0           0
     12.294035  6.008877  0.504919            0           0           0
      6.681554  6.009500  0.508749            0           0           0
      8.082749  6.819530  2.778897            0           0           0
[...]
      6.679433  7.631950  4.986543            0           0           0
      5.271399  0.347971  4.973723            0           0           0
      5.275611  6.823485  2.773460            0           0           0
      8.077977  0.346437  4.979858            0           0           0
      9.479217  1.160368  7.186261            0           0           0
     10.878756  8.449613  7.188579            0           0           0
      9.487756  1.149888  0.504732            0           0           0
     10.891247  8.438936  0.504554            0           0           0
      5.275119  5.205764  4.979267            0           0           0
     12.284447  2.775458  4.975935            0           0           0
     15.096145  9.252078  2.772317            0           0           0
      9.480124  2.780763  4.986373            0           0           0
      6.676177  2.777748  4.979760            0           0           0
      7.911103  5.120155 10.328042     0.013288   -0.012656   -0.002255
      9.658149  6.130899 10.344417    -0.487467    0.872876    0.011042

 Finite differences POTIM=  1.500000000000000E-002
  LATTYP: Found a hexagonal cell.
 ALAT       =    11.2227001190
 C/A-ratio  =     1.9603125600

  Lattice vectors:

 A1 = (   5.6113500595,  -9.7191434021,   0.0000000000)
 A2 = ( -11.2227001190,   0.0000000000,   0.0000000000)
 A3 = (   0.0000000000,   0.0000000000, -22.0000000000)

Analysis of symmetry for initial positions (statically):
 Subroutine PRICEL returns:
 Original cell was already a primitive cell.

[...]

The static configuration has the point symmetry C_1 .

Analysis of symmetry for dynamics (positions and initial velocities):
 Subroutine PRICEL returns:
 Original cell was already a primitive cell.

[...]

The dynamic configuration has the point symmetry C_1 .

Analysis of constrained symmetry for selective dynamics:
 Subroutine PRICEL returns:
 Original cell was already a primitive cell.

[...]

The constrained configuration has the point symmetry C_1 .

Analysis of structural, dynamic, and magnetic symmetry:
 Subroutine PRICEL returns:
 Original cell was already a primitive cell.

 Routine SETGRP: Setting up the symmetry group for a
 hexagonal supercell.

 Subroutine GETGRP returns: Found  1 space group operations
 (whereof  1 operations were pure point group operations)
 out of a pool of 24 trial point group operations.

The magnetic configuration has the point symmetry C_1 .

 Subroutine INISYM returns: Found  1 space group operations
 (whereof  1 operations are pure point group operations),
 and found     1 'primitive' translations

 KPOINTS: mesh auto

Automatic generation of k-mesh.
Space group operators:
 irot       det(A)        alpha          n_x          n_y          n_z        tau_x        tau_y        tau_z
    1     1.000000     0.000000     1.000000     0.000000     0.000000     0.000000     0.000000     0.000000

 Subroutine IBZKPT returns following result:

 Found      4 irreducible k-points:

 Following reciprocal coordinates:
            Coordinates               Weight
  0.000000  0.000000  0.000000      1.000000
  0.500000  0.000000  0.000000      1.000000
  0.000000  0.500000  0.000000      1.000000
  0.500000  0.500000  0.000000      1.000000

 Following cartesian coordinates:
            Coordinates               Weight
  0.000000  0.000000  0.000000      1.000000
  0.044553 -0.025722  0.000000      1.000000
  0.000000  0.051445  0.000000      1.000000
  0.044553  0.025722  0.000000      1.000000

 TETIRR: Found     12 inequivalent tetrahedra from       24
 BZINTS: Fermi energy:  2.824455;802.000000 electrons
         Band energy:-365.375678;  BLOECHL correction: -0.547099