 vasp.5.4.4.18Apr17-6-g9f103f2a35 (build Nov 30 2020 22:55:02) complex

 executed on             LinuxIFC date 2021.11.28  13:16:54

 INCAR:
 POTCAR:    PAW_PBE Pt 04Feb2005
 POTCAR:    PAW_PBE H 15Jun2001
 POTCAR:    PAW_PBE Pt 04Feb2005
   VRHFIN =Pt: s1d9

   TITEL  = PAW_PBE Pt 04Feb2005
   POMASS =  195.080; ZVAL   =   10.000    mass and valenz
   ENMAX  =  230.283; ENMIN  =  172.712 eV

 POTCAR:    PAW_PBE H 15Jun2001
   VRHFIN =H: ultrasoft test

   TITEL  = PAW_PBE H 15Jun2001
   POMASS =    1.000; ZVAL   =    1.000    mass and valenz
   ENMAX  =  250.000; ENMIN  =  200.000 eV

 Optimization of the real space projectors (new method)

 maximal supplied QI-value         = 14.36
 optimisation between [QCUT,QGAM] = [ 11.92, 23.98] = [ 39.79,161.09] Ry
 Optimized for a Real-space Cutoff    1.49 Angstroem

   l    n(q)    QCUT    max X(q) W(low)/X(q) W(high)/X(q)  e(spline)
   2     10    11.920    66.195    0.79E-04    0.18E-03    0.24E-06
   2     10    11.920    64.643    0.81E-04    0.19E-03    0.24E-06
   0     11    11.920    95.520    0.28E-04    0.54E-04    0.18E-06
   0     11    11.920    63.403    0.27E-04    0.52E-04    0.17E-06
   1     10    11.920    19.961    0.18E-04    0.11E-03    0.23E-06
   1     10    11.920    13.289    0.25E-04    0.87E-04    0.19E-06
 Optimization of the real space projectors (new method)

 maximal supplied QI-value         = 34.20
 optimisation between [QCUT,QGAM] = [ 11.97, 23.94] = [ 40.13,160.53] Ry
 Optimized for a Real-space Cutoff    1.18 Angstroem

   l    n(q)    QCUT    max X(q) W(low)/X(q) W(high)/X(q)  e(spline)
   0      8    11.971    19.460    0.15E-03    0.31E-03    0.25E-06
   0      8    11.971    12.209    0.13E-03    0.29E-03    0.25E-06
   1      8    11.971     4.655    0.22E-03    0.24E-03    0.21E-06
  PAW_PBE Pt 04Feb2005                  :
  PAW_PBE H 15Jun2001                   :

 POSCAR: Pt111
  positions in direct lattice
  velocities in cartesian coordinates
 exchange correlation table for  LEXCH =        8
   RHO(1)=    0.500       N(1)  =     2000
   RHO(2)=  100.500       N(2)  =     4000

 ion  position               nearest neighbor table
   1  0.785  0.869  0.326-  20 2.75  71 2.76  55 2.76  43 2.80  72 2.80   3 2.80   2 2.80  73 2.81
                            56 2.81  27 2.83  35 2.84  34 2.84
   2  0.035  0.869  0.326-  55 2.76  65 2.76  68 2.76  47 2.80   3 2.80   1 2.80  23 2.80  57 2.81
                            72 2.81  29 2.83  27 2.84  39 2.84
   3  0.035  0.619  0.326-  12 2.75  55 2.76  76 2.76  57 2.80   1 2.80   2 2.80  56 2.81   9 2.81
                            15 2.81  28 2.83  39 2.83  35 2.84
   4  0.786  0.868  0.021-  21 2.79  78 2.79  19 2.79  75 2.81  44 2.81  58 2.81  74 2.81   5 2.81
                             6 2.81
   5  0.036  0.868  0.021-  70 2.79  49 2.79  78 2.79  48 2.81  24 2.81   6 2.81   4 2.81  59 2.81
                            74 2.81
   6  0.036  0.618  0.022-  70 2.79  46 2.79  21 2.79  18 2.80  10 2.81   5 2.81  59 2.81  58 2.81
                             4 2.81
   7  0.619  0.202  0.125-  71 2.73  79 2.73  80 2.74  42 2.79  44 2.79  74 2.79  61 2.80  19 2.80
                            22 2.81  11 2.81  78 2.81  53 2.81
   8  0.369  0.952  0.125-  66 2.73  69 2.73  26 2.74  16 2.79  24 2.79  75 2.79  53 2.80  54 2.81
                            60 2.81  25 2.81  19 2.81  49 2.81
   9  0.035  0.369  0.326-  77 2.75  12 2.76  62 2.76  56 2.80  63 2.80   3 2.81  15 2.81  47 2.81
                            13 2.81  28 2.83  33 2.83  30 2.84
  10  0.036  0.368  0.022-  46 2.79  54 2.79  45 2.79  16 2.81  48 2.81   6 2.81  58 2.81  18 2.81
                            64 2.81
  11  0.869  0.202  0.125-  65 2.73  77 2.73  79 2.73  64 2.79  74 2.79  48 2.79  49 2.80  54 2.80
                            78 2.81  22 2.81  45 2.81   7 2.81
  12  0.952  0.536  0.225-  45 2.73  21 2.73  46 2.74   3 2.75   9 2.76  56 2.76  76 2.80  67 2.80
                            20 2.81  55 2.81  62 2.81  77 2.81
  13  0.285  0.118  0.326-  26 2.75  62 2.76  69 2.76  23 2.80  73 2.80  43 2.81  47 2.81  15 2.81
                             9 2.81  36 2.83  33 2.83  31 2.84
  14  0.535  0.619  0.326-  51 2.75  66 2.76  67 2.76  63 2.80  23 2.80  41 2.81  56 2.81  73 2.81
                            57 2.81  52 2.84  37 2.84  38 2.84
  15  0.285  0.369  0.326-  62 2.75  76 2.76  80 2.76  57 2.80  41 2.81   9 2.81  43 2.81   3 2.81
                            13 2.81  36 2.83  28 2.84  50 2.84
  16  0.286  0.118  0.022-   8 2.79  53 2.79  54 2.79  10 2.81  48 2.81  24 2.81  75 2.81  44 2.81
                            18 2.81
  17  0.536  0.618  0.022-  22 2.79  25 2.79  60 2.79  64 2.80  58 2.80  42 2.81  59 2.81  75 2.81
                            24 2.81
  18  0.286  0.368  0.022-  61 2.79  53 2.79  46 2.79   6 2.80  59 2.81  44 2.81  42 2.81  10 2.81
                            16 2.81
  19  0.619  0.952  0.125-  71 2.73  20 2.73  69 2.74  44 2.79  75 2.79   4 2.79  78 2.80   7 2.80
                            25 2.81  53 2.81  21 2.81   8 2.81
  20  0.702  0.786  0.225-  25 2.73  19 2.73  21 2.74   1 2.75  56 2.76  73 2.76  55 2.80  71 2.80
                            12 2.81  69 2.81  67 2.81  66 2.81
  21  0.869  0.702  0.125-  55 2.73  12 2.73  20 2.74  58 2.79   4 2.79   6 2.79  70 2.80  78 2.80
                            25 2.81  46 2.81  19 2.81  45 2.81
  22  0.619  0.452  0.125-  79 2.73  67 2.73  51 2.73  17 2.79  42 2.79  64 2.79  45 2.81   7 2.81
                            11 2.81  25 2.81  60 2.81  61 2.81
  23  0.285  0.869  0.326-  68 2.75  26 2.76  66 2.76  13 2.80  14 2.80   2 2.80  57 2.81  47 2.81
                            73 2.81  31 2.83  37 2.84  29 2.84
  24  0.286  0.868  0.022-  60 2.79   8 2.79  49 2.79  59 2.80   5 2.81  17 2.81  75 2.81  16 2.81
                            48 2.81
  25  0.619  0.702  0.125-  20 2.73  67 2.73  66 2.74  75 2.79  17 2.79  58 2.79  19 2.81  21 2.81
                             8 2.81  60 2.81  22 2.81  45 2.81
  26  0.202  0.036  0.225-  54 2.73  49 2.73   8 2.74  13 2.75  23 2.76  47 2.76  62 2.80  77 2.80
                            68 2.81  65 2.81  66 2.81  69 2.81
  27  0.868  0.952  0.432-  87 1.85  96 1.85  97 1.85  29 2.80  39 2.81  40 2.81  32 2.81  35 2.81
                            34 2.81   1 2.83  72 2.84   2 2.84
  28  0.118  0.452  0.432-  88 1.85  90 1.85  89 1.85  35 2.80  39 2.81  33 2.81  30 2.81  36 2.81
                            50 2.81   9 2.83   3 2.83  15 2.84
  29  0.118  0.952  0.432-  97 1.85  84 1.85  94 1.85  27 2.80  33 2.80  31 2.81  37 2.81  39 2.81
                            32 2.81   2 2.83  47 2.84  23 2.84
  30  0.868  0.452  0.432-  93 1.85  89 1.85  83 1.85  52 2.80  32 2.80  38 2.80  35 2.81  28 2.81
                            33 2.81  63 2.83  56 2.84   9 2.84
  31  0.368  0.952  0.432-  94 1.85  95 1.85  85 1.85  37 2.80  52 2.80  29 2.81  34 2.81  33 2.81
                            36 2.81  23 2.83  13 2.84  73 2.84
  32  0.868  0.202  0.432-  97 1.85  92 1.85  93 1.85  30 2.80  38 2.80  33 2.80  40 2.81  27 2.81
                            29 2.81  72 2.83  47 2.84  63 2.84
  33  0.118  0.202  0.432-  94 1.85  93 1.85  90 1.85  29 2.80  32 2.80  28 2.81  36 2.81  31 2.81
                            30 2.81  47 2.83   9 2.83  13 2.83
  34  0.618  0.952  0.432-  86 1.85  95 1.85  96 1.86  36 2.80  40 2.80  31 2.81  52 2.81  35 2.81
                            27 2.81  73 2.83  43 2.84   1 2.84
  35  0.868  0.702  0.432-  89 1.85  86 1.85  87 1.86  28 2.80  39 2.80  30 2.81  27 2.81  52 2.81
                            34 2.81  56 2.83   3 2.84   1 2.84
  36  0.368  0.202  0.432-  91 1.84  90 1.85  95 1.85  34 2.80  40 2.81  33 2.81  31 2.81  50 2.81
                            28 2.81  13 2.83  15 2.83  43 2.84
  37  0.368  0.702  0.432-  82 1.85  84 1.85  85 1.86  81 1.86  31 2.80  50 2.80  39 2.80  29 2.81
                            38 2.81  52 2.81  57 2.84  23 2.84  14 2.84
  38  0.618  0.452  0.432-  82 1.85  92 1.85  83 1.86  81 1.86  50 2.80  40 2.80  32 2.80  30 2.80
                            37 2.81  52 2.81  41 2.84  63 2.84  14 2.84
  39  0.118  0.702  0.432-  88 1.85  87 1.85  84 1.86  35 2.80  37 2.80  27 2.81  29 2.81  50 2.81
                            28 2.81   3 2.83   2 2.84  57 2.84
  40  0.618  0.202  0.432-  91 1.85  96 1.85  92 1.86  38 2.80  34 2.80  27 2.81  36 2.81  32 2.81
                            50 2.81  43 2.83  72 2.84  41 2.84
  41  0.535  0.369  0.326-  80 2.75  51 2.76  79 2.76  72 2.80  43 2.80  63 2.80  15 2.81  14 2.81
                            57 2.81  40 2.84  38 2.84  50 2.84
  42  0.536  0.368  0.022-   7 2.79  22 2.79  61 2.79  59 2.80  64 2.80  17 2.81  18 2.81  74 2.81
                            44 2.81
  43  0.535  0.119  0.326-  69 2.75  80 2.76  71 2.76   1 2.80  72 2.80  41 2.80  73 2.81  13 2.81
                            15 2.81  40 2.83  34 2.84  36 2.84
  44  0.536  0.118  0.022-  19 2.79   7 2.79  53 2.79  18 2.81  75 2.81   4 2.81  16 2.81  74 2.81
                            42 2.81
  45  0.869  0.452  0.125-  12 2.73  77 2.73  67 2.73  58 2.79  64 2.79  10 2.79  46 2.80  54 2.80
                            22 2.81  11 2.81  21 2.81  25 2.81
  46  0.119  0.452  0.125-  76 2.73  62 2.73  12 2.74  10 2.79   6 2.79  18 2.79  45 2.80  54 2.80
                            53 2.80  21 2.81  61 2.81  70 2.81
  47  0.035  0.119  0.326-  65 2.75  77 2.76  26 2.76   2 2.80  72 2.80  23 2.81  13 2.81  63 2.81
                             9 2.81  33 2.83  29 2.84  32 2.84
  48  0.036  0.118  0.022-  49 2.79  54 2.79  11 2.79  16 2.81   5 2.81  74 2.81  10 2.81  24 2.81
                            64 2.81
  49  0.119  0.952  0.125-  68 2.73  26 2.73  65 2.74  48 2.79   5 2.79  24 2.79  11 2.80  54 2.80
                            78 2.80  70 2.81  60 2.81   8 2.81
  50  0.368  0.452  0.432-  81 1.85  88 1.86  91 1.86  38 2.80  37 2.80  39 2.81  40 2.81  36 2.81
                            28 2.81  15 2.84  57 2.84  41 2.84
  51  0.452  0.535  0.225-  60 2.73  61 2.73  22 2.73  14 2.75  41 2.76  57 2.76  68 2.81  76 2.81
                            80 2.81  79 2.81  66 2.81  67 2.81
  52  0.618  0.702  0.432-  83 1.85  85 1.85  82 1.86  86 1.86  30 2.80  31 2.80  37 2.81  34 2.81
                            35 2.81  38 2.81  14 2.84  73 2.84  56 2.84
  53  0.369  0.202  0.125-  80 2.73  69 2.73  62 2.74  16 2.79  18 2.79  44 2.79   8 2.80  46 2.80
                            61 2.81  54 2.81  19 2.81   7 2.81
  54  0.119  0.202  0.125-  26 2.73  62 2.73  77 2.74  10 2.79  48 2.79  16 2.79  45 2.80  11 2.80
                            49 2.80  46 2.80   8 2.81  53 2.81
  55  0.952  0.786  0.225-  21 2.73  78 2.73  70 2.74   2 2.76   3 2.76   1 2.76  20 2.80  65 2.80
                            71 2.80  68 2.80  12 2.81  76 2.81
  56  0.785  0.619  0.326-  67 2.75  20 2.76  12 2.76  73 2.80   9 2.80   3 2.81   1 2.81  14 2.81
                            63 2.81  35 2.83  30 2.84  52 2.84
  57  0.285  0.619  0.326-  76 2.75  68 2.76  51 2.76   3 2.80  15 2.80   2 2.81  23 2.81  14 2.81
                            41 2.81  37 2.84  50 2.84  39 2.84
[...]
   0.145E+00 0.985E+00 -.122E+04   -.144E+00 -.995E+00 0.122E+04   -.200E-02 -.107E-01 0.690E+00   -.102E-02 0.996E-02 -.353E-02
   0.550E-01 0.993E-01 0.260E+04   -.493E-01 -.946E-01 -.260E+04   -.215E-02 0.254E-03 -.139E+01   -.500E-02 -.405E-02 -.113E-02
   0.743E-01 0.505E-01 0.260E+04   -.733E-01 -.474E-01 -.260E+04   -.777E-02 0.174E-02 -.139E+01   0.421E-02 -.333E-02 -.708E-03
   0.107E+00 -.998E+00 0.260E+04   -.102E+00 0.958E+00 -.260E+04   -.654E-02 0.474E-01 -.144E+01   -.643E-03 -.563E-02 0.106E-02
   0.317E+00 -.178E-02 0.135E+04   -.294E+00 0.835E-03 -.135E+04   -.226E-01 -.145E-01 -.755E+00   -.402E-02 0.767E-02 -.447E-02
   -.508E-02 -.677E+00 0.135E+04   0.628E-02 0.666E+00 -.135E+04   -.239E-02 0.302E-01 -.714E+00   0.304E-03 0.410E-03 -.963E-02
   0.444E+00 -.389E-01 -.121E+04   -.525E+00 0.891E-01 0.121E+04   0.763E-01 -.439E-01 0.546E+00   0.560E-03 -.334E-02 -.711E-02
   0.915E+00 -.509E+00 0.260E+04   -.904E+00 0.502E+00 -.260E+04   -.211E-01 0.124E-01 -.143E+01   0.338E-02 -.219E-02 0.501E-02
   -.330E+00 -.139E+00 0.135E+04   0.310E+00 0.140E+00 -.135E+04   0.179E-01 -.110E-01 -.753E+00   0.443E-02 0.585E-02 -.257E-02
   0.780E+00 0.174E+00 0.579E+02   -.766E+00 -.211E+00 -.580E+02   -.162E-01 0.268E-01 0.735E-01   0.385E-02 -.251E-02 -.113E-01
   0.108E+00 0.250E+00 -.121E+04   -.105E+00 -.345E+00 0.121E+04   0.879E-03 0.881E-01 0.545E+00   -.426E-02 0.385E-02 -.682E-02
   -.184E+00 -.243E+00 -.124E+04   0.178E+00 0.244E+00 0.123E+04   0.697E-02 0.135E-02 0.931E+00   0.134E-02 0.132E-03 -.448E-02
   -.185E+00 -.911E-01 -.121E+04   0.272E+00 0.139E+00 0.121E+04   -.773E-01 -.425E-01 0.543E+00   -.620E-02 -.169E-02 -.833E-02
   0.114E+00 0.919E+00 0.260E+04   -.109E+00 -.912E+00 -.260E+04   -.659E-02 -.136E-01 -.142E+01   0.370E-03 0.240E-02 0.535E-02
   0.559E-01 -.130E+00 0.260E+04   -.522E-01 0.125E+00 -.260E+04   -.884E-02 0.332E-02 -.142E+01   0.127E-02 0.398E-03 0.266E-02
   -.859E+00 -.474E+00 0.260E+04   0.851E+00 0.469E+00 -.260E+04   0.116E-01 0.102E-01 -.143E+01   -.153E-02 -.200E-02 0.526E-02
   0.425E+00 -.213E+00 0.135E+04   -.413E+00 0.194E+00 -.135E+04   -.145E-02 0.225E-01 -.760E+00   -.669E-02 0.557E-03 -.632E-02
   0.102E+01 0.398E+00 0.558E+02   -.105E+01 -.414E+00 -.558E+02   0.241E-01 0.161E-01 0.303E-01   -.104E-02 -.999E-03 -.101E-01
   0.126E+00 0.532E+00 0.135E+04   -.137E+00 -.515E+00 -.135E+04   0.180E-01 -.104E-01 -.752E+00   -.234E-02 -.590E-02 -.592E-02
   -.120E+00 0.398E-01 0.135E+04   0.123E+00 -.471E-01 -.135E+04   0.495E-03 -.135E-01 -.746E+00   -.581E-03 0.115E-01 -.127E-01
   -.209E+01 0.358E+01 -.122E+04   0.211E+01 -.359E+01 0.122E+04   -.758E-02 -.139E-01 0.754E+00   -.318E-02 0.281E-02 -.465E-02
   -.173E+00 0.156E+00 0.260E+04   0.168E+00 -.148E+00 -.260E+04   -.479E-02 0.331E-02 -.142E+01   0.838E-02 -.806E-02 -.559E-03
   -.258E+00 0.320E-01 0.135E+04   0.265E+00 -.290E-01 -.135E+04   0.137E-01 0.888E-02 -.739E+00   -.102E-01 -.521E-02 -.138E-01
   -.346E+00 0.734E+00 0.578E+02   0.377E+00 -.703E+00 -.579E+02   -.173E-01 -.287E-01 0.758E-01   -.313E-02 0.438E-02 -.107E-01
   -.609E-01 -.117E+00 -.246E+04   0.506E-01 0.114E+00 0.246E+04   0.118E-01 0.441E-02 -.147E+00   0.219E-02 0.573E-03 0.162E-02
   0.911E-01 0.870E+00 -.246E+04   -.845E-01 -.853E+00 0.246E+04   -.345E-02 0.151E-01 -.220E+00   -.263E-02 -.182E-02 0.108E-01
   -.763E+00 -.161E+01 -.246E+04   0.721E+00 0.163E+01 0.246E+04   0.450E-01 -.154E-01 -.239E+00   -.984E-02 0.105E-02 0.114E-02
   -.695E+01 0.421E+01 -.244E+04   0.611E+01 -.373E+01 0.244E+04   0.834E+00 -.483E+00 -.111E+01   0.793E-03 -.147E-02 0.114E-03
   0.493E-02 -.811E+01 -.244E+04   -.754E-02 0.717E+01 0.244E+04   0.534E-02 0.949E+00 -.111E+01   -.200E-02 0.128E-02 0.701E-03
   -.165E+01 0.162E-02 -.246E+04   0.164E+01 -.403E-01 0.246E+04   0.120E-01 0.408E-01 -.233E+00   -.372E-02 -.824E-02 0.152E-02
   -.549E+00 -.423E+00 -.246E+04   0.536E+00 0.422E+00 0.246E+04   -.156E-01 -.177E-01 -.210E+00   0.285E-03 0.329E-03 0.942E-02
   0.593E+00 -.134E+01 -.246E+04   -.562E+00 0.136E+01 0.246E+04   -.311E-01 -.171E-01 -.236E+00   0.891E-02 0.132E-03 0.335E-02
   -.835E+00 0.124E+01 -.246E+04   0.861E+00 -.122E+01 0.246E+04   -.253E-01 -.186E-01 -.227E+00   0.544E-02 0.677E-02 0.273E-02
   0.784E+00 -.376E+00 -.246E+04   -.762E+00 0.378E+00 0.246E+04   0.919E-02 -.177E-01 -.212E+00   -.448E-02 0.321E-03 0.120E-01
   0.109E+02 -.625E+01 -.246E+04   -.116E+02 0.663E+01 0.246E+04   0.700E+00 -.405E+00 0.242E+00   -.719E-02 0.608E-02 -.899E-02
   -.223E+00 0.130E+02 -.246E+04   0.215E+00 -.137E+02 0.246E+04   0.977E-02 0.787E+00 0.245E+00   0.157E-02 -.905E-02 -.770E-02
   0.891E+00 0.132E+01 -.246E+04   -.932E+00 -.130E+01 0.246E+04   0.484E-01 -.294E-01 -.233E+00   -.560E-02 0.879E-02 0.289E-02
   0.145E+01 0.735E-01 -.246E+04   -.145E+01 -.112E+00 0.246E+04   -.419E-03 0.445E-01 -.234E+00   0.581E-02 -.852E-02 0.442E-02
   -.216E+01 -.337E+01 -.122E+04   0.215E+01 0.339E+01 0.122E+04   0.220E-01 -.163E-02 0.756E+00   0.232E-02 -.142E-02 -.475E-02
   -.389E-01 -.125E+00 0.260E+04   0.348E-01 0.118E+00 -.260E+04   -.522E-02 -.397E-02 -.142E+01   0.426E-02 0.974E-02 0.233E-03
   0.104E+01 -.603E+00 -.122E+04   -.105E+01 0.608E+00 0.122E+04   -.945E-02 0.437E-02 0.690E+00   0.821E-02 -.450E-02 -.412E-02
   -.744E+00 0.439E+00 0.260E+04   0.719E+00 -.422E+00 -.260E+04   0.313E-01 -.193E-01 -.144E+01   -.551E-02 0.217E-02 0.117E-02
   -.469E+00 0.118E+00 0.135E+04   0.460E+00 -.113E+00 -.135E+04   0.240E-01 -.153E-01 -.713E+00   0.573E-03 -.250E-03 -.882E-02
   0.655E-01 0.100E+01 0.136E+04   -.640E-01 -.940E+00 -.136E+04   -.572E-02 -.631E-01 -.722E+00   0.111E-02 -.134E-01 -.153E-02
   -.114E+01 -.776E+00 -.122E+04   0.114E+01 0.779E+00 0.122E+04   0.152E-01 0.771E-02 0.689E+00   -.853E-02 -.424E-02 -.403E-02
   0.762E+00 0.325E+00 0.260E+04   -.731E+00 -.312E+00 -.260E+04   -.413E-01 -.167E-01 -.144E+01   0.720E-02 0.354E-02 0.204E-02
   -.401E+00 -.329E+00 0.135E+04   0.390E+00 0.308E+00 -.135E+04   -.309E-02 0.243E-01 -.763E+00   0.822E-02 0.122E-02 -.252E-02
   0.714E+01 0.428E+01 -.244E+04   -.629E+01 -.378E+01 0.244E+04   -.848E+00 -.498E+00 -.112E+01   -.342E-02 -.130E-02 0.289E-02
   -.829E+00 -.248E+00 0.521E+02   0.812E+00 0.239E+00 -.522E+02   0.104E-01 0.404E-02 0.954E-01   0.563E-02 0.287E-02 -.193E-01
   -.114E+02 -.626E+01 -.246E+04   0.120E+02 0.665E+01 0.246E+04   -.679E+00 -.405E+00 0.240E+00   0.581E-02 0.339E-02 -.894E-02
   0.959E+00 -.396E+00 0.136E+04   -.904E+00 0.365E+00 -.136E+04   -.568E-01 0.289E-01 -.724E+00   -.108E-01 0.694E-02 -.240E-02
   -.961E+00 -.458E+00 0.136E+04   0.907E+00 0.425E+00 -.136E+04   0.534E-01 0.347E-01 -.721E+00   0.110E-01 0.573E-02 -.101E-02
   0.134E-01 0.307E+00 0.564E+02   -.155E-01 -.309E+00 -.565E+02   0.376E-03 0.412E-02 0.923E-01   0.171E-02 -.281E-02 -.182E-02
   0.413E+01 -.883E-01 -.122E+04   -.415E+01 0.771E-01 0.122E+04   -.664E-02 0.108E-01 0.750E+00   0.119E-02 -.853E-03 -.330E-02
   -.416E+01 -.204E+00 -.122E+04   0.418E+01 0.187E+00 0.122E+04   0.167E-01 0.137E-01 0.756E+00   -.220E-02 0.322E-02 -.414E-02
   0.194E+00 -.577E-01 0.260E+04   -.182E+00 0.527E-01 -.260E+04   -.369E-02 0.465E-02 -.142E+01   -.921E-02 0.232E-03 -.115E-02
   -.665E-01 0.102E-01 0.260E+04   0.618E-01 -.122E-01 -.260E+04   -.118E-01 0.291E-02 -.142E+01   0.116E-01 -.250E-02 -.287E-05
   0.839E-01 -.610E-01 0.135E+04   -.888E-01 0.643E-01 -.135E+04   -.149E-01 0.110E-01 -.743E+00   0.101E-01 -.630E-02 -.126E-01
[...]
   0.808E+00 -.434E+00 -.304E+03   -.808E+00 0.431E+00 0.306E+03   0.435E-02 0.144E-03 -.150E+01   -.114E-02 0.830E-03 0.388E-03
   0.198E-01 0.427E+01 -.305E+03   -.217E-01 -.505E+01 0.307E+03   0.247E-02 0.794E+00 -.160E+01   -.260E-04 0.128E-02 0.678E-03
   -.794E+00 -.399E+00 -.304E+03   0.793E+00 0.394E+00 0.306E+03   -.256E-02 0.172E-02 -.150E+01   0.112E-02 0.554E-03 0.521E-03
   0.664E-01 -.763E-01 -.305E+03   -.716E-01 0.802E-01 0.306E+03   0.451E-02 -.536E-02 -.150E+01   0.947E-04 0.564E-03 -.496E-04
   0.119E-01 0.359E+00 -.304E+03   0.397E-01 -.381E+00 0.306E+03   -.497E-01 0.144E-01 -.149E+01   -.121E-03 -.591E-04 0.720E-03
   -.601E-01 0.358E+00 -.304E+03   0.214E-01 -.383E+00 0.306E+03   0.425E-01 0.159E-01 -.149E+01   0.181E-03 -.154E-03 0.618E-03
   -.142E-01 0.372E-01 -.304E+03   0.184E-01 -.389E-01 0.306E+03   -.204E-02 0.217E-02 -.149E+01   -.120E-03 -.343E-04 0.628E-03
   0.319E+00 -.184E+00 -.304E+03   -.313E+00 0.241E+00 0.306E+03   -.109E-01 -.524E-01 -.149E+01   -.105E-03 0.459E-04 0.827E-03
   -.209E-01 0.884E+00 -.304E+03   0.223E-01 -.879E+00 0.306E+03   -.323E-03 0.556E-03 -.150E+01   0.187E-03 -.129E-02 0.430E-03
   -.346E+00 -.131E+00 -.304E+03   0.347E+00 0.180E+00 0.306E+03   0.733E-02 -.463E-01 -.149E+01   0.955E-04 -.151E-03 0.599E-03
   -.280E+00 -.301E+00 -.304E+03   0.322E+00 0.281E+00 0.306E+03   -.356E-01 0.257E-01 -.149E+01   -.141E-03 0.189E-03 0.578E-03
   0.297E+00 -.304E+00 -.304E+03   -.338E+00 0.286E+00 0.306E+03   0.369E-01 0.243E-01 -.149E+01   -.922E-04 0.206E-03 0.745E-03
   -.809E-01 0.205E-01 -.305E+03   0.845E-01 -.217E-01 0.306E+03   -.489E-02 0.163E-02 -.149E+01   0.647E-03 -.244E-03 0.353E-04
   0.133E+00 -.920E-02 -.305E+03   -.141E+00 0.886E-02 0.306E+03   0.974E-02 0.915E-03 -.149E+01   -.410E-03 -.293E-03 -.177E-03
   0.259E-01 0.106E+00 0.528E+02   -.207E-12 0.103E-12 0.460E-11   -.341E-01 -.860E-01 -.524E+02   0.919E-02 0.186E-02 -.301E+00

 POSITION                                       TOTAL-FORCE (eV/Angst)
     13.68492      8.44424      7.17696        -0.000216     -0.001493     -0.002203
      5.26741      8.44342      7.17719        -0.002773      0.002602     -0.002511
      3.86470      6.01473      7.17671        -0.001676     -0.011130      0.004275
     13.69122      8.44191      0.46744        -0.001771      0.000796     -0.002863
      5.27363      8.44148      0.46765        -0.002319      0.001305     -0.003072
      3.87164      6.01175      0.46594        -0.001891      0.001385     -0.006047
      8.07982      1.96332      2.74211        -0.003796     -0.007242     -0.000728
      9.48028      9.24927      2.74017        -0.000925      0.016251      0.003497
      2.46626      3.58136      7.16529        -0.002754      0.002246     -0.007661
      2.46858      3.58117      0.46309        -0.006264      0.002382      0.003898
     10.88108      1.96284      2.74169         0.002687     -0.004679     -0.000684
     13.68692      5.20343      4.94279         0.000252     -0.014135     -0.010164
      3.86450      1.15854      7.16539        -0.000784     -0.002569     -0.007991
      9.47515      6.01289      7.19502         0.002462      0.001343     -0.024572
      5.26257      3.58084      7.16542         0.002355      0.003330     -0.006654
      3.87163      1.15193      0.46407        -0.000800     -0.003639      0.003288
      9.48306      6.01130      0.46817        -0.003781     -0.001002     -0.010696
      5.27363      3.58166      0.46274         0.001229      0.002819      0.004174
     12.28751      9.25022      2.74227         0.003942      0.003974     -0.002079
     12.28358      7.63226      4.94631        -0.005540     -0.002223     -0.000366
     13.68808      6.82484      2.74148         0.004723      0.000730     -0.000487
      9.48046      4.39432      2.74384         0.002223     -0.009349      0.004323
      8.07012      8.44135      7.17903         0.012081     -0.019894      0.005223
      8.07895      8.44061      0.46948        -0.001312      0.002409     -0.007632
     10.88133      6.82183      2.74334         0.009785      0.006507      0.005706
      2.46434      0.34383      4.94292         0.011380      0.006942     -0.007686
     15.08418      9.25302      9.50601         0.003699      0.001039     -0.007518
      3.86148      4.39160      9.50361         0.000515      0.030785     -0.022801
      6.66260      9.25747      9.51098        -0.006522      0.004668     -0.013064
     12.29000      4.38767      9.48579         0.002615     -0.002760      0.026648
      9.47281      9.26739      9.48626         0.000783      0.003423      0.026044
     10.87720      1.95894      9.50889         0.001434     -0.006082     -0.013939
      2.46083      1.96530      9.50187        -0.028617     -0.019180     -0.023035
     12.28275      9.25710      9.51068         0.008501      0.000830     -0.013695
     13.68647      6.82505      9.50872         0.005737      0.007686     -0.015096
      5.26319      1.96525      9.50190         0.026343     -0.015918     -0.023364
      8.05253      6.83416      9.55731         0.016939     -0.010340      0.013517
      9.47201      4.37503      9.55703         0.003507      0.017112      0.016913
      5.25854      6.82511      9.50988         0.001812      0.003460     -0.014341
      8.06893      1.95837      9.50928         0.004196     -0.002509     -0.015236
      8.07566      3.58248      7.17864         0.014396      0.021548      0.007342
      8.08048      3.58185      0.46967        -0.004553     -0.001312     -0.008033
      6.67191      1.15238      7.17674        -0.010605      0.004691      0.004464
      6.67757      1.15174      0.46638        -0.000251     -0.000738     -0.006862
     12.28412      4.39313      2.74013         0.014038     -0.009672      0.003688
      3.86917      4.39937      2.73175        -0.002982     -0.010722     -0.002599
      1.05687      1.15228      7.17670         0.012783      0.006651      0.004285
      1.06505      1.15123      0.46606        -0.003160     -0.000138     -0.006194
      6.67328      9.24975      2.74258        -0.005411      0.004514     -0.004258
      6.65599      4.38770      9.48579         0.000325     -0.001139      0.034952
      8.07668      5.20425      4.94937        -0.001795     -0.002989      0.014864
     10.89097      6.83349      9.55721        -0.008905     -0.009279      0.014046
      5.27766      1.95979      2.73195        -0.011610      0.003951     -0.004562
      2.46006      1.95933      2.73178         0.008976      0.006779     -0.004708
     15.08981      7.63205      4.94636        -0.000157     -0.001369     -0.001407
     12.28124      6.01702      7.17885        -0.025032     -0.002500      0.004777
      6.66978      6.01632      7.17870         0.028749     -0.000820      0.007366
     12.28824      6.01203      0.47089        -0.001481     -0.000033     -0.008262
      6.67792      6.01204      0.47099        -0.004021     -0.001470     -0.008596
      8.07935      6.82142      2.74356        -0.009534      0.007705      0.002829
[...]
     11.10377      5.07266     10.47758         0.016585     -0.010354      0.020798
      6.62664      7.65693     10.42723         0.004846     -0.002484      0.008114
      9.47410      7.89620     10.47707         0.000554      0.018538      0.022401
     12.31828      7.65620     10.42585        -0.003068     -0.002684      0.008772
     15.08474      7.63813     10.40978        -0.000569     -0.001148      0.008766
      5.25397      5.20584     10.40241         0.001646     -0.007495     -0.005677
     13.68944      5.20706     10.40216         0.004065     -0.008745     -0.005714
      3.86139      2.77343     10.40265         0.002031      0.000227      0.009967
      6.66444      2.76308     10.40162        -0.004587      0.004875     -0.005642
      9.47307      2.72697     10.42627         0.001260      0.005568      0.005986
     12.28088      2.76490     10.40162         0.008118      0.002153     -0.006649
      2.45202      0.35011     10.40245         0.006145      0.006059     -0.006392
      5.27128      0.34959     10.40192        -0.004303      0.006885     -0.004326
      8.07502      0.34169     10.41042        -0.000657     -0.000059      0.007146
     10.87172      0.34241     10.41089         0.001149      0.000044      0.004510
    total drift:                                0.000960      0.021646      0.096791

  FREE ENERGIE OF THE ION-ELECTRON SYSTEM (eV)
  free  energy   TOTEN  =      -578.30639015 eV

  energy  without entropy=     -578.39064044  energy(sigma->0) =     -578.33447358

 d Force = 0.3045441E-02[ 0.200E-02, 0.410E-02]  d Energy = 0.3026782E-02 0.187E-04
 d Force = 0.7370603E+02[ 0.737E+02, 0.737E+02]  d Ewald  = 0.7370602E+02 0.997E-05

 Conjugate gradient step on ions:
 trial-energy change:   -0.003027  1 .order   -0.003045   -0.004095   -0.001995
  (g-gl).g = 0.355E-02      g.g   = 0.347E-02  gl.gl    = 0.397E-02
 g(Force)  = 0.347E-02   g(Stress)= 0.000E+00 ortho     =-0.700E-05
 gamma     =   0.89415
 trial     =   1.18374
 opt step  =   2.30860  (harmonic =   2.30860) maximal distance =0.01840657
 next E    =  -578.307357   (d E  =  -0.00399)

 reached required accuracy - stopping structural energy minimisation