 vasp.5.4.4.18Apr17-6-g9f103f2a35 (build Oct 25 2019 11:13:22) complex

 executed on             LinuxIFC date 2021.11.08  16:42:00

 INCAR:
 POTCAR:    PAW_PBE Pt 04Feb2005
 POTCAR:    PAW_PBE Fe 06Sep2000
 POTCAR:    PAW_PBE Co 02Aug2007
 POTCAR:    PAW_PBE Cu 22Jun2005
 POTCAR:    PAW_PBE Ni 02Aug2007
 POTCAR:    PAW_PBE H 15Jun2001

 POTCAR:    PAW_PBE Pt 04Feb2005
   VRHFIN =Pt: s1d9

   TITEL  = PAW_PBE Pt 04Feb2005
   POMASS =  195.080; ZVAL   =   10.000    mass and valenz
   ENMAX  =  230.283; ENMIN  =  172.712 eV

 POTCAR:    PAW_PBE Fe 06Sep2000
   VRHFIN =Fe:  d7 s1

   TITEL  = PAW_PBE Fe 06Sep2000
   POMASS =   55.847; ZVAL   =    8.000    mass and valenz
   ENMAX  =  267.882; ENMIN  =  200.911 eV

 POTCAR:    PAW_PBE Co 02Aug2007
   VRHFIN =Co: d8 s1

   TITEL  = PAW_PBE Co 02Aug2007
   POMASS =   58.933; ZVAL   =    9.000    mass and valenz
   ENMAX  =  267.968; ENMIN  =  200.976 eV

 POTCAR:    PAW_PBE Cu 22Jun2005
   VRHFIN =Cu: d10 p1

   TITEL  = PAW_PBE Cu 22Jun2005
   POMASS =   63.546; ZVAL   =   11.000    mass and valenz
   ENMAX  =  295.446; ENMIN  =  221.585 eV

 POTCAR:    PAW_PBE Ni 02Aug2007
   VRHFIN =Ni:

   TITEL  = PAW_PBE Ni 02Aug2007
   POMASS =   58.690; ZVAL   =   10.000    mass and valenz
   ENMAX  =  269.532; ENMIN  =  202.149 eV

 POTCAR:    PAW_PBE H 15Jun2001
   VRHFIN =H: ultrasoft test

   TITEL  = PAW_PBE H 15Jun2001
   POMASS =    1.000; ZVAL   =    1.000    mass and valenz
   ENMAX  =  250.000; ENMIN  =  200.000 eV

 Optimization of the real space projectors (new method)

 maximal supplied QI-value         = 14.36
 optimisation between [QCUT,QGAM] = [ 11.92, 23.98] = [ 39.79,161.09] Ry
 Optimized for a Real-space Cutoff    1.49 Angstroem

   l    n(q)    QCUT    max X(q) W(low)/X(q) W(high)/X(q)  e(spline)
   2     10    11.920    66.195    0.79E-04    0.18E-03    0.24E-06
   2     10    11.920    64.643    0.81E-04    0.19E-03    0.24E-06
   0     11    11.920    95.520    0.28E-04    0.54E-04    0.18E-06
   0     11    11.920    63.403    0.27E-04    0.52E-04    0.17E-06
   1     10    11.920    19.961    0.18E-04    0.11E-03    0.23E-06
   1     10    11.920    13.289    0.25E-04    0.87E-04    0.19E-06
 Optimization of the real space projectors (new method)

[...]

   l    n(q)    QCUT    max X(q) W(low)/X(q) W(high)/X(q)  e(spline)
   2      9    11.864    60.317    0.21E-03    0.51E-03    0.25E-06
   2      9    11.864    55.921    0.21E-03    0.51E-03    0.26E-06
   0      9    11.864    51.690    0.22E-03    0.30E-04    0.17E-06
   0      9    11.864    30.015    0.20E-03    0.28E-04    0.15E-06
   1      9    11.864    18.849    0.76E-04    0.33E-03    0.17E-06
   1      9    11.864    14.624    0.60E-04    0.28E-03    0.15E-06
 Optimization of the real space projectors (new method)

 maximal supplied QI-value         = 34.20
 optimisation between [QCUT,QGAM] = [ 11.97, 23.94] = [ 40.13,160.53] Ry
 Optimized for a Real-space Cutoff    1.18 Angstroem

   l    n(q)    QCUT    max X(q) W(low)/X(q) W(high)/X(q)  e(spline)
   0      8    11.971    19.460    0.15E-03    0.31E-03    0.25E-06
   0      8    11.971    12.209    0.13E-03    0.29E-03    0.25E-06
   1      8    11.971     4.655    0.22E-03    0.24E-03    0.21E-06
  PAW_PBE Pt 04Feb2005                  :
  PAW_PBE Fe 06Sep2000                  :
  PAW_PBE Co 02Aug2007                  :
  PAW_PBE Cu 22Jun2005                  :
  PAW_PBE Ni 02Aug2007                  :
  PAW_PBE H 15Jun2001                   :

 POSCAR: 10.46-high
  positions in cartesian coordinates
 exchange correlation table for  LEXCH =        8
   RHO(1)=    0.500       N(1)  =     2000
   RHO(2)=  100.500       N(2)  =     4000

 ion  position               nearest neighbor table
   1  0.779  0.867  0.324-  23 2.59  33 2.61  65 2.61   3 2.62  32 2.70  41 2.70  56 2.71   2 2.73
                            15 2.75   8 2.85  40 2.87  16 3.28
   2  0.039  0.868  0.326-  26 2.59  34 2.59  58 2.62   3 2.63  41 2.67  38 2.69   1 2.73  32 2.76
                             8 2.76  10 2.77  79 2.78  20 3.23
   3  0.032  0.620  0.327-   1 2.62   2 2.63   6 2.64   4 2.64  50 2.69  33 2.70  32 2.71  34 2.71
                             9 2.73  68 2.76  16 3.23  20 3.28
   4  0.029  0.369  0.325-  77 2.57  26 2.60   3 2.64  33 2.65  50 2.65   6 2.69   5 2.72  36 2.73
                            11 2.78  42 2.81   9 2.85  14 2.89
   5  0.288  0.109  0.323-  58 2.54  65 2.56  61 2.59  26 2.61  23 2.62   6 2.72   4 2.72  12 2.72
                            36 2.72  39 2.73  17 2.92  14 2.94
   6  0.286  0.370  0.323-  23 2.62   3 2.64  34 2.66  22 2.67  68 2.67   4 2.69  71 2.70  36 2.71
                             5 2.72   9 2.82  17 2.85  29 2.88
   7  0.865  0.705  0.122-  43 2.51  74 2.52  60 2.55  55 2.56  45 2.63  56 2.63  69 2.65  64 2.66
                            72 2.66  32 2.67  25 2.69  50 2.75
   8  0.872  0.953  0.431-  15 2.61  10 2.63  21 2.64  13 2.64  16 2.66  20 2.66   2 2.76   1 2.85
                            41 2.89
   9  0.119  0.460  0.432-  11 2.62  29 2.62  14 2.65  17 2.66  20 2.66  16 2.66   3 2.73   6 2.82
                             4 2.85
  10  0.123  0.954  0.431-  18 2.59  12 2.61  14 2.62   8 2.63  13 2.63  20 2.65   2 2.77  26 2.85
                            58 2.86
  11  0.871  0.456  0.434-  19 2.59  31 2.60  13 2.62   9 2.62  14 2.62  16 2.67   4 2.78  33 2.85
                            77 2.92
  12  0.373  0.953  0.429-  18 2.58  10 2.61  31 2.61  15 2.62  17 2.63  14 2.64   5 2.72  65 2.75
                            58 2.82
  13  0.871  0.206  0.429-  19 2.62  11 2.62  21 2.62  14 2.62  10 2.63   8 2.64  77 2.80  26 2.81
                            41 2.84
  14  0.121  0.205  0.437-  17 2.62  10 2.62  13 2.62  11 2.62  12 2.64   9 2.65   4 2.89   5 2.94
                            26 3.02
  15  0.623  0.953  0.431-  31 2.59   8 2.61  12 2.62  17 2.63  16 2.64  21 2.64   1 2.75  23 2.84
                            65 2.90
  16  0.869  0.707  0.458-  81 1.77  31 2.63  15 2.64  20 2.66   8 2.66   9 2.66  11 2.67   3 3.23
                             1 3.28  33 3.38
  17  0.372  0.204  0.434-  14 2.62  21 2.62  12 2.63  15 2.63  29 2.64   9 2.66   6 2.85  23 2.87
                             5 2.92
  18  0.371  0.707  0.430-  12 2.58  10 2.59  29 2.62  19 2.62  31 2.63  20 2.66  51 2.73  34 2.75
                            58 2.81
  19  0.623  0.457  0.427-  11 2.59  31 2.60  13 2.62  18 2.62  21 2.64  29 2.64  51 2.68  77 2.73
                            22 2.76
  20  0.123  0.706  0.457-  81 1.74  29 2.65  10 2.65  16 2.66  18 2.66   9 2.66   8 2.66   2 3.23
                            34 3.26   3 3.28
  21  0.621  0.206  0.433-  13 2.62  17 2.62  29 2.62   8 2.64  15 2.64  19 2.64  22 2.87  41 2.89
                            23 2.90
  22  0.539  0.374  0.322-  77 2.53  51 2.58  41 2.60  34 2.61  30 2.64   6 2.67  70 2.67  23 2.70
                            71 2.75  19 2.76  21 2.87  29 2.89
  23  0.535  0.118  0.322-   1 2.59   6 2.62   5 2.62  41 2.64  65 2.68  22 2.70  71 2.71  40 2.76
                            39 2.79  15 2.84  17 2.87  21 2.90
  24  0.539  0.118  0.032-  63 2.57  46 2.57  55 2.58  66 2.61  43 2.64  52 2.64  54 2.65  62 2.68
                            67 2.68
  25  0.123  0.448  0.123-  54 2.50  48 2.52  73 2.58  63 2.59  45 2.60  76 2.63  64 2.63  36 2.65
                            68 2.66  72 2.67   7 2.69  50 2.77
  26  0.035  0.118  0.320-  61 2.58   2 2.59  41 2.60   4 2.60   5 2.61  58 2.65  79 2.66  77 2.67
                            42 2.69  13 2.81  10 2.85  14 3.02
  27  0.033  0.126  0.027-  48 2.58  78 2.61  52 2.61  73 2.61  66 2.61  49 2.62  28 2.64  59 2.70
                            44 2.70
  28  0.114  0.959  0.126-  79 2.57  73 2.59  44 2.60  69 2.61  59 2.62  49 2.63  47 2.63  38 2.64
                            27 2.64  61 2.66  64 2.67  35 2.74
  29  0.371  0.457  0.434-  18 2.62   9 2.62  21 2.62  17 2.64  19 2.64  20 2.65  34 2.82   6 2.88
                            22 2.89
  30  0.454  0.529  0.220-  71 2.56  70 2.57  76 2.60  68 2.61  57 2.62  22 2.64  35 2.65  37 2.65
                            80 2.66  38 2.69  34 2.75  51 2.81
  31  0.623  0.705  0.435-  15 2.59  11 2.60  19 2.60  12 2.61  16 2.63  18 2.63  33 2.82  51 2.86
                            65 2.87
  32  0.949  0.783  0.224-  50 2.58  56 2.60  68 2.62  64 2.65  79 2.66   7 2.67  40 2.69   1 2.70
                            38 2.70   3 2.71  69 2.74   2 2.76
  33  0.774  0.621  0.323-  51 2.51  65 2.54  77 2.55   1 2.61   4 2.65  50 2.65  37 2.67   3 2.70
                            56 2.71  31 2.82  11 2.85  16 3.38
  34  0.290  0.623  0.325-  51 2.55  58 2.55   2 2.59  22 2.61   6 2.66  38 2.71   3 2.71  30 2.75
                            18 2.75  68 2.76  29 2.82  20 3.26
  35  0.378  0.700  0.123-  53 2.48  59 2.53  75 2.54  60 2.57  57 2.59  47 2.60  30 2.65  64 2.68
                            76 2.68  80 2.70  38 2.73  28 2.74
  36  0.199  0.285  0.223-  73 2.61  71 2.61  61 2.62  50 2.63  63 2.63  68 2.63  25 2.65  42 2.65
                            39 2.69   6 2.71   5 2.72   4 2.73
  37  0.699  0.545  0.219-  56 2.52  80 2.54  60 2.55  50 2.57  72 2.60  57 2.61  30 2.65  33 2.67
                            42 2.68  70 2.69  77 2.73  51 2.79
  38  0.202  0.792  0.224-  61 2.52  80 2.58  58 2.59  79 2.62  28 2.64  64 2.66   2 2.69  68 2.69
                            30 2.69  32 2.70  34 2.71  35 2.73
  39  0.451  0.023  0.219-  80 2.50  61 2.53  47 2.53  56 2.54  55 2.55  63 2.60  40 2.68  36 2.69
                            65 2.70   5 2.73  71 2.75  23 2.79
  40  0.696  0.043  0.215-  46 2.54  69 2.56  70 2.57  71 2.59  55 2.59  79 2.61  56 2.68  39 2.68
                            32 2.69  41 2.75  23 2.76   1 2.87
  41  0.785  0.123  0.320-  26 2.60  22 2.60  77 2.61  70 2.63  79 2.64  23 2.64   2 2.67   1 2.70
                            40 2.75  13 2.84   8 2.89  21 2.89
  42  0.947  0.281  0.218-  49 2.52  79 2.55  70 2.55  72 2.57  73 2.62  36 2.65  61 2.67  50 2.68
                            37 2.68  26 2.69  77 2.72   4 2.81
  43  0.789  0.864  0.029-   7 2.51  69 2.56  45 2.62  67 2.63  24 2.64  55 2.64  74 2.65  66 2.67
                            44 2.67
  44  0.045  0.863  0.030-  75 2.54  45 2.58  64 2.58  28 2.60  59 2.60  69 2.61  43 2.67  66 2.70
                            27 2.70
  45  0.042  0.618  0.028-  75 2.52  54 2.57  44 2.58  25 2.60  64 2.61  43 2.62  48 2.62   7 2.63
                            74 2.72
  46  0.618  0.214  0.124-  76 2.47  57 2.50  40 2.54  49 2.54  62 2.55  70 2.55  24 2.57  71 2.62
                            66 2.63  69 2.64  63 2.64  55 2.85
  47  0.369  0.952  0.123-  52 2.46  59 2.49  55 2.52  39 2.53  67 2.56  73 2.60  35 2.60  60 2.60
                            63 2.62  28 2.63  61 2.71  80 2.74
  48  0.025  0.377  0.032-  72 2.47  74 2.50  25 2.52  78 2.55  73 2.57  27 2.58  45 2.62  52 2.75
                            54 2.76
  49  0.863  0.211  0.123-  78 2.46  57 2.51  72 2.52  42 2.52  46 2.54  66 2.59  70 2.60  27 2.62
                            28 2.63  69 2.63  79 2.65  73 2.68
  50  0.948  0.537  0.226-  37 2.57  32 2.58  56 2.61  36 2.63  68 2.65   4 2.65  33 2.65  42 2.68
[...]
     12.71905      4.86079      4.97755        -0.033261      0.027300     -0.055420
      8.83353      5.64809      7.17273         0.007548      0.011286     -0.008779
      3.61116      1.03011      0.71575         0.020651      0.010278      0.004243
      8.96244      5.55017      0.78359         0.002773     -0.027359     -0.026993
      4.99011      3.39374      0.70946         0.006671      0.004131     -0.008580
     11.35685      8.54256      2.74103         0.004729     -0.012749      0.008749
     11.41974      7.11664      4.85312         0.001217      0.011945      0.000777
      8.87054      4.07764      2.72515         0.005118      0.019744      0.010328
      7.56943      7.84259      7.06087         0.012261     -0.032907     -0.003447
      7.58345      7.86427      0.68786        -0.008189      0.020152      0.001374
     10.17979      6.39732      2.73108         0.016117      0.002357      0.033806
[...]
     10.14167      7.81097      0.64587         0.006731     -0.010313      0.004591
      4.90924      4.84723      4.90184         0.009714     -0.002230     -0.008567
     14.05673      8.67588      2.68456         0.007490     -0.002523     -0.008776
      8.83290      2.58989      4.85900        -0.008844     -0.007706      0.008161
      6.18453      2.60592      4.85170         0.006855      0.024857     -0.000809
     11.42400      4.06434      2.72845         0.011683      0.037469     -0.002548
      2.34232      1.83008      2.72921        -0.008119      0.025054      0.005323
     11.41431      5.56039      0.71047        -0.019556     -0.003636      0.037119
      6.18959      5.58046      0.74095        -0.006083     -0.010524     -0.001258
      6.25827      4.02492      2.70387        -0.002494     -0.015325      0.000689
     10.12294      3.38084      7.06989        -0.023358      0.008005      0.008654
     10.13694      3.37925      0.73892        -0.017399     -0.009968      0.022299
     10.11248      0.34012      4.85224         0.018502      0.022729      0.005099
      8.83182      7.10221      4.97875        -0.015487      0.015107     -0.012945
     14.13275      6.43047     11.18947        -0.015079     -0.000109      0.113284
    total drift:                               -0.007003      0.002486     -0.002053

  FREE ENERGIE OF THE ION-ELECTRON SYSTEM (eV)
  free  energy   TOTEN  =      -515.80343510 eV

  energy  without entropy=     -515.80343510  energy(sigma->0) =     -515.80343510

 d Force = 0.3425520E-03[-0.340E-02, 0.408E-02]  d Energy = 0.4249828E-03-0.824E-04
 d Force =-0.1011935E+02[-0.101E+02,-0.101E+02]  d Ewald  =-0.1011952E+02 0.173E-03

 Finite differences progress:
  Degree of freedom:   3/  3
  Displacement:        2/  2
  Total:               6/  6

 SECOND DERIVATIVES (NOT SYMMETRIZED)
              81X         81Y         81Z
 81X    -2.599214    0.002178    0.283663
 81Y    -0.047565   -0.726386   -0.182599
 81Z     0.281716   -0.191317   -8.313521

 Eigenvectors and eigenvalues of the dynamical matrix

   1 f  =   45.125850 THz   283.534076 2PiTHz 1505.236276 cm-1   186.625580 meV
             X         Y         Z           dx          dy          dz
     12.683603  7.857616  7.131976            0           0           0
      4.949918  7.863821  7.169834            0           0           0
      3.577521  5.620094  7.193216            0           0           0
      2.234670  3.345878  7.154251            0           0           0
      3.588588  0.990765  7.110821            0           0           0
      4.926962  3.354828  7.116452            0           0           0
     12.731512  6.386202  2.690597            0           0           0
     14.105799  8.631389  9.480179            0           0           0
      3.647058  4.163312  9.495979            0           0           0
      6.274063  8.644599  9.477172            0           0           0
     11.491434  4.127230  9.537140            0           0           0
      8.881603  8.633250  9.432018            0           0           0
     10.187796  1.861913  9.427011            0           0           0
      2.340374  1.855738  9.624110            0           0           0
     11.497099  8.629906  9.490752            0           0           0
     12.783531  6.400471 10.066465            0           0           0
      4.956006  1.850394  9.539117            0           0           0
      7.576570  6.402574  9.470322            0           0           0
      8.902789  4.139859  9.388397            0           0           0
      4.980874  6.398014 10.050599            0           0           0
      7.573120  1.864025  9.517388            0           0           0
      7.593505  3.388040  7.083691            0           0           0
      6.209203  1.069941  7.080902            0           0           0
      6.252151  1.069120  0.712476            0           0           0
      3.629947  4.060530  2.703952            0           0           0
      0.981966  1.065082  7.041741            0           0           0
      1.009994  1.144150  0.595390            0           0           0
      6.209486  8.689384  2.763651            0           0           0
      6.267519  4.137668  9.544303            0           0           0
      7.513452  4.796155  4.848780            0           0           0
     10.203192  6.384215  9.576969            0           0           0
     14.020167  7.090550  4.919448            0           0           0
     11.338981  5.623081  7.112816            0           0           0
      6.288095  5.644487  7.159711            0           0           0
      7.608368  6.338105  2.701617            0           0           0
      3.570795  2.579196  4.901762            0           0           0
     10.156428  4.936169  4.822298            0           0           0
      6.255588  7.172819  4.925673            0           0           0
      4.835716  0.206390  4.815478            0           0           0
      7.507131  0.386266  4.739423            0           0           0
      8.846987  1.109880  7.033349            0           0           0
     11.380678  2.548167  4.803738            0           0           0
     12.770488  7.830531  0.633320            0           0           0
      4.982628  7.814221  0.650337            0           0           0
      3.669646  5.596209  0.612247            0           0           0
      7.579688  1.938875  2.735304            0           0           0
      8.838755  8.623691  2.695591            0           0           0
      2.230602  3.411877  0.708775            0           0           0
     10.123894  1.908403  2.712351            0           0           0
     12.719051  4.860790  4.977551            0           0           0
      8.833533  5.648091  7.172732            0           0           0
      3.611159  1.030107  0.715746            0           0           0
      8.962440  5.550174  0.783586            0           0           0
      4.990107  3.393744  0.709460            0           0           0
     11.356853  8.542558  2.741032            0           0           0
     11.419743  7.116638  4.853119            0           0           0
      8.870541  4.077644  2.725148            0           0           0
      7.569430  7.842590  7.060871            0           0           0
      7.583454  7.864267  0.687861            0           0           0
     10.179788  6.397321  2.731078            0           0           0
[...]
     10.141670  7.810971  0.645866            0           0           0
      4.909237  4.847227  4.901839            0           0           0
     14.056726  8.675881  2.684563            0           0           0
      8.832903  2.589890  4.859003            0           0           0
      6.184535  2.605925  4.851696            0           0           0
     11.424000  4.064340  2.728447            0           0           0
      2.342315  1.830083  2.729215            0           0           0
     11.414307  5.560394  0.710474            0           0           0
      6.189591  5.580463  0.740954            0           0           0
      6.258266  4.024923  2.703874            0           0           0
     10.122944  3.380842  7.069892            0           0           0
     10.136941  3.379254  0.738921            0           0           0
     10.112477  0.340119  4.852238            0           0           0
      8.831820  7.102214  4.978755            0           0           0
     14.132747  6.430470 11.204469    -0.049140    0.024398    0.998494

[...]

   3 f  =   13.277374 THz    83.424204 2PiTHz  442.885525 cm-1    54.910827 meV
             X         Y         Z           dx          dy          dz
     12.683603  7.857616  7.131976            0           0           0
      4.949918  7.863821  7.169834            0           0           0
      3.577521  5.620094  7.193216            0           0           0
      2.234670  3.345878  7.154251            0           0           0
      3.588588  0.990765  7.110821            0           0           0
      4.926962  3.354828  7.116452            0           0           0
     12.731512  6.386202  2.690597            0           0           0
     14.105799  8.631389  9.480179            0           0           0
      3.647058  4.163312  9.495979            0           0           0
      6.274063  8.644599  9.477172            0           0           0
     11.491434  4.127230  9.537140            0           0           0
      8.881603  8.633250  9.432018            0           0           0
     10.187796  1.861913  9.427011            0           0           0
      2.340374  1.855738  9.624110            0           0           0
     11.497099  8.629906  9.490752            0           0           0
     12.783531  6.400471 10.066465            0           0           0
      4.956006  1.850394  9.539117            0           0           0
      7.576570  6.402574  9.470322            0           0           0
      8.902789  4.139859  9.388397            0           0           0
      4.980874  6.398014 10.050599            0           0           0
      7.573120  1.864025  9.517388            0           0           0
      7.593505  3.388040  7.083691            0           0           0
      6.209203  1.069941  7.080902            0           0           0
      6.252151  1.069120  0.712476            0           0           0
      3.629947  4.060530  2.703952            0           0           0
      0.981966  1.065082  7.041741            0           0           0
      1.009994  1.144150  0.595390            0           0           0
      6.209486  8.689384  2.763651            0           0           0
      6.267519  4.137668  9.544303            0           0           0
      7.513452  4.796155  4.848780            0           0           0
     10.203192  6.384215  9.576969            0           0           0
     14.020167  7.090550  4.919448            0           0           0
     11.338981  5.623081  7.112816            0           0           0
      6.288095  5.644487  7.159711            0           0           0
      7.608368  6.338105  2.701617            0           0           0
      3.570795  2.579196  4.901762            0           0           0
     10.156428  4.936169  4.822298            0           0           0
      6.255588  7.172819  4.925673            0           0           0
      4.835716  0.206390  4.815478            0           0           0
      7.507131  0.386266  4.739423            0           0           0
      8.846987  1.109880  7.033349            0           0           0
     11.380678  2.548167  4.803738            0           0           0
     12.770488  7.830531  0.633320            0           0           0
      4.982628  7.814221  0.650337            0           0           0
      3.669646  5.596209  0.612247            0           0           0
      7.579688  1.938875  2.735304            0           0           0
      8.838755  8.623691  2.695591            0           0           0
      2.230602  3.411877  0.708775            0           0           0
     10.123894  1.908403  2.712351            0           0           0
     12.719051  4.860790  4.977551            0           0           0
      8.833533  5.648091  7.172732            0           0           0
      3.611159  1.030107  0.715746            0           0           0
      8.962440  5.550174  0.783586            0           0           0
      4.990107  3.393744  0.709460            0           0           0
     11.356853  8.542558  2.741032            0           0           0
     11.419743  7.116638  4.853119            0           0           0
      8.870541  4.077644  2.725148            0           0           0
      7.569430  7.842590  7.060871            0           0           0
      7.583454  7.864267  0.687861            0           0           0
     10.179788  6.397321  2.731078            0           0           0
[...]
     10.141670  7.810971  0.645866            0           0           0
      4.909237  4.847227  4.901839            0           0           0
     14.056726  8.675881  2.684563            0           0           0
      8.832903  2.589890  4.859003            0           0           0
      6.184535  2.605925  4.851696            0           0           0
     11.424000  4.064340  2.728447            0           0           0
      2.342315  1.830083  2.729215            0           0           0
     11.414307  5.560394  0.710474            0           0           0
      6.189591  5.580463  0.740954            0           0           0
      6.258266  4.024923  2.703874            0           0           0
     10.122944  3.380842  7.069892            0           0           0
     10.136941  3.379254  0.738921            0           0           0
     10.112477  0.340119  4.852238            0           0           0
      8.831820  7.102214  4.978755            0           0           0
     14.132747  6.430470 11.204469    -0.015873    0.999556   -0.025205

 Finite differences POTIM=  1.500000000000000E-002
  LATTYP: Found a hexagonal cell.
 ALAT       =    10.4600000381
 C/A-ratio  =     2.1032504704

  Lattice vectors:

 A1 = (   5.2300000190,  -9.0586257566,   0.0000000000)
 A2 = ( -10.4600000381,   0.0000000000,   0.0000000000)
 A3 = (   0.0000000000,   0.0000000000, -22.0000000000)

Analysis of symmetry for initial positions (statically):
 Subroutine PRICEL returns:
 Original cell was already a primitive cell.

[...]

The static configuration has the point symmetry C_1 .

Analysis of symmetry for dynamics (positions and initial velocities):
 Subroutine PRICEL returns:
 Original cell was already a primitive cell.

[...]

The dynamic configuration has the point symmetry C_1 .

Analysis of constrained symmetry for selective dynamics:
 Subroutine PRICEL returns:
 Original cell was already a primitive cell.

[...]

The constrained configuration has the point symmetry C_1 .

Analysis of structural, dynamic, and magnetic symmetry:
 Subroutine PRICEL returns:
 Original cell was already a primitive cell.

 Routine SETGRP: Setting up the symmetry group for a
 hexagonal supercell.

 Subroutine GETGRP returns: Found  1 space group operations
 (whereof  1 operations were pure point group operations)
 out of a pool of 24 trial point group operations.

The magnetic configuration has the point symmetry C_1 .

 Subroutine INISYM returns: Found  1 space group operations
 (whereof  1 operations are pure point group operations),
 and found     1 'primitive' translations

 KPOINTS: mesh auto

Automatic generation of k-mesh.
Space group operators:
 irot       det(A)        alpha          n_x          n_y          n_z        tau_x        tau_y        tau_z
    1     1.000000     0.000000     1.000000     0.000000     0.000000     0.000000     0.000000     0.000000

 Subroutine IBZKPT returns following result:

 Found      4 irreducible k-points:

 Following reciprocal coordinates:
            Coordinates               Weight
  0.000000  0.000000  0.000000      1.000000
  0.500000 -0.000000  0.000000      1.000000
  0.000000  0.500000  0.000000      1.000000
  0.500000  0.500000  0.000000      1.000000

 Following cartesian coordinates:
            Coordinates               Weight
  0.000000  0.000000  0.000000      1.000000
  0.047801 -0.027598  0.000000      1.000000
  0.000000  0.055196  0.000000      1.000000
  0.047801  0.027598  0.000000      1.000000

 TETIRR: Found     12 inequivalent tetrahedra from       24
 BZINTS: Fermi energy:  2.595377;782.000000 electrons
         Band energy:-395.937348;  BLOECHL correction: -0.175979