 vasp.5.4.4.18Apr17-6-g9f103f2a35 (build Nov 30 2020 22:55:02) complex

 executed on             LinuxIFC date 2022.03.26  15:31:00

 INCAR:
 POTCAR:    PAW_PBE Pt 04Feb2005
 POTCAR:    PAW_PBE H 15Jun2001

 POTCAR:    PAW_PBE Pt 04Feb2005
   VRHFIN =Pt: s1d9

   TITEL  = PAW_PBE Pt 04Feb2005
   POMASS =  195.080; ZVAL   =   10.000    mass and valenz
   ENMAX  =  230.283; ENMIN  =  172.712 eV

 POTCAR:    PAW_PBE H 15Jun2001
   VRHFIN =H: ultrasoft test

   TITEL  = PAW_PBE H 15Jun2001
   POMASS =    1.000; ZVAL   =    1.000    mass and valenz
   ENMAX  =  250.000; ENMIN  =  200.000 eV

 Optimization of the real space projectors (new method)

 maximal supplied QI-value         = 14.36
 optimisation between [QCUT,QGAM] = [ 11.92, 23.98] = [ 39.79,161.09] Ry
 Optimized for a Real-space Cutoff    1.49 Angstroem

   l    n(q)    QCUT    max X(q) W(low)/X(q) W(high)/X(q)  e(spline)
   2     10    11.920    66.195    0.79E-04    0.18E-03    0.24E-06
   2     10    11.920    64.643    0.81E-04    0.19E-03    0.24E-06
   0     11    11.920    95.520    0.28E-04    0.54E-04    0.18E-06
   0     11    11.920    63.403    0.27E-04    0.52E-04    0.17E-06
   1     10    11.920    19.961    0.18E-04    0.11E-03    0.23E-06
   1     10    11.920    13.289    0.25E-04    0.87E-04    0.19E-06
 Optimization of the real space projectors (new method)

 maximal supplied QI-value         = 34.20
 optimisation between [QCUT,QGAM] = [ 11.97, 23.94] = [ 40.13,160.53] Ry
 Optimized for a Real-space Cutoff    1.18 Angstroem

   l    n(q)    QCUT    max X(q) W(low)/X(q) W(high)/X(q)  e(spline)
   0      8    11.971    19.460    0.15E-03    0.31E-03    0.25E-06
   0      8    11.971    12.209    0.13E-03    0.29E-03    0.25E-06
   1      8    11.971     4.655    0.22E-03    0.24E-03    0.21E-06
  PAW_PBE Pt 04Feb2005                  :
  PAW_PBE H 15Jun2001                   :

 POSCAR: Pt   H
  positions in cartesian coordinates
 exchange correlation table for  LEXCH =        8
   RHO(1)=    0.500       N(1)  =     2000
   RHO(2)=  100.500       N(2)  =     4000

 ion  position               nearest neighbor table
   1  0.785  0.869  0.326-  71 2.75  55 2.75  20 2.76  72 2.80   2 2.80  73 2.81  56 2.81  43 2.81
                             3 2.81  34 2.84  35 2.84  27 2.85
   2  0.035  0.869  0.327-  65 2.76  68 2.76  55 2.76   1 2.80  47 2.80  23 2.81  72 2.81  57 2.81
                             3 2.81  39 2.83  27 2.84  29 2.85
   3  0.035  0.619  0.326-  55 2.76  12 2.76  76 2.76  56 2.80  57 2.80  15 2.80   9 2.81   2 2.81
                             1 2.81  35 2.83  28 2.84  39 2.85
   4  0.785  0.869  0.021-  21 2.79  78 2.79  19 2.79  74 2.81   5 2.81  44 2.81  75 2.81  58 2.81
                             6 2.81
   5  0.035  0.869  0.022-  70 2.79  78 2.79  49 2.79  74 2.80   4 2.81  24 2.81   6 2.81  59 2.81
                            48 2.81
   6  0.035  0.619  0.021-  46 2.79  70 2.79  21 2.79  18 2.80   5 2.81   4 2.81  58 2.81  59 2.81
                            10 2.81
   7  0.619  0.202  0.125-  80 2.73  71 2.74  79 2.74  74 2.79  44 2.79  42 2.79  22 2.81  11 2.81
                            61 2.81  78 2.81  19 2.81  53 2.81
   8  0.368  0.952  0.125-  69 2.73  66 2.74  26 2.75  24 2.79  75 2.79  16 2.79  54 2.80  49 2.80
                            53 2.80  60 2.80  19 2.81  25 2.81
   9  0.035  0.369  0.326-  77 2.75  62 2.76  12 2.76  15 2.80  56 2.80  13 2.80   3 2.81  47 2.81
                            63 2.82  30 2.83  33 2.83  28 2.85
  10  0.035  0.368  0.021-  46 2.79  45 2.79  48 2.79  16 2.79  18 2.80  64 2.80  54 2.80   6 2.81
                            58 2.81
  11  0.869  0.202  0.125-  79 2.73  65 2.73  77 2.74  74 2.79  48 2.79  64 2.80  54 2.80  45 2.80
                            22 2.80  49 2.80   7 2.81  78 2.81
  12  0.952  0.535  0.225-  45 2.73  46 2.73  21 2.73  56 2.75   3 2.76   9 2.76  62 2.80  77 2.81
                            76 2.81  67 2.81  55 2.81  20 2.81
  13  0.285  0.119  0.326-  26 2.75  69 2.76  62 2.76  15 2.80  73 2.80   9 2.80  47 2.81  43 2.81
                            23 2.82  31 2.83  33 2.83  36 2.85
  14  0.535  0.619  0.326-  67 2.75  66 2.75  51 2.76  63 2.79  23 2.79  41 2.81  57 2.81  56 2.81
                            73 2.81  52 2.83  37 2.85  38 2.85
  15  0.285  0.368  0.325-  62 2.74  80 2.75  76 2.75   9 2.80  13 2.80   3 2.80  43 2.80  57 2.81
                            41 2.81  50 2.84  36 2.85  28 2.85
  16  0.284  0.119  0.021-  53 2.79   8 2.79  48 2.79  10 2.79  54 2.80  24 2.80  18 2.80  75 2.81
                            44 2.81
  17  0.535  0.618  0.021-  60 2.79  22 2.79  25 2.79  59 2.80  42 2.80  58 2.81  64 2.81  75 2.81
                            24 2.81
  18  0.285  0.368  0.021-  61 2.79  53 2.79  46 2.79  10 2.80  16 2.80   6 2.80  44 2.80  42 2.81
                            59 2.81
  19  0.618  0.952  0.125-  20 2.73  69 2.73  71 2.73  75 2.79  44 2.79   4 2.79  53 2.80  25 2.81
                            21 2.81  78 2.81   7 2.81   8 2.81
  20  0.702  0.785  0.225-  19 2.73  21 2.73  25 2.74  73 2.76  56 2.76   1 2.76  67 2.80  66 2.80
                            55 2.81  71 2.81  12 2.81  69 2.81
  21  0.868  0.702  0.125-  20 2.73  12 2.73  55 2.74  58 2.79   4 2.79   6 2.79  46 2.80  78 2.81
                            19 2.81  25 2.81  70 2.81  45 2.81
  22  0.619  0.452  0.125-  51 2.74  67 2.74  79 2.74  42 2.79  64 2.79  17 2.79  45 2.80  11 2.80
                            25 2.80   7 2.81  60 2.81  61 2.81
  23  0.286  0.867  0.327-  26 2.76  68 2.77  66 2.77  14 2.79  57 2.79   2 2.81  73 2.81  47 2.82
                            13 2.82  37 2.83  31 2.84  29 2.84
  24  0.285  0.869  0.021-  60 2.79   8 2.79  49 2.80  16 2.80  48 2.80  75 2.80  59 2.81   5 2.81
                            17 2.81
  25  0.618  0.702  0.125-  66 2.74  20 2.74  67 2.74  58 2.78  75 2.79  17 2.79  60 2.80  22 2.80
                            19 2.81  21 2.81   8 2.81  45 2.81
  26  0.202  0.034  0.226-  49 2.74   8 2.75  54 2.75  13 2.75  47 2.75  23 2.76  68 2.79  66 2.80
                            65 2.80  69 2.81  62 2.82  77 2.83
  27  0.869  0.953  0.433-  97 1.85  87 1.85  96 1.85  34 2.80  35 2.80  29 2.80  32 2.80  39 2.81
                            40 2.81  72 2.84   2 2.84   1 2.85
  28  0.120  0.453  0.432-  89 1.85  90 1.85  88 1.85  36 2.80  39 2.80  30 2.80  50 2.81  35 2.81
                            33 2.81   3 2.84   9 2.85  15 2.85
  29  0.119  0.953  0.433-  84 1.83  94 1.84  97 1.85  32 2.80  27 2.80  33 2.80  39 2.81  31 2.81
                            37 2.82  47 2.84  23 2.84   2 2.85
  30  0.870  0.452  0.432-  83 1.78  89 1.85  93 1.85  33 2.80  28 2.80  35 2.81  32 2.81  52 2.81
                            38 2.83   9 2.83  63 2.84  56 2.84
  31  0.369  0.954  0.432-  85 1.78  95 1.85  94 1.85  33 2.80  36 2.80  34 2.81  29 2.81  52 2.81
                            37 2.83  13 2.83  23 2.84  73 2.84
  32  0.869  0.202  0.433-  92 1.83  93 1.84  97 1.85  29 2.80  27 2.80  33 2.80  40 2.81  30 2.81
                            38 2.82  63 2.84  47 2.84  72 2.85
  33  0.119  0.203  0.432-  90 1.85  94 1.86  93 1.86  30 2.80  31 2.80  32 2.80  29 2.80  36 2.81
                            28 2.81   9 2.83  13 2.83  47 2.84
  34  0.619  0.954  0.432-  96 1.85  86 1.85  95 1.85  52 2.80  40 2.80  27 2.80  36 2.81  31 2.81
                            35 2.81  43 2.83   1 2.84  73 2.85
  35  0.870  0.703  0.432-  87 1.85  86 1.85  89 1.85  52 2.80  27 2.80  39 2.80  28 2.81  30 2.81
                            34 2.81   3 2.83   1 2.84  56 2.85
  36  0.369  0.203  0.432-  95 1.85  90 1.85  91 1.85  28 2.80  31 2.80  40 2.80  50 2.81  34 2.81
                            33 2.81  43 2.84  13 2.85  15 2.85
  37  0.370  0.701  0.433-  84 1.87  85 1.94  82 2.16  81 2.16  38 2.78  50 2.79  39 2.81  52 2.82
                            29 2.82  31 2.83  23 2.83  14 2.85  57 2.86
  38  0.618  0.454  0.433-  92 1.87  83 1.94  81 2.15  82 2.16  37 2.78  50 2.79  40 2.81  52 2.82
                            32 2.82  30 2.83  63 2.83  14 2.85  41 2.86
  39  0.120  0.702  0.432-  84 1.85  88 1.85  87 1.85  35 2.80  50 2.80  28 2.80  37 2.81  29 2.81
                            27 2.81   2 2.83  57 2.83   3 2.85
  40  0.619  0.203  0.432-  92 1.85  91 1.85  96 1.85  34 2.80  50 2.80  36 2.80  38 2.81  32 2.81
                            27 2.81  72 2.83  41 2.83  43 2.85
  41  0.535  0.369  0.326-  79 2.75  51 2.76  80 2.76  63 2.79  50 2.80  43 2.80  57 2.80  72 2.81
                            14 2.81  15 2.81  40 2.83  38 2.86
  42  0.535  0.369  0.021-  61 2.79  22 2.79   7 2.79  17 2.80  59 2.80  64 2.81  74 2.81  44 2.81
                            18 2.81
  43  0.535  0.119  0.326-  71 2.76  69 2.76  80 2.76  73 2.80  41 2.80  15 2.80  13 2.81   1 2.81
                            72 2.81  34 2.83  36 2.84  40 2.85
  44  0.535  0.119  0.021-  53 2.79   7 2.79  19 2.79  18 2.80   4 2.81  74 2.81  75 2.81  42 2.81
                            16 2.81
  45  0.869  0.452  0.125-  12 2.73  67 2.74  77 2.75  64 2.79  58 2.79  10 2.79  54 2.80  46 2.80
                            11 2.80  22 2.80  21 2.81  25 2.81
  46  0.118  0.452  0.125-  12 2.73  76 2.74  62 2.74   6 2.79  10 2.79  18 2.79  45 2.80  21 2.80
                            61 2.81  53 2.81  54 2.81  70 2.81
  47  0.035  0.119  0.327-  26 2.75  77 2.75  65 2.76   2 2.80  72 2.80  13 2.81   9 2.81  23 2.82
                            63 2.82  33 2.84  32 2.84  29 2.84
  48  0.036  0.119  0.022-  49 2.79  11 2.79  54 2.79  16 2.79  10 2.79  24 2.80  64 2.80  74 2.81
                             5 2.81
  49  0.118  0.952  0.125-  68 2.73  65 2.74  26 2.74  48 2.79   5 2.79  24 2.80  54 2.80   8 2.80
                            60 2.80  11 2.80  70 2.80  78 2.81
  50  0.369  0.453  0.430-  91 1.85  88 1.85  38 2.79  37 2.79  57 2.80  41 2.80  40 2.80  39 2.80
                            36 2.81  28 2.81  15 2.84
  51  0.452  0.536  0.225-  22 2.74  60 2.74  61 2.74  57 2.76  41 2.76  14 2.76  66 2.80  68 2.80
                            76 2.80  67 2.80  80 2.80  79 2.81
  52  0.620  0.704  0.431-  86 1.85  83 1.85  85 1.86  35 2.80  34 2.80  31 2.81  73 2.81  56 2.81
                            30 2.81  37 2.82  38 2.82  14 2.83
  53  0.368  0.202  0.125-  69 2.73  62 2.74  80 2.74  44 2.79  16 2.79  18 2.79   8 2.80  19 2.80
                            61 2.81  46 2.81   7 2.81  54 2.81
  54  0.118  0.202  0.126-  62 2.72  77 2.75  26 2.75  48 2.79  11 2.80  16 2.80  45 2.80  49 2.80
                            10 2.80   8 2.80  46 2.81  53 2.81
  55  0.952  0.785  0.225-  78 2.73  21 2.74  70 2.74   1 2.75   3 2.76   2 2.76  76 2.80  68 2.80
                            65 2.80  20 2.81  71 2.81  12 2.81
  56  0.786  0.619  0.326-  12 2.75  20 2.76  67 2.76   3 2.80   9 2.80   1 2.81  63 2.81  14 2.81
                            52 2.81  73 2.82  30 2.84  35 2.85
  57  0.285  0.619  0.326-  68 2.75  51 2.76  76 2.76  23 2.79  50 2.80   3 2.80  41 2.80   2 2.81
                            14 2.81  15 2.81  39 2.83  37 2.86
  58  0.785  0.619  0.022-  25 2.78  21 2.79  45 2.79  64 2.80  75 2.81  17 2.81   4 2.81   6 2.81
[...]
     10.889925  1.965710  9.524959            0           0           0
      2.471558  1.968742  9.510579            0           0           0
     12.300381  9.267989  9.508187            0           0           0
     13.706395  6.830905  9.508664            0           0           0
      5.280563  1.975926  9.509514            0           0           0
      8.088035  6.815150  9.525143            0           0           0
      9.477059  4.409499  9.526521            0           0           0
      5.282929  6.824907  9.508685            0           0           0
      8.082890  1.975478  9.508429            0           0           0
      8.074390  3.584337  7.175679            0           0           0
      8.077272  3.587030  0.470508            0           0           0
      6.672643  1.156680  7.176048            0           0           0
      6.672076  1.154635  0.472890            0           0           0
     12.284110  4.389839  2.746115            0           0           0
      3.863468  4.392773  2.739994            0           0           0
      1.060679  1.152701  7.190154            0           0           0
      1.066590  1.157072  0.478368            0           0           0
      6.671639  9.253447  2.749579            0           0           0
      6.688113  4.402642  9.465379            0           0           0
      8.076365  5.205086  4.945668            0           0           0
     10.908899  6.840427  9.477644            0           0           0
      5.267669  1.962268  2.740126            0           0           0
      2.459271  1.961801  2.761219            0           0           0
     15.089576  7.633079  4.947130            0           0           0
     12.294586  6.012946  7.173345            0           0           0
      6.671511  6.012192  7.175658            0           0           0
     12.281723  6.012694  0.475460            0           0           0
      6.677284  6.013579  0.470788            0           0           0
      8.075124  6.825604  2.741994            0           0           0
[...]
     11.008444  5.231951 10.394037            0           0           0
      6.666458  7.655171 10.408899            0           0           0
      9.563003  7.729551 10.394112            0           0           0
     12.301431  7.644757 10.397779            0           0           0
     15.102070  7.634925 10.410910            0           0           0
      5.300747  5.198671 10.398091            0           0           0
     13.705518  5.209943 10.406480            0           0           0
      3.874494  2.778682 10.408107            0           0           0
      6.682865  2.803472 10.398178            0           0           0
      9.494757  2.756507 10.408160            0           0           0
     12.284399  2.780076 10.416358            0           0           0
      2.469952  0.342081 10.416035            0           0           0
      5.284124  0.357747 10.406224            0           0           0
      8.083337  0.355267 10.410656            0           0           0
     10.886997  0.347291 10.422596            0           0           0

   4 f/i=    8.453973 THz    53.117882 2PiTHz  281.994192 cm-1    34.962836 meV
             X         Y         Z           dx          dy          dz
     13.692401  8.447265  7.176541            0           0           0
      5.271668  8.444372  7.183943            0           0           0
      3.869255  6.012071  7.175994            0           0           0
     13.686629  8.443799  0.472164            0           0           0
      5.269380  8.444031  0.474631            0           0           0
      3.867995  6.011997  0.471757            0           0           0
      8.075912  1.964260  2.742712            0           0           0
      9.474961  9.254960  2.745920            0           0           0
      2.465381  3.582566  7.180758            0           0           0
      2.463309  3.577305  0.470828            0           0           0
     10.881494  1.963687  2.750343            0           0           0
     13.687947  5.200053  4.944878            0           0           0
      3.866059  1.155151  7.180712            0           0           0
      9.481977  6.015485  7.176244            0           0           0
      5.262712  3.579791  7.155996            0           0           0
      3.859773  1.156708  0.472722            0           0           0
      9.475445  6.011236  0.467370            0           0           0
      5.265057  3.580881  0.467628            0           0           0
     12.282548  9.252811  2.745035            0           0           0
     12.284098  7.633291  4.944913            0           0           0
     13.685666  6.823122  2.743683            0           0           0
      9.480075  4.392768  2.743198            0           0           0
      8.076751  8.425859  7.200683            0           0           0
      8.075396  8.446221  0.471242            0           0           0
     10.879603  6.823537  2.741022            0           0           0
      2.460712  0.328947  4.968577            0           0           0
     15.099228  9.258722  9.515239            0           0           0
      3.882681  4.398210  9.509732            0           0           0
      6.678590  9.259816  9.526193            0           0           0
     12.303244  4.396678  9.510701            0           0           0
      9.490483  9.268652  9.510163            0           0           0
     10.889925  1.965710  9.524959            0           0           0
      2.471558  1.968742  9.510579            0           0           0
     12.300381  9.267989  9.508187            0           0           0
     13.706395  6.830905  9.508664            0           0           0
      5.280563  1.975926  9.509514            0           0           0
      8.088035  6.815150  9.525143            0           0           0
      9.477059  4.409499  9.526521            0           0           0
      5.282929  6.824907  9.508685            0           0           0
      8.082890  1.975478  9.508429            0           0           0
      8.074390  3.584337  7.175679            0           0           0
      8.077272  3.587030  0.470508            0           0           0
      6.672643  1.156680  7.176048            0           0           0
      6.672076  1.154635  0.472890            0           0           0
     12.284110  4.389839  2.746115            0           0           0
      3.863468  4.392773  2.739994            0           0           0
      1.060679  1.152701  7.190154            0           0           0
      1.066590  1.157072  0.478368            0           0           0
      6.671639  9.253447  2.749579            0           0           0
      6.688113  4.402642  9.465379            0           0           0
      8.076365  5.205086  4.945668            0           0           0
     10.908899  6.840427  9.477644            0           0           0
      5.267669  1.962268  2.740126            0           0           0
      2.459271  1.961801  2.761219            0           0           0
     15.089576  7.633079  4.947130            0           0           0
     12.294586  6.012946  7.173345            0           0           0
      6.671511  6.012192  7.175658            0           0           0
     12.281723  6.012694  0.475460            0           0           0
      6.677284  6.013579  0.470788            0           0           0
      8.075124  6.825604  2.741994            0           0           0
[...]
     11.008444  5.231951 10.394037            0           0           0
      6.666458  7.655171 10.408899            0           0           0
      9.563003  7.729551 10.394112            0           0           0
     12.301431  7.644757 10.397779            0           0           0
     15.102070  7.634925 10.410910            0           0           0
      5.300747  5.198671 10.398091            0           0           0
     13.705518  5.209943 10.406480            0           0           0
      3.874494  2.778682 10.408107            0           0           0
      6.682865  2.803472 10.398178            0           0           0
      9.494757  2.756507 10.408160            0           0           0
     12.284399  2.780076 10.416358            0           0           0
      2.469952  0.342081 10.416035            0           0           0
      5.284124  0.357747 10.406224            0           0           0
      8.083337  0.355267 10.410656            0           0           0
     10.886997  0.347291 10.422596            0           0           0

[...]

   6 f/i=   19.579537 THz   123.021860 2PiTHz  653.103036 cm-1    80.974485 meV
             X         Y         Z           dx          dy          dz
     13.692401  8.447265  7.176541            0           0           0
      5.271668  8.444372  7.183943            0           0           0
      3.869255  6.012071  7.175994            0           0           0
     13.686629  8.443799  0.472164            0           0           0
      5.269380  8.444031  0.474631            0           0           0
      3.867995  6.011997  0.471757            0           0           0
      8.075912  1.964260  2.742712            0           0           0
      9.474961  9.254960  2.745920            0           0           0
      2.465381  3.582566  7.180758            0           0           0
      2.463309  3.577305  0.470828            0           0           0
     10.881494  1.963687  2.750343            0           0           0
     13.687947  5.200053  4.944878            0           0           0
      3.866059  1.155151  7.180712            0           0           0
      9.481977  6.015485  7.176244            0           0           0
      5.262712  3.579791  7.155996            0           0           0
      3.859773  1.156708  0.472722            0           0           0
      9.475445  6.011236  0.467370            0           0           0
      5.265057  3.580881  0.467628            0           0           0
     12.282548  9.252811  2.745035            0           0           0
     12.284098  7.633291  4.944913            0           0           0
     13.685666  6.823122  2.743683            0           0           0
      9.480075  4.392768  2.743198            0           0           0
      8.076751  8.425859  7.200683            0           0           0
      8.075396  8.446221  0.471242            0           0           0
     10.879603  6.823537  2.741022            0           0           0
      2.460712  0.328947  4.968577            0           0           0
     15.099228  9.258722  9.515239            0           0           0
      3.882681  4.398210  9.509732            0           0           0
      6.678590  9.259816  9.526193            0           0           0
     12.303244  4.396678  9.510701            0           0           0
      9.490483  9.268652  9.510163            0           0           0
     10.889925  1.965710  9.524959            0           0           0
      2.471558  1.968742  9.510579            0           0           0
     12.300381  9.267989  9.508187            0           0           0
     13.706395  6.830905  9.508664            0           0           0
      5.280563  1.975926  9.509514            0           0           0
      8.088035  6.815150  9.525143            0           0           0
      9.477059  4.409499  9.526521            0           0           0
      5.282929  6.824907  9.508685            0           0           0
      8.082890  1.975478  9.508429            0           0           0
      8.074390  3.584337  7.175679            0           0           0
      8.077272  3.587030  0.470508            0           0           0
      6.672643  1.156680  7.176048            0           0           0
      6.672076  1.154635  0.472890            0           0           0
     12.284110  4.389839  2.746115            0           0           0
      3.863468  4.392773  2.739994            0           0           0
      1.060679  1.152701  7.190154            0           0           0
      1.066590  1.157072  0.478368            0           0           0
      6.671639  9.253447  2.749579            0           0           0
      6.688113  4.402642  9.465379            0           0           0
      8.076365  5.205086  4.945668            0           0           0
     10.908899  6.840427  9.477644            0           0           0
      5.267669  1.962268  2.740126            0           0           0
      2.459271  1.961801  2.761219            0           0           0
     15.089576  7.633079  4.947130            0           0           0
     12.294586  6.012946  7.173345            0           0           0
      6.671511  6.012192  7.175658            0           0           0
     12.281723  6.012694  0.475460            0           0           0
      6.677284  6.013579  0.470788            0           0           0
      8.075124  6.825604  2.741994            0           0           0
[...]
     11.008444  5.231951 10.394037            0           0           0
      6.666458  7.655171 10.408899            0           0           0
      9.563003  7.729551 10.394112            0           0           0
     12.301431  7.644757 10.397779            0           0           0
     15.102070  7.634925 10.410910            0           0           0
      5.300747  5.198671 10.398091            0           0           0
     13.705518  5.209943 10.406480            0           0           0
      3.874494  2.778682 10.408107            0           0           0
      6.682865  2.803472 10.398178            0           0           0
      9.494757  2.756507 10.408160            0           0           0
     12.284399  2.780076 10.416358            0           0           0
      2.469952  0.342081 10.416035            0           0           0
      5.284124  0.357747 10.406224            0           0           0
      8.083337  0.355267 10.410656            0           0           0
     10.886997  0.347291 10.422596            0           0           0

 Finite differences POTIM=  1.500000000000000E-002
  LATTYP: Found a hexagonal cell.
 ALAT       =    11.2227001190
 C/A-ratio  =     1.9603125600

  Lattice vectors:

 A1 = (   5.6113500595,  -9.7191434021,   0.0000000000)
 A2 = ( -11.2227001190,   0.0000000000,   0.0000000000)
 A3 = (   0.0000000000,   0.0000000000, -22.0000000000)

Analysis of symmetry for initial positions (statically):
 Subroutine PRICEL returns:
 Original cell was already a primitive cell.

[...]

The static configuration has the point symmetry C_1 .

Analysis of symmetry for dynamics (positions and initial velocities):
 Subroutine PRICEL returns:
 Original cell was already a primitive cell.

[...]

The dynamic configuration has the point symmetry C_1 .

Analysis of constrained symmetry for selective dynamics:
 Subroutine PRICEL returns:
 Original cell was already a primitive cell.

[...]

The constrained configuration has the point symmetry C_1 .

Analysis of structural, dynamic, and magnetic symmetry:
 Subroutine PRICEL returns:
 Original cell was already a primitive cell.

 Routine SETGRP: Setting up the symmetry group for a
 hexagonal supercell.

 Subroutine GETGRP returns: Found  1 space group operations
 (whereof  1 operations were pure point group operations)
 out of a pool of 24 trial point group operations.

The magnetic configuration has the point symmetry C_1 .

 Subroutine INISYM returns: Found  1 space group operations
 (whereof  1 operations are pure point group operations),
 and found     1 'primitive' translations

 KPOINTS: mesh auto

Automatic generation of k-mesh.
Space group operators:
 irot       det(A)        alpha          n_x          n_y          n_z        tau_x        tau_y        tau_z
    1     1.000000     0.000000     1.000000     0.000000     0.000000     0.000000     0.000000     0.000000

 Subroutine IBZKPT returns following result:

 Found      4 irreducible k-points:

 Following reciprocal coordinates:
            Coordinates               Weight
  0.000000  0.000000  0.000000      1.000000
  0.500000  0.000000  0.000000      1.000000
  0.000000  0.500000  0.000000      1.000000
  0.500000  0.500000  0.000000      1.000000

 Following cartesian coordinates:
            Coordinates               Weight
  0.000000  0.000000  0.000000      1.000000
  0.044553 -0.025722  0.000000      1.000000
  0.000000  0.051445  0.000000      1.000000
  0.044553  0.025722  0.000000      1.000000