 vasp.5.4.4.18Apr17-6-g9f103f2a35 (build Nov 30 2020 22:55:02) complex

 executed on             LinuxIFC date 2021.10.21  21:00:48

 INCAR:
 POTCAR:    PAW_PBE Pt 04Feb2005
 POTCAR:    PAW_PBE H 15Jun2001
 POTCAR:    PAW_PBE Pt 04Feb2005
   VRHFIN =Pt: s1d9

   TITEL  = PAW_PBE Pt 04Feb2005
   POMASS =  195.080; ZVAL   =   10.000    mass and valenz
   ENMAX  =  230.283; ENMIN  =  172.712 eV

 POTCAR:    PAW_PBE H 15Jun2001
   VRHFIN =H: ultrasoft test

   TITEL  = PAW_PBE H 15Jun2001
   POMASS =    1.000; ZVAL   =    1.000    mass and valenz
   ENMAX  =  250.000; ENMIN  =  200.000 eV

 Optimization of the real space projectors (new method)

 maximal supplied QI-value         = 14.36
 optimisation between [QCUT,QGAM] = [ 11.92, 23.98] = [ 39.79,161.09] Ry
 Optimized for a Real-space Cutoff    1.49 Angstroem

   l    n(q)    QCUT    max X(q) W(low)/X(q) W(high)/X(q)  e(spline)
   2     10    11.920    66.195    0.79E-04    0.18E-03    0.24E-06
   2     10    11.920    64.643    0.81E-04    0.19E-03    0.24E-06
   0     11    11.920    95.520    0.28E-04    0.54E-04    0.18E-06
   0     11    11.920    63.403    0.27E-04    0.52E-04    0.17E-06
   1     10    11.920    19.961    0.18E-04    0.11E-03    0.23E-06
   1     10    11.920    13.289    0.25E-04    0.87E-04    0.19E-06
 Optimization of the real space projectors (new method)

 maximal supplied QI-value         = 34.20
 optimisation between [QCUT,QGAM] = [ 11.97, 23.94] = [ 40.13,160.53] Ry
 Optimized for a Real-space Cutoff    1.18 Angstroem

   l    n(q)    QCUT    max X(q) W(low)/X(q) W(high)/X(q)  e(spline)
   0      8    11.971    19.460    0.15E-03    0.31E-03    0.25E-06
   0      8    11.971    12.209    0.13E-03    0.29E-03    0.25E-06
   1      8    11.971     4.655    0.22E-03    0.24E-03    0.21E-06
  PAW_PBE Pt 04Feb2005                  :
  PAW_PBE H 15Jun2001                   :

 POSCAR: Pt111
  positions in direct lattice
  velocities in cartesian coordinates
 exchange correlation table for  LEXCH =        8
   RHO(1)=    0.500       N(1)  =     2000
   RHO(2)=  100.500       N(2)  =     4000

 ion  position               nearest neighbor table
   1  0.783  0.870  0.326-  20 2.73  71 2.73  55 2.73  27 2.78  35 2.79  34 2.79  43 2.79  56 2.80
                            73 2.80   3 2.81  72 2.81   2 2.81
   2  0.033  0.871  0.327-  65 2.73  55 2.73  68 2.74  27 2.78  39 2.78  29 2.79  72 2.79   3 2.81
                            47 2.81  23 2.81   1 2.81  57 2.82
   3  0.034  0.620  0.327-  76 2.73  12 2.73  55 2.73  35 2.78  28 2.78  39 2.78   9 2.80  57 2.80
                             2 2.81   1 2.81  56 2.81  15 2.82
   4  0.788  0.867  0.024-  21 2.78  78 2.78  19 2.78  44 2.80   6 2.80  74 2.81  75 2.81  58 2.82
                             5 2.82
   5  0.039  0.866  0.024-  70 2.78  49 2.78  59 2.78  78 2.79  24 2.80   6 2.81  74 2.81   4 2.82
                            48 2.82
   6  0.037  0.617  0.024-  70 2.78  46 2.78  21 2.78  10 2.79   4 2.80   5 2.81  59 2.81  58 2.81
                            18 2.81
   7  0.620  0.202  0.126-  71 2.72  79 2.73  80 2.74  42 2.78  44 2.78  74 2.79  22 2.80  53 2.80
                            11 2.81  78 2.81  61 2.81  19 2.82
   8  0.370  0.952  0.126-  69 2.73  66 2.73  26 2.74  16 2.78  24 2.78  75 2.79  25 2.80  49 2.80
                            19 2.80  54 2.81  53 2.81  60 2.81
   9  0.035  0.370  0.327-  12 2.73  77 2.73  62 2.74  28 2.77  33 2.78  30 2.78   3 2.80  47 2.81
                            63 2.81  13 2.81  15 2.81  56 2.81
  10  0.038  0.368  0.024-  54 2.78  46 2.78  45 2.79   6 2.79  18 2.80  58 2.80  48 2.80  16 2.80
                            64 2.82
  11  0.870  0.202  0.127-  65 2.72  77 2.73  79 2.74  64 2.77  74 2.78  48 2.78  45 2.80  49 2.81
                             7 2.81  54 2.81  78 2.81  22 2.82
  12  0.951  0.536  0.227-   9 2.73  21 2.73   3 2.73  56 2.73  45 2.73  46 2.74  77 2.80  55 2.80
                            20 2.80  67 2.81  76 2.81  62 2.82
  13  0.285  0.119  0.327-  62 2.73  26 2.73  69 2.74  36 2.78  33 2.78  31 2.78  73 2.80  43 2.80
                            47 2.81   9 2.81  23 2.81  15 2.81
  14  0.534  0.619  0.327-  51 2.73  66 2.73  67 2.74  38 2.78  52 2.78  37 2.79  41 2.80  57 2.80
                            73 2.80  56 2.81  23 2.81  63 2.81
  15  0.285  0.370  0.327-  76 2.73  62 2.73  80 2.74  36 2.77  50 2.78  28 2.78  57 2.80  41 2.80
                            43 2.81   9 2.81  13 2.81   3 2.82
  16  0.288  0.118  0.024-   8 2.78  53 2.78  54 2.79  18 2.79  48 2.80  10 2.80  24 2.81  44 2.81
                            75 2.81
  17  0.537  0.617  0.023-  25 2.78  22 2.78  60 2.80  42 2.80  58 2.80  75 2.80  64 2.80  59 2.81
                            24 2.81
  18  0.288  0.367  0.024-  53 2.77  61 2.78  42 2.79  16 2.79  46 2.79  10 2.80  59 2.81  44 2.81
                             6 2.81
  19  0.620  0.951  0.126-  71 2.73  20 2.73  69 2.74  44 2.77  75 2.78   4 2.78  21 2.80  53 2.80
                             8 2.80  25 2.81  78 2.81   7 2.82
  20  0.700  0.786  0.226-   1 2.73  19 2.73  25 2.73  56 2.73  73 2.74  21 2.74  69 2.79  67 2.80
                            66 2.80  12 2.80  55 2.81  71 2.81
  21  0.869  0.701  0.127-  12 2.73  55 2.73  20 2.74   4 2.78  58 2.78   6 2.78  19 2.80  45 2.80
                            46 2.81  25 2.81  70 2.81  78 2.81
  22  0.619  0.452  0.126-  79 2.73  67 2.73  51 2.74  42 2.78  17 2.78  64 2.79   7 2.80  25 2.80
                            61 2.80  60 2.80  45 2.81  11 2.82
  23  0.283  0.870  0.327-  26 2.73  68 2.73  66 2.74  29 2.78  31 2.79  37 2.79  47 2.80  57 2.80
                            73 2.80   2 2.81  14 2.81  13 2.81
  24  0.288  0.868  0.023-   8 2.78  60 2.78  49 2.79  75 2.80   5 2.80  48 2.80  16 2.81  17 2.81
                            59 2.82
  25  0.618  0.702  0.126-  67 2.73  20 2.73  66 2.75  75 2.77  17 2.78  58 2.79   8 2.80  60 2.80
                            22 2.80  45 2.81  21 2.81  19 2.81
  26  0.203  0.036  0.227-  54 2.72  23 2.73  49 2.73  47 2.73  13 2.73   8 2.74  66 2.80  69 2.80
                            65 2.81  68 2.81  77 2.81  62 2.81
  27  0.865  0.953  0.429-   1 2.78   2 2.78  72 2.78  40 2.79  35 2.79  39 2.80  34 2.80  32 2.81
                            29 2.83
  28  0.117  0.453  0.429-   9 2.77   3 2.78  15 2.78  36 2.80  35 2.80  33 2.81  30 2.81  39 2.81
                            50 2.82
  29  0.117  0.954  0.429-  23 2.78  47 2.78   2 2.79  32 2.79  33 2.80  39 2.80  37 2.80  31 2.81
                            27 2.83
  30  0.867  0.453  0.429-  56 2.78  63 2.78   9 2.78  38 2.80  35 2.80  52 2.80  33 2.81  28 2.81
                            32 2.82
  31  0.368  0.953  0.430-  13 2.78  73 2.78  23 2.79  34 2.79  52 2.80  37 2.81  29 2.81  33 2.81
                            36 2.82
  32  0.867  0.202  0.429-  72 2.77  63 2.78  47 2.78  29 2.79  40 2.80  38 2.81  27 2.81  33 2.81
                            30 2.82
  33  0.117  0.203  0.429-   9 2.78  47 2.78  13 2.78  29 2.80  28 2.81  30 2.81  32 2.81  31 2.81
                            36 2.81
  34  0.616  0.952  0.430-  73 2.78  43 2.78  31 2.79   1 2.79  52 2.80  27 2.80  36 2.81  35 2.81
                            40 2.81
  35  0.867  0.703  0.429-   3 2.78  56 2.78   1 2.79  27 2.79  39 2.80  30 2.80  28 2.80  34 2.81
                            52 2.82
  36  0.367  0.204  0.430-  15 2.77  13 2.78  43 2.79  40 2.80  28 2.80  50 2.80  34 2.81  33 2.81
                            31 2.82
  37  0.366  0.703  0.430-  81 1.75  57 2.78  23 2.79  14 2.79  50 2.80  39 2.80  29 2.80  31 2.81
                            52 2.81  38 2.82
  38  0.618  0.453  0.430-  81 1.75  14 2.78  41 2.78  63 2.79  30 2.80  50 2.80  52 2.80  32 2.81
                            40 2.81  37 2.82
  39  0.116  0.705  0.430-   3 2.78  57 2.78   2 2.78  37 2.80  35 2.80  27 2.80  29 2.80  28 2.81
                            50 2.83
  40  0.618  0.202  0.429-  43 2.78  41 2.78  72 2.79  27 2.79  36 2.80  32 2.80  50 2.80  38 2.81
                            34 2.81
  41  0.535  0.369  0.327-  80 2.73  51 2.73  79 2.74  40 2.78  38 2.78  50 2.78  14 2.80  72 2.80
                            63 2.80  15 2.80  43 2.81  57 2.82
  42  0.536  0.368  0.024-   7 2.78  22 2.78  18 2.79  61 2.79  59 2.80  17 2.80  44 2.81  64 2.81
                            74 2.83
  43  0.535  0.119  0.327-  80 2.73  69 2.73  71 2.74  40 2.78  34 2.78  36 2.79   1 2.79  13 2.80
                            72 2.80  15 2.81  73 2.81  41 2.81
  44  0.539  0.117  0.024-  19 2.77   7 2.78  53 2.79   4 2.80  42 2.81  74 2.81  16 2.81  18 2.81
                            75 2.81
  45  0.869  0.452  0.127-  77 2.72  12 2.73  67 2.74  58 2.77  64 2.78  10 2.79  11 2.80  21 2.80
                            25 2.81  22 2.81  54 2.81  46 2.81
  46  0.120  0.452  0.127-  62 2.73  76 2.73  12 2.74  10 2.78   6 2.78  18 2.79  54 2.80  70 2.80
                            61 2.80  21 2.81  45 2.81  53 2.82
  47  0.035  0.120  0.326-  77 2.73  26 2.73  65 2.73  32 2.78  33 2.78  29 2.78  23 2.80  63 2.80
                             2 2.81   9 2.81  13 2.81  72 2.81
  48  0.038  0.118  0.024-  49 2.77  11 2.78  54 2.78  16 2.80  10 2.80  24 2.80  64 2.81  74 2.81
                             5 2.82
  49  0.120  0.952  0.127-  68 2.73  26 2.73  65 2.74  48 2.77   5 2.78  24 2.79  60 2.80   8 2.80
                            11 2.81  78 2.81  54 2.81  70 2.82
  50  0.369  0.453  0.430-  15 2.78  57 2.78  41 2.78  37 2.80  38 2.80  36 2.80  40 2.80  28 2.82
                            39 2.83
  51  0.451  0.536  0.227-  61 2.73  14 2.73  41 2.73  60 2.73  57 2.74  22 2.74  66 2.80  76 2.80
                            67 2.80  80 2.80  68 2.80  79 2.81
  52  0.616  0.703  0.430-  81 1.76  14 2.78  73 2.79  56 2.79  34 2.80  38 2.80  31 2.80  30 2.80
                            37 2.81  35 2.82
  53  0.371  0.201  0.127-  69 2.72  80 2.73  62 2.74  18 2.77  16 2.78  44 2.79  19 2.80   7 2.80
                            61 2.80  54 2.80   8 2.81  46 2.82
  54  0.121  0.202  0.127-  26 2.72  62 2.73  77 2.73  10 2.78  48 2.78  16 2.79  46 2.80  53 2.80
                             8 2.81  11 2.81  45 2.81  49 2.81
  55  0.951  0.786  0.227-  78 2.73  21 2.73   2 2.73   1 2.73   3 2.73  70 2.74  71 2.80  12 2.80
                            20 2.81  76 2.81  68 2.81  65 2.81
  56  0.784  0.620  0.327-  12 2.73  20 2.73  67 2.74  30 2.78  35 2.78  52 2.79  63 2.80   1 2.80
                            73 2.80  14 2.81   9 2.81   3 2.81
  57  0.284  0.620  0.327-  76 2.73  68 2.73  51 2.74  37 2.78  50 2.78  39 2.78  23 2.80  14 2.80
                            15 2.80   3 2.80   2 2.82  41 2.82
  58  0.787  0.616  0.024-  45 2.77  21 2.78  25 2.79  10 2.80  17 2.80  64 2.80  75 2.80   6 2.81
                             4 2.82
  59  0.287  0.618  0.024-  60 2.77  61 2.78   5 2.78  70 2.79  42 2.80   6 2.81  17 2.81  18 2.81
                            24 2.82
  60  0.369  0.702  0.126-  66 2.73  51 2.73  68 2.75  59 2.77  24 2.78  49 2.80  25 2.80  17 2.80
                            22 2.80  61 2.81  70 2.81   8 2.81
[...]

 FORCES acting on ions
    electron-ion (+dipol)            ewald-force                    non-local-force                 convergence-correction
   0.618E+00 0.410E+00 -.131E+04   -.608E+00 -.443E+00 0.131E+04   -.134E-01 -.147E-01 0.711E+00   -.389E-02 0.400E-01 0.133E-01
   -.405E+00 0.414E+00 -.131E+04   0.429E+00 -.400E+00 0.131E+04   0.218E-01 -.106E-01 0.725E+00   -.359E-01 -.921E-02 0.237E-01
   0.144E+00 -.363E+00 -.131E+04   -.168E+00 0.304E+00 0.131E+04   0.357E-02 -.107E-01 0.757E+00   0.219E-01 0.727E-01 0.269E-01
   0.802E+00 0.246E+00 0.260E+04   -.784E+00 -.303E+00 -.260E+04   -.153E-01 0.399E-01 -.145E+01   -.257E-01 0.223E-01 0.103E-01
   -.635E+00 0.106E+01 0.260E+04   0.677E+00 -.106E+01 -.260E+04   -.171E-01 -.195E-01 -.145E+01   -.155E-01 0.519E-02 -.697E-02
   0.261E+00 0.133E+01 0.260E+04   -.239E+00 -.134E+01 -.260E+04   -.281E-01 -.173E-01 -.140E+01   -.398E-02 0.302E-01 -.252E-01
   -.614E+00 -.863E+00 0.132E+04   0.611E+00 0.909E+00 -.132E+04   0.349E-01 0.289E-01 -.751E+00   -.152E-01 -.623E-01 -.596E-01
   -.623E-01 -.953E+00 0.132E+04   0.138E-01 0.939E+00 -.132E+04   -.422E-02 0.352E-01 -.719E+00   0.515E-01 -.129E-01 -.670E-01
   0.538E-01 0.273E+00 -.131E+04   -.132E+00 -.255E+00 0.131E+04   0.333E-01 -.288E-01 0.724E+00   0.477E-01 0.319E-02 0.233E-01
   -.590E+00 -.203E+00 0.260E+04   0.584E+00 0.178E+00 -.260E+04   -.655E-03 0.357E-01 -.145E+01   0.130E-01 -.226E-02 -.443E-01
   0.670E+00 -.749E+00 0.132E+04   -.591E+00 0.781E+00 -.132E+04   -.411E-01 0.225E-01 -.739E+00   -.569E-01 -.471E-01 -.707E-01
   0.987E-01 0.662E+00 0.539E+01   -.120E+00 -.730E+00 -.538E+01   0.167E-01 -.149E-01 0.304E-01   0.253E-01 0.589E-01 -.326E-01
   -.964E-01 -.596E-02 -.131E+04   0.361E-01 0.157E-01 0.131E+04   0.313E-02 0.315E-01 0.727E+00   0.586E-01 -.396E-01 0.169E-01
   0.148E-01 -.264E+00 -.133E+04   0.822E-02 0.222E+00 0.133E+04   0.627E-02 -.421E-02 0.924E+00   -.267E-01 0.448E-01 0.444E-01
   0.811E-01 0.266E+00 -.131E+04   -.883E-01 -.228E+00 0.131E+04   -.319E-01 -.250E-01 0.718E+00   0.377E-01 -.178E-01 0.233E-01
   0.155E+00 -.603E+00 0.260E+04   -.177E+00 0.636E+00 -.260E+04   -.326E-01 0.139E-01 -.145E+01   0.415E-01 -.334E-01 -.201E-01
   -.891E-01 -.213E+00 0.260E+04   0.796E-01 0.179E+00 -.260E+04   0.489E-02 0.126E-01 -.144E+01   0.528E-02 0.255E-01 -.243E-01
   0.993E-01 0.513E+00 0.260E+04   -.136E+00 -.482E+00 -.260E+04   0.101E-01 -.117E-01 -.145E+01   0.214E-01 -.264E-01 -.282E-01
   0.531E+00 0.969E+00 0.132E+04   -.547E+00 -.944E+00 -.132E+04   -.467E-02 -.419E-01 -.746E+00   0.173E-01 -.208E-02 -.542E-01
   -.287E+00 -.118E+00 0.203E+01   0.233E+00 0.231E-01 -.196E+01   0.469E-01 0.159E-01 -.766E-03   0.277E-01 0.857E-01 -.499E-01
   0.113E+01 0.702E-01 0.132E+04   -.109E+01 -.171E+00 -.132E+04   -.452E-01 0.205E-01 -.746E+00   -.161E-01 0.888E-01 -.578E-01
   0.723E-01 0.300E+00 0.132E+04   -.443E-01 -.303E+00 -.132E+04   -.575E-02 0.399E-03 -.717E+00   -.264E-01 -.268E-02 -.919E-01
   -.164E+01 0.270E+01 -.132E+04   0.165E+01 -.282E+01 0.132E+04   -.215E-01 0.105E+00 0.621E+00   -.635E-02 -.223E-02 0.334E-01
   -.950E+00 0.254E+00 0.260E+04   0.913E+00 -.262E+00 -.260E+04   0.466E-02 0.278E-01 -.145E+01   0.251E-01 -.111E-01 -.165E-01
   -.514E+00 -.154E+00 0.132E+04   0.502E+00 0.863E-01 -.132E+04   0.672E-02 0.260E-02 -.708E+00   0.135E-01 0.708E-01 -.885E-01
   -.550E+00 -.437E-01 0.539E+01   0.521E+00 0.963E-01 -.539E+01   0.470E-02 0.133E-01 0.399E-01   0.322E-01 -.397E-01 -.324E-01
   0.622E+00 -.263E+00 -.259E+04   -.580E+00 0.275E+00 0.259E+04   -.158E-01 -.272E-02 0.140E+01   -.301E-01 -.124E-01 0.220E-01
   0.325E+00 0.296E+00 -.259E+04   -.356E+00 -.281E+00 0.259E+04   -.103E-01 -.432E-01 0.130E+01   0.394E-01 0.281E-01 0.573E-01
   0.115E+01 -.200E+01 -.259E+04   -.114E+01 0.203E+01 0.259E+04   0.326E-01 0.133E-01 0.140E+01   -.281E-01 -.345E-01 0.389E-01
   0.621E+01 -.378E+01 -.259E+04   -.581E+01 0.352E+01 0.259E+04   -.419E+00 0.249E+00 0.153E+01   0.192E-02 0.278E-01 0.694E-01
   -.982E+00 0.730E+01 -.259E+04   0.927E+00 -.682E+01 0.259E+04   0.429E-01 -.493E+00 0.154E+01   0.284E-01 -.121E-01 0.319E-01
   -.362E+00 0.254E+01 -.259E+04   0.413E+00 -.247E+01 0.259E+04   -.175E-02 -.230E-01 0.140E+01   -.470E-01 -.548E-01 0.573E-01
   -.335E-01 0.344E+00 -.259E+04   -.120E-01 -.310E+00 0.259E+04   0.187E-01 -.631E-02 0.130E+01   0.227E-01 -.369E-01 0.642E-01
   -.113E+01 -.147E+01 -.259E+04   0.111E+01 0.146E+01 0.259E+04   -.339E-02 -.129E-01 0.141E+01   0.228E-01 0.119E-01 0.154E-01
   -.245E+01 -.633E+00 -.259E+04   0.240E+01 0.569E+00 0.259E+04   0.498E-01 -.100E-01 0.140E+01   0.170E-01 0.698E-01 0.359E-01
   -.118E+00 0.302E+00 -.259E+04   0.963E-01 -.291E+00 0.259E+04   -.101E-01 0.227E-01 0.130E+01   0.448E-01 -.347E-01 0.377E-01
   0.795E+01 -.461E+01 -.258E+04   -.845E+01 0.491E+01 0.258E+04   0.540E+00 -.340E+00 0.808E+00   -.234E-01 0.216E-01 0.335E-01
   -.182E+00 0.938E+01 -.258E+04   0.213E+00 -.999E+01 0.258E+04   0.153E-01 0.645E+00 0.817E+00   -.391E-01 -.113E-01 0.515E-01
   0.215E+01 -.848E+00 -.259E+04   -.215E+01 0.805E+00 0.259E+04   0.212E-01 0.151E-01 0.139E+01   -.994E-02 0.327E-01 0.307E-01
   0.439E+00 0.263E+01 -.259E+04   -.428E+00 -.257E+01 0.259E+04   0.175E-01 -.211E-01 0.140E+01   -.227E-01 -.495E-01 0.286E-01
   -.152E+01 -.228E+01 -.132E+04   0.166E+01 0.239E+01 0.132E+04   -.774E-01 -.894E-01 0.618E+00   -.425E-01 -.425E-01 0.366E-01
   0.752E+00 -.171E+01 0.260E+04   -.719E+00 0.168E+01 -.260E+04   -.440E-01 0.617E-01 -.145E+01   -.719E-03 -.222E-01 -.205E-01
   -.804E-01 0.956E-01 -.131E+04   0.665E-01 -.523E-01 0.131E+04   -.425E-02 -.439E-02 0.766E+00   0.232E-01 -.450E-01 0.163E-01
   0.178E+01 -.915E+00 0.260E+04   -.176E+01 0.934E+00 -.260E+04   -.513E-01 0.231E-01 -.139E+01   0.798E-02 -.354E-01 0.486E-02
   -.907E+00 0.259E+00 0.132E+04   0.893E+00 -.280E+00 -.132E+04   0.274E-01 -.165E-01 -.720E+00   -.758E-02 0.348E-01 -.846E-01
   -.614E-01 0.113E+01 0.132E+04   0.377E-01 -.116E+01 -.132E+04   0.115E-04 0.136E-01 -.695E+00   0.248E-01 0.688E-02 -.653E-01
   0.519E-01 -.190E+00 -.131E+04   -.432E-01 0.257E+00 0.131E+04   0.102E-01 0.115E-02 0.754E+00   -.210E-01 -.700E-01 0.226E-01
   -.120E+01 -.105E+01 0.260E+04   0.119E+01 0.105E+01 -.260E+04   0.585E-02 0.416E-01 -.139E+01   -.296E-02 -.272E-01 -.302E-01
   -.440E+00 0.103E+01 0.132E+04   0.455E+00 -.972E+00 -.132E+04   -.133E-02 -.463E-01 -.750E+00   -.164E-01 -.303E-01 -.582E-01
   -.656E+01 -.312E+01 -.259E+04   0.615E+01 0.291E+01 0.259E+04   0.438E+00 0.220E+00 0.154E+01   0.123E-02 -.208E-02 0.373E-01
   -.110E+01 -.452E+00 -.697E+00   0.110E+01 0.432E+00 0.733E+00   0.306E-01 0.127E-01 0.212E-01   -.271E-01 0.586E-02 -.376E-01
   -.802E+01 -.532E+01 -.258E+04   0.857E+01 0.557E+01 0.258E+04   -.572E+00 -.321E+00 0.862E+00   0.119E-01 0.596E-01 0.379E-01
   0.114E+01 -.566E+00 0.132E+04   -.120E+01 0.632E+00 -.132E+04   0.700E-02 -.639E-02 -.689E+00   0.447E-01 -.554E-01 -.605E-01
   -.131E+01 -.698E+00 0.132E+04   0.130E+01 0.745E+00 -.132E+04   -.938E-02 0.429E-02 -.690E+00   0.350E-01 -.407E-01 -.734E-01
   0.743E-01 -.677E+00 0.337E+01   -.549E-01 0.612E+00 -.333E+01   0.462E-02 0.180E-01 -.225E-01   -.225E-01 0.721E-01 -.234E-01
   0.289E+01 -.316E+00 -.132E+04   -.303E+01 0.275E+00 0.132E+04   0.119E+00 -.332E-01 0.620E+00   0.232E-01 0.911E-01 0.311E-01
   -.301E+01 -.150E+00 -.132E+04   0.314E+01 0.178E+00 0.132E+04   -.105E+00 -.405E-01 0.615E+00   -.251E-01 0.246E-01 0.408E-01
   0.725E+00 0.513E+00 0.260E+04   -.699E+00 -.555E+00 -.260E+04   -.166E-01 -.110E-01 -.145E+01   -.161E-01 0.560E-01 -.245E-01
   -.590E+00 0.384E+00 0.260E+04   0.576E+00 -.394E+00 -.260E+04   -.626E-02 0.936E-02 -.145E+01   0.161E-01 0.114E-01 -.260E-01
   0.386E+00 -.107E+00 0.132E+04   -.400E+00 0.807E-01 -.132E+04   0.141E-02 0.537E-02 -.715E+00   0.769E-02 0.275E-01 -.787E-01
[...]
   0.125E+00 -.160E+00 0.198E+01   -.738E-01 0.131E+00 -.193E+01   -.329E-01 0.170E-01 -.930E-02   -.302E-01 0.196E-01 -.234E-01
   0.467E+00 -.813E-02 0.547E+01   -.522E+00 0.371E-01 -.546E+01   0.727E-03 0.187E-01 0.325E-01   0.465E-01 -.195E-01 -.366E-01
   -.110E+01 0.215E+00 0.132E+04   0.109E+01 -.269E+00 -.132E+04   0.340E-01 0.140E-01 -.744E+00   -.929E-02 0.466E-01 -.507E-01
   -.667E+00 0.564E+00 0.319E+01   0.674E+00 -.525E+00 -.314E+01   0.270E-01 -.141E-01 -.141E-01   -.687E-02 -.412E-01 -.392E-01
   0.140E+00 -.639E+00 -.131E+04   -.810E-01 0.696E+00 0.131E+04   0.228E-03 0.107E-01 0.712E+00   -.612E-01 -.622E-01 0.175E-01
   0.142E+01 0.265E+01 -.132E+04   -.147E+01 -.281E+01 0.132E+04   0.290E-01 0.106E+00 0.606E+00   0.382E-01 0.455E-01 0.261E-01
   -.219E+00 -.785E+00 0.260E+04   0.256E+00 0.827E+00 -.260E+04   -.142E-02 0.553E-03 -.144E+01   -.361E-01 -.238E-01 -.314E-02
   0.128E+01 0.555E+00 0.260E+04   -.127E+01 -.562E+00 -.260E+04   -.453E-01 -.228E-02 -.145E+01   0.233E-01 0.761E-02 0.193E-02
   0.527E-01 0.647E+00 0.556E+01   -.676E-01 -.671E+00 -.558E+01   -.200E-01 -.157E-01 0.331E-01   0.102E-01 0.152E-01 -.114E-01
   -.514E+00 -.624E+00 0.530E+01   0.522E+00 0.655E+00 -.529E+01   0.223E-01 -.816E-02 0.346E-01   0.150E-02 -.281E-01 -.419E-01
   -.913E-01 -.258E-01 0.132E+04   0.139E+00 0.277E-01 -.132E+04   0.394E-02 -.620E-03 -.705E+00   -.492E-01 -.126E-02 -.301E-01
   0.356E-01 -.370E-02 0.215E+01   0.209E-01 0.989E-01 -.208E+01   0.389E-03 -.447E-01 -.832E-03   -.571E-01 -.670E-01 -.478E-01
   0.338E+00 -.474E+00 0.541E+01   -.357E+00 0.533E+00 -.541E+01   -.113E-01 -.134E-01 0.348E-01   0.333E-02 -.535E-01 -.247E-01
   -.183E+00 -.742E-01 -.304E+03   0.213E+00 0.794E-01 0.305E+03   -.196E-01 -.597E-02 -.133E+01   -.122E-02 0.279E-02 0.316E-02
   0.641E-01 0.111E-01 0.457E+01   -.168E-12 0.167E-12 0.122E-10   -.471E-01 -.372E-01 -.378E+01   0.855E-03 0.222E-02 -.829E+00

 POSITION                                       TOTAL-FORCE (eV/Angst)
     13.68468      8.44878      7.19407        -0.006554     -0.006272     -0.022767
      5.26725      8.44868      7.19317         0.008065     -0.004450     -0.013879
      3.86423      6.01705      7.18818         0.001005      0.005683      0.014936
     13.70218      8.43453      0.50418        -0.023504      0.004772      0.008587
      5.28315      8.43800      0.50467         0.008670     -0.013211      0.005363
      3.88155      6.00821      0.50473        -0.010409     -0.002033     -0.001071
      8.08184      1.95953      2.77435         0.015511      0.012360     -0.018198
      9.48530      9.24633      2.77312        -0.001433      0.008264     -0.007994
      2.46286      3.58931      7.18788         0.003841     -0.007660     -0.012100
      2.47648      3.57501      0.50656         0.005917      0.008571      0.007816
     10.88889      1.96044      2.77235        -0.018859      0.007817     -0.011278
     13.68615      5.20806      4.97999         0.019668     -0.023269      0.000946
      3.86499      1.16065      7.18758         0.001100      0.002906     -0.007167
      9.47528      6.01867      7.21332         0.002649     -0.001549     -0.012589
      5.26702      3.58924      7.18853        -0.002380     -0.005381     -0.015265
      3.88216      1.14422      0.50652        -0.013937      0.013954      0.011921
      9.49076      6.00523      0.50931        -0.000092      0.004880      0.003812
      5.28323      3.57763      0.50631        -0.005934     -0.006464      0.009436
     12.29226      9.25192      2.77350        -0.002858     -0.018188     -0.013917
     12.28230      7.63384      4.98461         0.019478      0.006121      0.018716
     13.69570      6.82194      2.77393        -0.019724      0.008860     -0.015028
      9.48552      4.39122      2.77474        -0.004431     -0.004590     -0.010858
      8.07460      8.44631      7.19900        -0.007052     -0.014972     -0.007855
      8.08778      8.43452      0.50542        -0.008301      0.008573      0.007174
     10.88705      6.82128      2.77421         0.007108      0.005840     -0.005961
      2.46578      0.34365      4.97964         0.008865      0.026229      0.007182
     15.08351      9.26128      9.46236        -0.003179     -0.003627     -0.010001
      3.86071      4.40284      9.46426        -0.002007      0.001039     -0.037207
      6.65899      9.26784      9.45990         0.014904      0.003934     -0.005880
     12.30741      4.38380      9.45208        -0.013806      0.009668      0.022341
      9.46838      9.29601      9.45197         0.015500     -0.021505      0.020645
     10.87953      1.96641      9.46085         0.002155     -0.004770     -0.008733
      2.45808      1.97258      9.46311        -0.004540     -0.009226     -0.032133
     12.28116      9.26888      9.45909        -0.002461     -0.006819     -0.004620
     13.68452      6.83214      9.46028         0.018844     -0.005169     -0.008065
      5.26344      1.97131      9.46344         0.013536     -0.001250     -0.033665
      8.02720      6.85652      9.49855        -0.000549     -0.010010      0.006641
      9.47040      4.35520      9.49852         0.006929      0.003459      0.005600
      5.25191      6.83072      9.46086         0.008826      0.002606     -0.011727
      8.06356      1.96573      9.45935         0.005801     -0.006472     -0.004254
      8.07440      3.59295      7.19939         0.016845     -0.009249     -0.010300
      8.09143      3.57175      0.50442        -0.010733      0.017169      0.011655
      6.66942      1.16021      7.18694         0.006678     -0.006966      0.023066
      6.68998      1.14467      0.50381        -0.017303      0.007136      0.003756
     12.28740      4.39365      2.77338         0.005775     -0.002337     -0.007244
      3.87402      4.39274      2.77079         0.000629     -0.007224      0.000829
      1.06035      1.15976      7.18862        -0.004184     -0.002602      0.012572
      1.07376      1.14340      0.50294        -0.003007      0.013198      0.004574
      6.67829      9.25262      2.77426        -0.003535     -0.020095     -0.016547
      6.63516      4.38606      9.45334         0.020646     -0.001276      0.017737
      8.07883      5.20729      4.98668        -0.000304     -0.002015      0.016831
     10.91205      6.85229      9.49699         0.001953      0.000129      0.009768
      5.27813      1.96123      2.77011        -0.009204      0.004837     -0.000311
      2.46971      1.96062      2.77018         0.008396      0.010585      0.000183
     15.09151      7.63519      4.98418         0.001288      0.023933     -0.004354
     12.27756      6.01842      7.19914         0.000467      0.014763     -0.007966
      6.67337      6.01932      7.20036         0.006460      0.010123     -0.010814
     12.29873      6.00713      0.50548        -0.006756      0.004420      0.008205
      6.68538      6.00568      0.50500        -0.004723      0.010976      0.012747
      8.08227      6.82112      2.77543        -0.004534      0.006517     -0.010324
[...]
     10.88099      5.20708      4.98621         0.006511     -0.004048      0.020678
      6.67756      7.63400      4.98503        -0.011410      0.006618      0.013663
      5.27176      0.34327      4.97972        -0.008188      0.028091      0.003666
      5.27518      6.82285      2.77350         0.013782      0.007751     -0.013043
      8.07650      0.34660      4.98428         0.025929     -0.015023     -0.000552
      9.47638      1.15963      7.19466        -0.001819      0.004931     -0.019785
     10.87711      8.44618      7.20056         0.009559     -0.014016     -0.014897
      9.49186      1.14545      0.50388        -0.001256      0.019288      0.010872
     10.89772      8.43640      0.50428        -0.008919     -0.001005      0.013447
      5.27510      5.20827      4.97980        -0.024056     -0.023866      0.000670
     12.28273      2.77698      4.97957         0.031136     -0.004842      0.004252
     15.09613      9.25125      2.77302         0.002204      0.000215      0.016913
      9.48010      2.77897      4.98436         0.000021     -0.015225      0.018867
      6.67695      2.77769      4.97965        -0.026356     -0.007731      0.003785
      9.46220      6.01940     10.31970         0.008981      0.002278      0.045632
    total drift:                                0.017828     -0.023889     -0.035017

  FREE ENERGIE OF THE ION-ELECTRON SYSTEM (eV)
  free  energy   TOTEN  =      -517.04894040 eV

  energy  without entropy=     -517.19463268  energy(sigma->0) =     -517.09750449

 d Force = 0.4084975E-03[ 0.189E-03, 0.628E-03]  d Energy = 0.4941333E-03-0.856E-04
 d Force = 0.6185990E+02[ 0.618E+02, 0.619E+02]  d Ewald  = 0.6185990E+02 0.145E-05

 reached required accuracy - stopping structural energy minimisation