 vasp.5.4.4.18Apr17-6-g9f103f2a35 (build Nov 30 2020 22:55:02) complex

 executed on             LinuxIFC date 2021.11.25  12:44:57

 INCAR:
 POTCAR:    PAW_PBE Pt 04Feb2005
 POTCAR:    PAW_PBE H 15Jun2001

 POTCAR:    PAW_PBE Pt 04Feb2005
   VRHFIN =Pt: s1d9

   TITEL  = PAW_PBE Pt 04Feb2005
   POMASS =  195.080; ZVAL   =   10.000    mass and valenz
   ENMAX  =  230.283; ENMIN  =  172.712 eV

 POTCAR:    PAW_PBE H 15Jun2001
   VRHFIN =H: ultrasoft test

   TITEL  = PAW_PBE H 15Jun2001
   POMASS =    1.000; ZVAL   =    1.000    mass and valenz
   ENMAX  =  250.000; ENMIN  =  200.000 eV

 Optimization of the real space projectors (new method)

 maximal supplied QI-value         = 14.36
 optimisation between [QCUT,QGAM] = [ 11.92, 23.98] = [ 39.79,161.09] Ry
 Optimized for a Real-space Cutoff    1.49 Angstroem

   l    n(q)    QCUT    max X(q) W(low)/X(q) W(high)/X(q)  e(spline)
   2     10    11.920    66.195    0.79E-04    0.18E-03    0.24E-06
   2     10    11.920    64.643    0.81E-04    0.19E-03    0.24E-06
   0     11    11.920    95.520    0.28E-04    0.54E-04    0.18E-06
   0     11    11.920    63.403    0.27E-04    0.52E-04    0.17E-06
   1     10    11.920    19.961    0.18E-04    0.11E-03    0.23E-06
   1     10    11.920    13.289    0.25E-04    0.87E-04    0.19E-06
 Optimization of the real space projectors (new method)

 maximal supplied QI-value         = 34.20
 optimisation between [QCUT,QGAM] = [ 11.97, 23.94] = [ 40.13,160.53] Ry
 Optimized for a Real-space Cutoff    1.18 Angstroem

   l    n(q)    QCUT    max X(q) W(low)/X(q) W(high)/X(q)  e(spline)
   0      8    11.971    19.460    0.15E-03    0.31E-03    0.25E-06
   0      8    11.971    12.209    0.13E-03    0.29E-03    0.25E-06
   1      8    11.971     4.655    0.22E-03    0.24E-03    0.21E-06
  PAW_PBE Pt 04Feb2005                  :
  PAW_PBE H 15Jun2001                   :

 POSCAR: Pt111
  positions in cartesian coordinates
 exchange correlation table for  LEXCH =        8
   RHO(1)=    0.500       N(1)  =     2000
   RHO(2)=  100.500       N(2)  =     4000

 ion  position               nearest neighbor table
   1  0.785  0.869  0.327-  71 2.74  20 2.74  55 2.74  27 2.79  35 2.79  34 2.79  43 2.81   3 2.81
                            73 2.81   2 2.81  56 2.81  72 2.81
   2  0.035  0.869  0.327-  55 2.73  65 2.74  68 2.74  39 2.77  29 2.78  27 2.80  23 2.80  72 2.81
                            47 2.81   1 2.81  57 2.81   3 2.81
   3  0.035  0.619  0.327-  55 2.74  12 2.74  76 2.74  39 2.77  28 2.79  35 2.80  15 2.80   9 2.80
                            56 2.80   1 2.81  57 2.81   2 2.81
   4  0.787  0.868  0.023-  21 2.78  78 2.78  19 2.79   6 2.80   5 2.80  58 2.80  75 2.80  74 2.80
                            44 2.81
   5  0.037  0.868  0.023-  49 2.78  70 2.79  78 2.79  48 2.80  74 2.80   4 2.80  24 2.81   6 2.81
                            59 2.81
   6  0.037  0.618  0.023-  46 2.78  70 2.79  21 2.79   4 2.80  10 2.80  58 2.80  18 2.80  59 2.81
                             5 2.81
   7  0.619  0.202  0.126-  71 2.73  79 2.74  80 2.75  42 2.78  44 2.79  74 2.79  53 2.80  11 2.80
                            78 2.80  19 2.80  22 2.81  61 2.81
   8  0.370  0.951  0.126-  69 2.74  66 2.74  26 2.74  16 2.78  24 2.79  75 2.79  25 2.80  19 2.80
                            60 2.81  49 2.81  54 2.81  53 2.81
   9  0.035  0.369  0.327-  12 2.74  77 2.74  62 2.74  28 2.78  30 2.79  33 2.79  13 2.80  47 2.80
                             3 2.80  15 2.81  56 2.81  63 2.81
  10  0.037  0.368  0.023-  54 2.77  46 2.79  45 2.79   6 2.80  58 2.80  64 2.81  18 2.81  48 2.81
                            16 2.81
  11  0.869  0.202  0.126-  77 2.74  65 2.74  79 2.75  64 2.78  74 2.78  48 2.79   7 2.80  78 2.80
                            22 2.81  45 2.81  54 2.81  49 2.81
  12  0.952  0.536  0.226-  21 2.73   9 2.74   3 2.74  45 2.74  56 2.74  46 2.74  77 2.81  62 2.81
                            20 2.81  55 2.81  67 2.81  76 2.81
  13  0.284  0.120  0.327-  62 2.74  26 2.74  69 2.74  31 2.78  36 2.78  33 2.79   9 2.80  47 2.80
                            73 2.81  43 2.81  15 2.81  23 2.81
  14  0.534  0.619  0.328-  51 2.74  66 2.75  67 2.76  52 2.79  41 2.80  57 2.80  63 2.80  23 2.80
                            56 2.81  38 2.81  73 2.81  37 2.82
  15  0.285  0.369  0.327-  76 2.74  80 2.74  62 2.75  50 2.77  36 2.79  28 2.79  41 2.80   3 2.80
                            57 2.80  43 2.80   9 2.81  13 2.81
  16  0.287  0.118  0.023-   8 2.78  54 2.78  53 2.79  75 2.80  44 2.80  18 2.81  24 2.81  48 2.81
                            10 2.81
  17  0.537  0.618  0.023-  22 2.78  25 2.79  60 2.79  24 2.80  59 2.80  64 2.80  42 2.81  58 2.81
                            75 2.81
  18  0.287  0.368  0.023-  53 2.78  61 2.79  46 2.79  59 2.80   6 2.80  42 2.81  10 2.81  16 2.81
                            44 2.81
  19  0.619  0.952  0.126-  20 2.74  71 2.74  69 2.74  44 2.78  75 2.78   4 2.79   8 2.80  53 2.80
                             7 2.80  25 2.81  21 2.81  78 2.81
  20  0.702  0.785  0.227-  56 2.74  25 2.74  19 2.74  73 2.74   1 2.74  21 2.74  67 2.81  66 2.81
                            12 2.81  69 2.81  55 2.81  71 2.81
  21  0.869  0.702  0.126-  12 2.73  55 2.74  20 2.74   4 2.78  58 2.79   6 2.79  46 2.80  45 2.80
                            70 2.80  19 2.81  25 2.81  78 2.81
  22  0.619  0.452  0.126-  79 2.73  67 2.74  51 2.75  17 2.78  42 2.78  64 2.80  61 2.80  60 2.80
                            11 2.81  45 2.81   7 2.81  25 2.81
  23  0.285  0.869  0.327-  68 2.74  66 2.74  26 2.75  37 2.77  31 2.79  29 2.79  73 2.80   2 2.80
                            14 2.80  57 2.80  47 2.81  13 2.81
  24  0.287  0.868  0.023-   8 2.79  60 2.79  49 2.79  17 2.80  59 2.80  48 2.81   5 2.81  16 2.81
                            75 2.81
  25  0.619  0.702  0.126-  20 2.74  67 2.74  66 2.74  75 2.78  17 2.79  58 2.79   8 2.80  45 2.80
                            19 2.81  21 2.81  60 2.81  22 2.81
  26  0.202  0.036  0.226-  49 2.73  13 2.74   8 2.74  54 2.74  47 2.74  23 2.75  77 2.80  69 2.80
                            62 2.80  65 2.81  66 2.81  68 2.81
  27  0.868  0.953  0.430-  39 2.77  40 2.78   1 2.79  72 2.79   2 2.80  29 2.80  32 2.80  34 2.81
                            35 2.81
  28  0.116  0.453  0.430-  50 2.77  30 2.78   9 2.78   3 2.79  15 2.79  33 2.80  35 2.80  39 2.81
                            36 2.82
  29  0.116  0.954  0.430-  37 2.77  32 2.78  47 2.78   2 2.78  23 2.79  27 2.80  33 2.80  39 2.81
                            31 2.82
  30  0.869  0.453  0.430-  38 2.77  28 2.78  56 2.79   9 2.79  63 2.79  33 2.80  35 2.80  52 2.81
                            32 2.82
  31  0.367  0.954  0.430-  37 2.77  36 2.78  13 2.78  23 2.79  73 2.79  33 2.80  34 2.80  52 2.81
                            29 2.82
  32  0.869  0.202  0.430-  38 2.77  29 2.78  72 2.79  47 2.79  63 2.79  33 2.80  27 2.80  40 2.81
                            30 2.82
  33  0.117  0.203  0.430-   9 2.79  47 2.79  13 2.79  30 2.80  31 2.80  36 2.80  32 2.80  28 2.80
                            29 2.80
  34  0.618  0.953  0.430-  40 2.77  52 2.78   1 2.79  73 2.79  43 2.79  36 2.80  35 2.80  31 2.80
                            27 2.81
  35  0.867  0.703  0.430-  52 2.77  39 2.77   1 2.79  56 2.79   3 2.80  30 2.80  28 2.80  34 2.80
                            27 2.81
  36  0.368  0.202  0.430-  50 2.77  31 2.78  13 2.78  15 2.79  43 2.79  33 2.80  34 2.80  40 2.81
                            28 2.82
  37  0.364  0.709  0.431-  81 1.86  31 2.77  29 2.77  23 2.77  57 2.81  14 2.82  52 2.84  39 2.84
                            50 2.91  38 2.91
  38  0.623  0.450  0.431-  81 1.86  32 2.77  30 2.77  63 2.78  41 2.81  14 2.81  40 2.84  52 2.84
                            50 2.91  37 2.91
  39  0.114  0.705  0.430-   3 2.77  27 2.77  35 2.77   2 2.77  57 2.79  28 2.81  29 2.81  50 2.84
                            37 2.84
  40  0.619  0.199  0.430-  43 2.77  34 2.77  27 2.78  72 2.78  41 2.79  36 2.81  32 2.81  38 2.84
                            50 2.84
  41  0.534  0.370  0.328-  51 2.74  80 2.75  79 2.76  40 2.79  14 2.80  57 2.80  15 2.80  63 2.80
                            38 2.81  72 2.81  43 2.81  50 2.82
  42  0.537  0.368  0.023-   7 2.78  22 2.78  61 2.79  64 2.80  74 2.80  44 2.80  17 2.81  18 2.81
                            59 2.81
  43  0.534  0.119  0.327-  69 2.74  80 2.74  71 2.74  40 2.77  36 2.79  34 2.79  73 2.80  15 2.80
                            13 2.81   1 2.81  41 2.81  72 2.81
  44  0.537  0.118  0.023-  19 2.78   7 2.79  53 2.79  16 2.80  75 2.80  74 2.80  42 2.80   4 2.81
                            18 2.81
  45  0.869  0.452  0.126-  77 2.73  12 2.74  67 2.75  58 2.78  64 2.78  10 2.79  25 2.80  21 2.80
                            22 2.81  11 2.81  54 2.81  46 2.81
  46  0.119  0.452  0.126-  62 2.73  76 2.74  12 2.74   6 2.78  10 2.79  18 2.79  70 2.80  21 2.80
                            61 2.81  53 2.81  54 2.81  45 2.81
  47  0.035  0.119  0.327-  65 2.74  77 2.74  26 2.74  29 2.78  32 2.79  33 2.79  13 2.80   9 2.80
                            72 2.81   2 2.81  23 2.81  63 2.81
  48  0.037  0.118  0.023-  54 2.78  49 2.78  11 2.79   5 2.80  74 2.80  24 2.81  64 2.81  10 2.81
                            16 2.81
  49  0.119  0.952  0.126-  26 2.73  68 2.74  65 2.74   5 2.78  48 2.78  24 2.79  70 2.80  78 2.80
                            60 2.81   8 2.81  54 2.81  11 2.81
  50  0.364  0.450  0.432-  81 1.86  28 2.77  36 2.77  15 2.77  57 2.81  41 2.82  39 2.84  40 2.84
                            38 2.91  37 2.91
  51  0.452  0.536  0.227-  60 2.74  61 2.74  41 2.74  14 2.74  22 2.75  57 2.75  76 2.80  68 2.80
                            67 2.80  66 2.80  80 2.80  79 2.80
  52  0.619  0.705  0.430-  73 2.77  35 2.77  34 2.78  56 2.78  14 2.79  31 2.81  30 2.81  37 2.84
                            38 2.84
  53  0.370  0.202  0.126-  69 2.74  80 2.74  62 2.74  18 2.78  16 2.79  44 2.79   7 2.80  19 2.80
                            61 2.81  46 2.81  54 2.81   8 2.81
  54  0.119  0.202  0.125-  26 2.74  62 2.74  77 2.75  10 2.77  48 2.78  16 2.78  11 2.81  49 2.81
                            46 2.81   8 2.81  53 2.81  45 2.81
  55  0.952  0.786  0.227-   2 2.73   3 2.74  78 2.74  21 2.74  70 2.74   1 2.74  12 2.81  68 2.81
                            65 2.81  76 2.81  71 2.81  20 2.81
  56  0.785  0.619  0.327-  20 2.74  67 2.74  12 2.74  52 2.78  30 2.79  35 2.79  63 2.80   3 2.80
                             9 2.81   1 2.81  14 2.81  73 2.81
  57  0.285  0.619  0.328-  51 2.75  68 2.75  76 2.75  39 2.79  14 2.80  41 2.80  23 2.80  15 2.80
                             2 2.81   3 2.81  37 2.81  50 2.81
  58  0.787  0.618  0.023-  45 2.78  21 2.79  25 2.79   4 2.80  75 2.80  10 2.80   6 2.80  64 2.81
                            17 2.81
  59  0.287  0.618  0.023-  61 2.78  60 2.79  70 2.79  18 2.80  24 2.80  17 2.80   6 2.81  42 2.81
                             5 2.81
  60  0.369  0.702  0.126-  66 2.74  68 2.74  51 2.74  59 2.79  24 2.79  17 2.79  61 2.80  22 2.80
                            49 2.81  70 2.81   8 2.81  25 2.81
  61  0.369  0.452  0.126-  80 2.73  76 2.74  51 2.74  59 2.78  18 2.79  42 2.79  22 2.80  60 2.80
[...]
      6.61407      4.37386      9.49357        -0.025481     -0.029896     -0.003595
      8.07693      5.20637      4.99359        -0.001001     -0.003693      0.018059
     10.90403      6.84979      9.45403         0.002353     -0.001892      0.011491
      5.28091      1.96253      2.77345        -0.006493      0.002215      0.025105
      2.47176      1.96144      2.75965        -0.003817      0.005373      0.068775
     15.09287      7.63490      4.98490        -0.017836      0.010124     -0.001374
     12.28094      6.01646      7.19022        -0.010176      0.015500     -0.035757
      6.67244      6.01770      7.21387        -0.005290      0.001926     -0.044077
     12.29875      6.00705      0.50666        -0.007933      0.003240     -0.011859
      6.68664      6.00469      0.50724        -0.015260      0.007064     -0.003478
      8.08137      6.81855      2.77630         0.005919      0.005961      0.025094
[...]
     10.87809      5.20538      4.98469         0.013628     -0.005509      0.015519
      6.67732      7.63249      4.98511        -0.000930      0.007527      0.017328
      5.27037      0.34693      4.98207         0.000370     -0.001558      0.006483
      5.27568      6.82290      2.77548         0.006378     -0.010195      0.032865
      8.07729      0.34852      4.98479        -0.003210     -0.028124      0.001139
      9.47787      1.16109      7.19008        -0.015498     -0.001018     -0.038973
     10.87627      8.45107      7.19073         0.002822     -0.024294     -0.038950
      9.49225      1.14407      0.50493        -0.011192      0.006366     -0.005324
     10.89864      8.43578      0.50551        -0.013624     -0.011260     -0.010974
      5.27606      5.20482      4.98534        -0.008726      0.002783      0.016578
     12.28643      2.77584      4.97632         0.025345     -0.013946     -0.001984
     15.09678      9.25136      2.77554        -0.015709     -0.009156      0.036099
      9.47909      2.78017      4.98428         0.006491     -0.006396      0.017094
      6.67510      2.78096      4.98514         0.002006     -0.010770      0.016387
      8.07233      5.21358     10.27761        -0.006164     -0.002221      0.102256
    total drift:                                0.013988     -0.004962     -0.045194

  FREE ENERGIE OF THE ION-ELECTRON SYSTEM (eV)
  free  energy   TOTEN  =      -517.13962269 eV

  energy  without entropy=     -517.13962269  energy(sigma->0) =     -517.13962269

 d Force =-0.1456395E-02[-0.307E-02, 0.155E-03]  d Energy =-0.7770919E-03-0.679E-03
 d Force =-0.9108549E+01[-0.910E+01,-0.911E+01]  d Ewald  =-0.9108797E+01 0.248E-03

 Finite differences progress:
  Degree of freedom:   3/  3
  Displacement:        2/  2
  Total:               6/  6

 SECOND DERIVATIVES (NOT SYMMETRIZED)
              81X         81Y         81Z
 81X    -1.724629    0.033190    0.042742
 81Y     0.024882   -1.749399    0.005286
 81Z     0.043643   -0.003127   -3.580666

 Eigenvectors and eigenvalues of the dynamical matrix

   1 f  =   29.586495 THz   185.897429 2PiTHz  986.899206 cm-1   122.359951 meV
             X         Y         Z           dx          dy          dz
     13.683755  8.448691  7.195451            0           0           0
      5.268700  8.450223  7.188906            0           0           0
      3.862984  6.016495  7.190261            0           0           0
     13.702474  8.433690  0.508649            0           0           0
      5.282744  8.437694  0.505934            0           0           0
      3.880660  6.005907  0.506785            0           0           0
      8.082867  1.960116  2.775982            0           0           0
      9.486925  9.247456  2.773092            0           0           0
      2.462745  3.586690  7.187847            0           0           0
      2.477579  3.578316  0.506236            0           0           0
     10.885847  1.962235  2.771569            0           0           0
     13.688113  5.205624  4.982481            0           0           0
      3.861825  1.161588  7.187499            0           0           0
      9.471342  6.017165  7.213073            0           0           0
      5.268451  3.590118  7.197100            0           0           0
      3.886217  1.142849  0.506217            0           0           0
      9.490665  6.004561  0.507667            0           0           0
      5.284505  3.577620  0.506208            0           0           0
     12.290816  9.250771  2.775111            0           0           0
     12.282429  7.634105  4.984826            0           0           0
     13.693896  6.820932  2.775876            0           0           0
      9.482922  4.392123  2.775547            0           0           0
      8.072557  8.447441  7.195930            0           0           0
      8.089669  8.432303  0.506007            0           0           0
     10.887769  6.821744  2.774759            0           0           0
      2.466022  0.347420  4.976358            0           0           0
     15.082637  9.260968  9.463838            0           0           0
      3.848937  4.402940  9.460781            0           0           0
      6.657061  9.271327  9.458507            0           0           0
     12.289799  4.400418  9.459086            0           0           0
      9.474046  9.273261  9.459520            0           0           0
     10.880386  1.963109  9.458912            0           0           0
      2.457431  1.973101  9.461638            0           0           0
     12.277303  9.261403  9.464194            0           0           0
     13.676684  6.833129  9.465669            0           0           0
      5.256716  1.961039  9.459754            0           0           0
      8.067703  6.890974  9.491799            0           0           0
      9.519813  4.371707  9.490342            0           0           0
      5.228527  6.848905  9.454869            0           0           0
      8.066296  1.935690  9.453529            0           0           0
      8.071847  3.593528  7.213121            0           0           0
      8.091385  3.572799  0.506746            0           0           0
      6.667636  1.159442  7.188795            0           0           0
      6.688756  1.144099  0.505810            0           0           0
     12.288989  4.393959  2.773501            0           0           0
      3.876099  4.394235  2.774178            0           0           0
      1.061546  1.161152  7.188217            0           0           0
      1.074061  1.143048  0.504401            0           0           0
      6.678599  9.248213  2.773453            0           0           0
      6.614066  4.373860  9.493570            0           0           0
      8.076935  5.206369  4.993590            0           0           0
     10.904027  6.849790  9.454027            0           0           0
      5.280909  1.962532  2.773454            0           0           0
      2.471759  1.961440  2.759649            0           0           0
     15.092869  7.634905  4.984901            0           0           0
     12.280941  6.016457  7.190222            0           0           0
      6.672439  6.017699  7.213874            0           0           0
     12.298753  6.007046  0.506665            0           0           0
      6.686642  6.004687  0.507235            0           0           0
      8.081374  6.818546  2.776298            0           0           0
[...]
     10.878089  5.205381  4.984690            0           0           0
      6.677317  7.632494  4.985115            0           0           0
      5.270372  0.346934  4.982069            0           0           0
      5.275678  6.822899  2.775482            0           0           0
      8.077294  0.348516  4.984791            0           0           0
      9.477865  1.161091  7.190084            0           0           0
     10.876274  8.451071  7.190729            0           0           0
      9.492250  1.144067  0.504932            0           0           0
     10.898644  8.435779  0.505512            0           0           0
      5.276064  5.204823  4.985345            0           0           0
     12.286427  2.775845  4.976320            0           0           0
     15.096777  9.251356  2.775538            0           0           0
      9.479091  2.780169  4.984281            0           0           0
      6.675096  2.780963  4.985137            0           0           0
      8.072330  5.213585 10.292610    -0.023249   -0.000221    0.999730

[...]

   3 f  =   20.411658 THz   128.250231 2PiTHz  680.859611 cm-1    84.415863 meV
             X         Y         Z           dx          dy          dz
     13.683755  8.448691  7.195451            0           0           0
      5.268700  8.450223  7.188906            0           0           0
      3.862984  6.016495  7.190261            0           0           0
     13.702474  8.433690  0.508649            0           0           0
      5.282744  8.437694  0.505934            0           0           0
      3.880660  6.005907  0.506785            0           0           0
      8.082867  1.960116  2.775982            0           0           0
      9.486925  9.247456  2.773092            0           0           0
      2.462745  3.586690  7.187847            0           0           0
      2.477579  3.578316  0.506236            0           0           0
     10.885847  1.962235  2.771569            0           0           0
     13.688113  5.205624  4.982481            0           0           0
      3.861825  1.161588  7.187499            0           0           0
      9.471342  6.017165  7.213073            0           0           0
      5.268451  3.590118  7.197100            0           0           0
      3.886217  1.142849  0.506217            0           0           0
      9.490665  6.004561  0.507667            0           0           0
      5.284505  3.577620  0.506208            0           0           0
     12.290816  9.250771  2.775111            0           0           0
     12.282429  7.634105  4.984826            0           0           0
     13.693896  6.820932  2.775876            0           0           0
      9.482922  4.392123  2.775547            0           0           0
      8.072557  8.447441  7.195930            0           0           0
      8.089669  8.432303  0.506007            0           0           0
     10.887769  6.821744  2.774759            0           0           0
      2.466022  0.347420  4.976358            0           0           0
     15.082637  9.260968  9.463838            0           0           0
      3.848937  4.402940  9.460781            0           0           0
      6.657061  9.271327  9.458507            0           0           0
     12.289799  4.400418  9.459086            0           0           0
      9.474046  9.273261  9.459520            0           0           0
     10.880386  1.963109  9.458912            0           0           0
      2.457431  1.973101  9.461638            0           0           0
     12.277303  9.261403  9.464194            0           0           0
     13.676684  6.833129  9.465669            0           0           0
      5.256716  1.961039  9.459754            0           0           0
      8.067703  6.890974  9.491799            0           0           0
      9.519813  4.371707  9.490342            0           0           0
      5.228527  6.848905  9.454869            0           0           0
      8.066296  1.935690  9.453529            0           0           0
      8.071847  3.593528  7.213121            0           0           0
      8.091385  3.572799  0.506746            0           0           0
      6.667636  1.159442  7.188795            0           0           0
      6.688756  1.144099  0.505810            0           0           0
     12.288989  4.393959  2.773501            0           0           0
      3.876099  4.394235  2.774178            0           0           0
      1.061546  1.161152  7.188217            0           0           0
      1.074061  1.143048  0.504401            0           0           0
      6.678599  9.248213  2.773453            0           0           0
      6.614066  4.373860  9.493570            0           0           0
      8.076935  5.206369  4.993590            0           0           0
     10.904027  6.849790  9.454027            0           0           0
      5.280909  1.962532  2.773454            0           0           0
      2.471759  1.961440  2.759649            0           0           0
     15.092869  7.634905  4.984901            0           0           0
     12.280941  6.016457  7.190222            0           0           0
      6.672439  6.017699  7.213874            0           0           0
     12.298753  6.007046  0.506665            0           0           0
      6.686642  6.004687  0.507235            0           0           0
      8.081374  6.818546  2.776298            0           0           0
[...]
     10.878089  5.205381  4.984690            0           0           0
      6.677317  7.632494  4.985115            0           0           0
      5.270372  0.346934  4.982069            0           0           0
      5.275678  6.822899  2.775482            0           0           0
      8.077294  0.348516  4.984791            0           0           0
      9.477865  1.161091  7.190084            0           0           0
     10.876274  8.451071  7.190729            0           0           0
      9.492250  1.144067  0.504932            0           0           0
     10.898644  8.435779  0.505512            0           0           0
      5.276064  5.204823  4.985345            0           0           0
     12.286427  2.775845  4.976320            0           0           0
     15.096777  9.251356  2.775538            0           0           0
      9.479091  2.780169  4.984281            0           0           0
      6.675096  2.780963  4.985137            0           0           0
      8.072330  5.213585 10.292610     0.838062    0.545222    0.019610

 Finite differences POTIM=  1.500000000000000E-002
  LATTYP: Found a hexagonal cell.
 ALAT       =    11.2227001190
 C/A-ratio  =     1.9603125600

  Lattice vectors:

 A1 = (   5.6113500595,  -9.7191434021,   0.0000000000)
 A2 = ( -11.2227001190,   0.0000000000,   0.0000000000)
 A3 = (   0.0000000000,   0.0000000000, -22.0000000000)

Analysis of symmetry for initial positions (statically):
 Subroutine PRICEL returns:
 Original cell was already a primitive cell.

[...]

The static configuration has the point symmetry C_1 .

Analysis of symmetry for dynamics (positions and initial velocities):
 Subroutine PRICEL returns:
 Original cell was already a primitive cell.

[...]

The dynamic configuration has the point symmetry C_1 .

Analysis of constrained symmetry for selective dynamics:
 Subroutine PRICEL returns:
 Original cell was already a primitive cell.

[...]

The constrained configuration has the point symmetry C_1 .

Analysis of structural, dynamic, and magnetic symmetry:
 Subroutine PRICEL returns:
 Original cell was already a primitive cell.

 Routine SETGRP: Setting up the symmetry group for a
 hexagonal supercell.

 Subroutine GETGRP returns: Found  1 space group operations
 (whereof  1 operations were pure point group operations)
 out of a pool of 24 trial point group operations.

The magnetic configuration has the point symmetry C_1 .

 Subroutine INISYM returns: Found  1 space group operations
 (whereof  1 operations are pure point group operations),
 and found     1 'primitive' translations

 KPOINTS: mesh auto

Automatic generation of k-mesh.
Space group operators:
 irot       det(A)        alpha          n_x          n_y          n_z        tau_x        tau_y        tau_z
    1     1.000000     0.000000     1.000000     0.000000     0.000000     0.000000     0.000000     0.000000

 Subroutine IBZKPT returns following result:

 Found      4 irreducible k-points:

 Following reciprocal coordinates:
            Coordinates               Weight
  0.000000  0.000000  0.000000      1.000000
  0.500000  0.000000  0.000000      1.000000
  0.000000  0.500000  0.000000      1.000000
  0.500000  0.500000  0.000000      1.000000

 Following cartesian coordinates:
            Coordinates               Weight
  0.000000  0.000000  0.000000      1.000000
  0.044553 -0.025722  0.000000      1.000000
  0.000000  0.051445  0.000000      1.000000
  0.044553  0.025722  0.000000      1.000000

 TETIRR: Found     12 inequivalent tetrahedra from       24
 BZINTS: Fermi energy:  2.801171;801.000000 electrons
         Band energy:-373.224752;  BLOECHL correction: -0.535272