 vasp.5.4.4.18Apr17-6-g9f103f2a35 (build Nov 06 2019 15:09:28) complex

 executed on             LinuxIFC date 2023.08.09  11:47:43

 INCAR:
 POTCAR:    PAW_PBE Pt 04Feb2005
 POTCAR:    PAW_PBE Fe 06Sep2000
 POTCAR:    PAW_PBE Co 02Aug2007
 POTCAR:    PAW_PBE Cu 22Jun2005
 POTCAR:    PAW_PBE Ni 02Aug2007
 POTCAR:    PAW_PBE H 15Jun2001

 POTCAR:    PAW_PBE Pt 04Feb2005
   VRHFIN =Pt: s1d9

   TITEL  = PAW_PBE Pt 04Feb2005
   POMASS =  195.080; ZVAL   =   10.000    mass and valenz
   ENMAX  =  230.283; ENMIN  =  172.712 eV

 POTCAR:    PAW_PBE Fe 06Sep2000
   VRHFIN =Fe:  d7 s1

   TITEL  = PAW_PBE Fe 06Sep2000
   POMASS =   55.847; ZVAL   =    8.000    mass and valenz
   ENMAX  =  267.882; ENMIN  =  200.911 eV

 POTCAR:    PAW_PBE Co 02Aug2007
   VRHFIN =Co: d8 s1

   TITEL  = PAW_PBE Co 02Aug2007
   POMASS =   58.933; ZVAL   =    9.000    mass and valenz
   ENMAX  =  267.968; ENMIN  =  200.976 eV

 POTCAR:    PAW_PBE Cu 22Jun2005
   VRHFIN =Cu: d10 p1

   TITEL  = PAW_PBE Cu 22Jun2005
   POMASS =   63.546; ZVAL   =   11.000    mass and valenz
   ENMAX  =  295.446; ENMIN  =  221.585 eV

 POTCAR:    PAW_PBE Ni 02Aug2007
   VRHFIN =Ni:

   TITEL  = PAW_PBE Ni 02Aug2007
   POMASS =   58.690; ZVAL   =   10.000    mass and valenz
   ENMAX  =  269.532; ENMIN  =  202.149 eV

 POTCAR:    PAW_PBE H 15Jun2001
   VRHFIN =H: ultrasoft test

   TITEL  = PAW_PBE H 15Jun2001
   POMASS =    1.000; ZVAL   =    1.000    mass and valenz
   ENMAX  =  250.000; ENMIN  =  200.000 eV

 Optimization of the real space projectors (new method)

 maximal supplied QI-value         = 14.36
 optimisation between [QCUT,QGAM] = [ 11.92, 23.98] = [ 39.79,161.09] Ry
 Optimized for a Real-space Cutoff    1.49 Angstroem

   l    n(q)    QCUT    max X(q) W(low)/X(q) W(high)/X(q)  e(spline)
   2     10    11.920    66.195    0.79E-04    0.18E-03    0.24E-06
   2     10    11.920    64.643    0.81E-04    0.19E-03    0.24E-06
   0     11    11.920    95.520    0.28E-04    0.54E-04    0.18E-06
   0     11    11.920    63.403    0.27E-04    0.52E-04    0.17E-06
   1     10    11.920    19.961    0.18E-04    0.11E-03    0.23E-06
   1     10    11.920    13.289    0.25E-04    0.87E-04    0.19E-06
 Optimization of the real space projectors (new method)

[...]

   l    n(q)    QCUT    max X(q) W(low)/X(q) W(high)/X(q)  e(spline)
   2      9    11.864    60.317    0.21E-03    0.51E-03    0.25E-06
   2      9    11.864    55.921    0.21E-03    0.51E-03    0.26E-06
   0      9    11.864    51.690    0.22E-03    0.30E-04    0.17E-06
   0      9    11.864    30.015    0.20E-03    0.28E-04    0.15E-06
   1      9    11.864    18.849    0.76E-04    0.33E-03    0.17E-06
   1      9    11.864    14.624    0.60E-04    0.28E-03    0.15E-06
 Optimization of the real space projectors (new method)

 maximal supplied QI-value         = 34.20
 optimisation between [QCUT,QGAM] = [ 11.97, 23.94] = [ 40.13,160.53] Ry
 Optimized for a Real-space Cutoff    1.18 Angstroem

   l    n(q)    QCUT    max X(q) W(low)/X(q) W(high)/X(q)  e(spline)
   0      8    11.971    19.460    0.15E-03    0.31E-03    0.25E-06
   0      8    11.971    12.209    0.13E-03    0.29E-03    0.25E-06
   1      8    11.971     4.655    0.22E-03    0.24E-03    0.21E-06
  PAW_PBE Pt 04Feb2005                  :
  PAW_PBE Fe 06Sep2000                  :
  PAW_PBE Co 02Aug2007                  :
  PAW_PBE Cu 22Jun2005                  :
  PAW_PBE Ni 02Aug2007                  :
  PAW_PBE H 15Jun2001                   :

 POSCAR: Pt   Fe   Co   Cu   Ni   H
  positions in direct lattice
  velocities in cartesian coordinates
 exchange correlation table for  LEXCH =        8
   RHO(1)=    0.500       N(1)  =     2000
   RHO(2)=  100.500       N(2)  =     4000

 VTST: version 3.2, (02/03/18)

 CHAIN: initializing optimizer

 OPT: Using VASP QUASI-newton optimizer
 CHAIN: Read ICHAIN            0
 CHAIN: Running the NEB
 NEB:          SPRING     -5.000000
 NEB:          LCLIMB      T
 NEB:     LTANGENTOLD      F
 NEB:           LDNEB      F
 NEB:        LDNEBORG      F
 NEB:        LNEBCELL      F
 NEB:          EFIRST      0.000000
 NEB:           ELAST      0.000000

 POSCAR: 11.26
  positions in direct lattice
  velocities in cartesian coordinates

 POSCAR: Pt   Fe   Co   Cu   Ni   H
  positions in direct lattice

 ion  position               nearest neighbor table
   1  0.784  0.872  0.304-  49 2.54  59 2.60  28 2.67   4 2.76  33 2.77  61 2.78  19 2.79  11 2.81
                            29 2.84   2 2.85  12 2.86  60 2.89
   2  0.036  0.876  0.304-  79 2.52  77 2.57  30 2.77   4 2.80  60 2.82  33 2.83  22 2.83   1 2.85
                            28 2.89  16 2.90  52 2.97   6 3.02
   3  0.277  0.363  0.314-  64 2.54  68 2.66  31 2.66  39 2.73   5 2.73  43 2.76  13 2.76  25 2.77
                            19 2.81  30 2.83  33 2.87  18 2.96
   4  0.867  0.955  0.407-  60 2.67  11 2.75  12 2.76   1 2.76  17 2.77   2 2.80   9 2.82  16 2.82
                             6 2.88
   5  0.108  0.464  0.413-  39 2.62  33 2.69  12 2.71   3 2.73  16 2.73  10 2.74   7 2.75  25 2.84
                            13 3.02
   6  0.123  0.953  0.420-  82 1.59  81 1.72  14 2.79  52 2.81   9 2.83  16 2.84   8 2.84   4 2.88
                            22 2.88  10 2.93   2 3.02
   7  0.871  0.449  0.416-  39 2.62  75 2.64  29 2.74   5 2.75   9 2.76  15 2.77  10 2.78  27 2.83
                            12 2.89
   8  0.377  0.951  0.414-  52 2.55  43 2.58  61 2.69  13 2.75  27 2.76  11 2.77  14 2.82   6 2.84
                            10 2.86
   9  0.870  0.204  0.413-  81 1.90  75 2.70  60 2.72   7 2.76  15 2.77  17 2.77   4 2.82  22 2.83
                             6 2.83  10 2.93
  10  0.127  0.211  0.413-  39 2.62  43 2.64  13 2.73  22 2.74   5 2.74   7 2.78   8 2.86   6 2.93
                             9 2.93
  11  0.625  0.948  0.411-  61 2.65  12 2.72  19 2.74   4 2.75   8 2.77  13 2.78   1 2.81  27 2.83
                            17 2.87
  12  0.869  0.708  0.412-  33 2.68  29 2.69   5 2.71  11 2.72  16 2.76   4 2.76   1 2.86  27 2.87
                             7 2.89
  13  0.378  0.195  0.415-  43 2.66  10 2.73  19 2.73   8 2.75   3 2.76  11 2.78  17 2.81  25 2.84
                             5 3.02
  14  0.368  0.704  0.408-  44 2.56  52 2.61  27 2.78   6 2.79   8 2.82  30 2.82  16 2.83  25 2.83
                            15 2.85
  15  0.623  0.451  0.411-  44 2.60  75 2.60  18 2.76  27 2.76   9 2.77  17 2.77   7 2.77  14 2.85
                            25 2.87
  16  0.117  0.703  0.411-  33 2.65  30 2.70   5 2.73  12 2.76  25 2.80   4 2.82  14 2.83   6 2.84
                             2 2.90
  17  0.623  0.205  0.410-  60 2.68  18 2.74   9 2.77  15 2.77   4 2.77  19 2.78  13 2.81  25 2.83
                            11 2.87
  18  0.536  0.372  0.310-  67 2.53  68 2.63  26 2.68  17 2.74  15 2.76  44 2.76  25 2.78  60 2.78
                            75 2.85  30 2.88  19 2.90   3 2.96
  19  0.532  0.116  0.311-  80 2.52  68 2.54  59 2.57  43 2.69  13 2.73  11 2.74  61 2.75  17 2.78
                             1 2.79   3 2.81  18 2.90  60 2.93
  20  0.557  0.109  0.059-  37 2.52  48 2.53  57 2.55  62 2.63  34 2.71  63 2.75  56 2.89  45 3.25

  21  0.093  0.426  0.123-  47 2.48  40 2.50  36 2.53  70 2.60  42 2.61  69 2.66  31 2.74  57 2.74
                            64 2.76  50 2.79
  22  0.050  0.121  0.313-  77 2.52  65 2.59  55 2.60  43 2.70  52 2.74  10 2.74  39 2.75   9 2.83
                             2 2.83   6 2.88  60 2.92  75 2.94  31 3.36
  23  0.024  0.112  0.042-  40 2.53  41 2.56  70 2.59  62 2.65  24 2.72  45 2.74  35 2.80  76 2.81
                            53 2.86
  24  0.129  0.948  0.141-  79 2.49  35 2.53  77 2.57  55 2.58  70 2.60  53 2.61  58 2.68  73 2.68
                            23 2.72  66 2.78  38 2.80  41 2.95
  25  0.367  0.453  0.412-   3 2.77  18 2.78  30 2.78  16 2.80  14 2.83  17 2.83  13 2.84   5 2.84
                            15 2.87
  26  0.446  0.559  0.220-  73 2.48  74 2.49  51 2.53  79 2.55  30 2.62  44 2.62  18 2.68  32 2.72
                            78 2.74  67 2.97  58 3.06  68 3.13  64 3.14
  27  0.618  0.700  0.413-  44 2.60  61 2.68  29 2.74   8 2.76  15 2.76  14 2.78  11 2.83   7 2.83
                            12 2.87
  28  0.950  0.757  0.209-  58 2.57  50 2.57  66 2.61  42 2.62  33 2.63   1 2.67  49 2.69  64 2.78
                             2 2.89
  29  0.795  0.615  0.316-  42 2.55  49 2.61  32 2.64  39 2.65  12 2.69  75 2.69  33 2.73   7 2.74
                            27 2.74   1 2.84  61 2.85  44 2.87
  30  0.270  0.618  0.309-  79 2.51  26 2.62  33 2.63  64 2.69  16 2.70   2 2.77  25 2.78  14 2.82
                             3 2.83  18 2.88  44 3.01  52 3.12
  31  0.189  0.266  0.225-  70 2.50  55 2.57  57 2.59  43 2.61  39 2.62  65 2.65   3 2.66  21 2.74
                            64 2.76  42 2.84  80 2.85  68 3.01  22 3.36
  32  0.693  0.549  0.221-  69 2.52  54 2.57  49 2.58  51 2.59  44 2.62  29 2.64  78 2.67  75 2.70
                            42 2.71  26 2.72  67 2.75  65 2.79  50 3.30
  33  0.032  0.627  0.314-  30 2.63  28 2.63  16 2.65  64 2.68  12 2.68   5 2.69  29 2.73  42 2.74
                             1 2.77   2 2.83  39 2.84   3 2.87
  34  0.791  0.861  0.064-  48 2.37  50 2.40  66 2.51  36 2.70  20 2.71  62 2.82  63 2.83  35 2.86

  35  0.050  0.852  0.056-  36 2.39  24 2.53  66 2.57  58 2.66  72 2.69  23 2.80  34 2.86  53 2.90
                            62 2.93
  36  0.048  0.640  0.066-  35 2.39  47 2.52  21 2.53  58 2.57  50 2.59  34 2.70  72 2.75
  37  0.628  0.231  0.134-  67 2.48  51 2.49  74 2.50  56 2.50  20 2.52  41 2.53  59 2.53  62 2.56
                            68 2.61  66 2.82
  38  0.378  0.948  0.136-  45 2.38  80 2.45  55 2.46  53 2.47  73 2.51  63 2.51  78 2.52  54 2.58
                            48 2.62  57 2.79  24 2.80  70 2.85
  39  0.028  0.376  0.319-  42 2.61  10 2.62   7 2.62  31 2.62   5 2.62  65 2.64  29 2.65  75 2.70
                             3 2.73  22 2.75  33 2.84  43 3.01
  40  0.980  0.356  0.044-  69 2.33  76 2.41  21 2.50  23 2.53  71 2.54  70 2.64  45 3.11
  41  0.864  0.208  0.134-  77 2.39  76 2.41  69 2.49  67 2.50  37 2.53  23 2.56  65 2.57  62 2.59
                            66 2.61  70 2.67  51 2.84  24 2.95
  42  0.945  0.527  0.221-  50 2.47  29 2.55  65 2.61  21 2.61  39 2.61  28 2.62  69 2.65  32 2.71
                            64 2.71  33 2.74  49 2.75  31 2.84
  43  0.297  0.108  0.320-  55 2.51  52 2.55   8 2.58  31 2.61  80 2.62  10 2.64  13 2.66  19 2.69
                            22 2.70  61 2.72   3 2.76  39 3.01
  44  0.538  0.617  0.319-  14 2.56  15 2.60  27 2.60  26 2.62  32 2.62  78 2.65  75 2.72  18 2.76
                            61 2.82  52 2.84  29 2.87  30 3.01
  45  0.273  0.099  0.052-  38 2.38  53 2.39  70 2.41  57 2.59  63 2.73  23 2.74  40 3.11  20 3.25

  46  0.533  0.620  0.050-  51 2.36  73 2.40  54 2.41  71 2.45  72 2.60  56 2.76  53 2.78  76 2.82
                            63 2.89
  47  0.277  0.422  0.059-  74 2.25  72 2.41  21 2.48  36 2.52  56 2.59  57 2.67
  48  0.621  0.927  0.141-  49 2.29  34 2.37  80 2.44  54 2.48  63 2.51  20 2.53  38 2.62  59 2.63
                            50 2.71
[...]
   -.275E+02 -.766E+02 -.286E+02   0.266E+02 0.762E+02 0.289E+02   0.983E+00 0.423E+00 -.352E+00   -.253E-01 -.618E-02 0.989E-01
   -.351E+02 -.180E+02 -.122E+02   0.355E+02 0.188E+02 0.116E+02   -.446E+00 -.827E+00 0.474E+00   0.372E-01 -.694E-01 0.149E+00
   -.135E+01 -.592E+01 -.107E+04   0.151E+01 0.616E+01 0.107E+04   -.125E+00 -.140E+00 0.209E+00   -.248E-01 -.288E-01 0.350E-01
   -.693E+02 0.804E+02 0.216E+04   0.703E+02 -.806E+02 -.216E+04   -.889E+00 0.519E-01 -.308E+01   0.210E-01 0.904E-02 0.701E-02
   0.797E+02 0.320E+02 0.223E+04   -.799E+02 -.333E+02 -.222E+04   0.351E+00 0.134E+01 -.280E+01   -.193E-01 0.840E-02 0.164E-01
   0.114E+03 0.387E+01 0.211E+04   -.113E+03 -.289E+01 -.211E+04   -.113E+01 -.916E+00 -.200E+01   -.933E-02 0.661E-02 0.252E-01
   0.805E+02 0.923E+02 0.119E+04   -.797E+02 -.915E+02 -.119E+04   -.858E+00 -.848E+00 0.464E-01   -.121E-02 -.167E-01 0.628E-01
   -.789E+01 -.112E+03 0.121E+04   0.799E+01 0.111E+03 -.121E+04   -.161E+00 0.559E+00 -.710E+00   -.109E-01 0.619E-01 0.771E-01
   -.714E+02 -.264E+02 -.115E+04   0.714E+02 0.265E+02 0.115E+04   0.244E-01 -.119E+00 0.133E+00   -.292E-01 0.117E-01 0.328E-01
   -.254E+03 -.241E+02 0.237E+04   0.251E+03 0.237E+02 -.237E+04   0.277E+01 0.471E+00 -.416E+01   0.274E-01 -.232E-01 0.172E-01
   -.322E+02 0.750E+02 0.121E+04   0.314E+02 -.746E+02 -.121E+04   0.855E+00 -.526E+00 -.643E+00   0.139E-01 -.207E-01 0.818E-01
   -.107E+03 -.277E+02 0.274E+02   0.107E+03 0.282E+02 -.272E+02   0.379E+00 -.527E+00 -.412E+00   0.863E-02 -.287E-01 0.963E-01
   0.104E+02 -.900E+02 -.120E+04   -.108E+02 0.899E+02 0.120E+04   0.438E+00 0.107E+00 0.314E+00   0.370E-02 0.495E-01 0.373E-01
   0.408E+02 0.137E+02 -.118E+04   -.410E+02 -.140E+02 0.118E+04   0.757E-01 0.288E+00 -.570E+00   0.300E-01 -.594E-01 0.627E-01
   -.831E+02 -.156E+03 0.229E+04   0.810E+02 0.153E+03 -.229E+04   0.207E+01 0.309E+01 -.369E+01   0.304E-02 0.273E-01 0.244E-01
   0.135E+02 -.515E+02 0.263E+04   -.136E+02 0.517E+02 -.263E+04   0.280E-01 -.211E+00 -.301E+01   -.195E-01 -.119E-01 -.267E-01
   0.233E+03 0.978E+02 0.253E+04   -.232E+03 -.953E+02 -.253E+04   -.666E+00 -.242E+01 -.309E+01   -.136E-01 -.106E-01 0.218E-01
   -.112E+03 -.728E+02 0.128E+04   0.111E+03 0.718E+02 -.128E+04   0.972E+00 0.955E+00 0.106E+00   0.137E-01 0.410E-01 0.624E-01
   -.138E+03 0.120E+02 0.298E+02   0.138E+03 -.121E+02 -.299E+02   0.140E-01 0.303E-01 0.479E-01   0.317E-01 -.133E-01 0.112E+00
   -.211E+03 -.165E+02 0.145E+04   0.211E+03 0.173E+02 -.145E+04   -.264E+00 -.784E+00 0.175E+00   0.539E-01 -.202E-01 0.785E-01
   0.625E+01 -.572E+01 0.131E+04   -.606E+01 0.539E+01 -.131E+04   -.128E+00 0.491E+00 -.411E+00   -.765E-02 -.286E-01 0.719E-01
   0.953E+02 0.302E+02 -.140E+04   -.952E+02 -.297E+02 0.140E+04   -.279E+00 -.501E+00 0.556E+00   -.114E-01 0.499E-01 0.475E-01
   0.776E+02 -.443E+02 0.263E+04   -.769E+02 0.446E+02 -.263E+04   -.699E+00 -.476E+00 -.316E+01   -.173E-02 0.266E-01 0.310E-02
   -.717E+02 -.919E+01 0.138E+04   0.717E+02 0.954E+01 -.138E+04   -.983E-01 -.406E+00 -.430E+00   0.369E-02 0.504E-03 0.584E-01
   0.573E+02 -.102E+03 -.308E+02   -.566E+02 0.102E+03 0.313E+02   -.811E+00 0.514E+00 -.393E+00   0.346E-02 0.601E-01 0.657E-01
   0.131E+03 0.940E+02 0.327E+04   -.131E+03 -.924E+02 -.326E+04   -.671E-01 -.150E+01 -.485E+01   -.443E-02 -.184E-01 -.360E-02
   0.376E+02 -.212E+02 0.179E+04   -.379E+02 0.209E+02 -.179E+04   0.233E+00 0.326E+00 0.441E+00   -.261E-01 -.992E-02 0.954E-01
   0.241E+03 -.377E+02 0.132E+04   -.242E+03 0.383E+02 -.132E+04   0.459E+00 -.503E+00 0.555E+00   -.413E-01 0.747E-03 0.877E-01
   0.212E+02 0.118E+03 0.148E+03   -.220E+02 -.118E+03 -.148E+03   0.751E+00 -.338E+00 -.475E+00   0.153E-01 0.254E-01 0.110E+00
   0.142E+02 0.892E+02 -.158E+04   -.135E+02 -.892E+02 0.158E+04   -.710E+00 -.121E+00 0.516E+00   0.286E-01 0.538E-01 0.760E-01
[...]
   -.148E+03 -.409E+02 0.147E+04   0.148E+03 0.414E+02 -.147E+04   0.342E+00 -.399E+00 -.668E+00   0.451E-01 -.404E-01 0.118E+00
   -.799E+02 -.122E+02 0.153E+04   0.804E+02 0.119E+02 -.153E+04   -.540E+00 0.348E+00 -.749E+00   0.819E-02 0.160E-02 0.955E-01
   -.234E+03 -.103E+03 0.294E+04   0.233E+03 0.102E+03 -.294E+04   0.116E+01 0.923E+00 -.327E+01   0.213E-01 -.504E-02 -.606E-02
   0.145E+03 -.769E+02 0.285E+04   -.146E+03 0.772E+02 -.285E+04   0.418E+00 -.156E+00 -.812E+00   -.966E-02 -.392E-02 0.263E-02
   0.429E+02 -.268E+02 0.149E+04   -.425E+02 0.268E+02 -.149E+04   -.329E+00 0.561E-01 0.190E+00   -.239E-01 0.158E-02 0.694E-01
   0.124E+03 0.255E+02 0.137E+04   -.123E+03 -.257E+02 -.137E+04   -.956E+00 0.285E+00 -.828E+00   -.102E-01 -.228E-01 0.903E-01
   -.232E+02 -.327E+02 -.151E+04   0.232E+02 0.328E+02 0.151E+04   0.108E-01 -.181E+00 0.534E-01   0.205E-01 -.306E-01 0.815E-01
   -.272E+02 0.268E+02 0.291E+04   0.276E+02 -.260E+02 -.291E+04   -.352E+00 -.665E+00 -.173E+01   -.309E-03 -.299E-01 0.957E-02
   -.349E+02 0.173E+03 0.164E+02   0.352E+02 -.173E+03 -.158E+02   -.277E+00 -.332E-01 -.602E+00   0.101E-01 0.309E-01 0.949E-01
   -.132E+02 0.508E+02 -.851E+02   0.132E+02 -.500E+02 0.850E+02   0.467E-01 -.867E+00 -.190E-01   0.110E-02 0.410E-01 0.989E-01
   0.167E+03 -.539E-01 -.189E+03   -.167E+03 0.805E+00 0.190E+03   -.487E-01 -.753E+00 -.517E+00   -.259E-01 0.310E-01 0.708E-01
   -.427E+02 -.928E+02 0.548E+02   0.422E+02 0.924E+02 -.548E+02   0.458E+00 0.382E+00 -.191E+00   -.287E-01 0.485E-01 0.102E+00
   0.670E+01 -.859E+01 -.323E+03   -.724E+01 0.943E+01 0.324E+03   0.311E+00 -.645E+00 -.173E+01   -.123E-02 0.367E-02 -.523E-02
   -.682E+01 0.848E+01 -.323E+03   0.744E+01 -.910E+01 0.325E+03   -.607E+00 0.381E+00 -.276E+01   -.113E-02 0.150E-02 -.427E-02
   -.316E+01 0.269E+00 0.103E+02   0.703E-12 0.316E-12 -.191E-10   0.313E+01 -.391E+00 -.144E+02   0.325E-01 0.951E-01 0.406E+01

 POSITION                                       TOTAL-FORCE (eV/Angst)
     13.69657      8.47767      6.69816         0.017290      0.003897     -0.004319
      5.32601      8.51456      6.68091         0.045469      0.025870      0.047232
      5.14794      3.52406      6.91036         0.000619      0.001984     -0.003004
     15.08837      9.28286      8.94411        -0.021423     -0.010520      0.014044
      3.82070      4.51343      9.07824         0.002301      0.004212     -0.004942
      6.72462      9.26337      9.25945         0.031561      0.028185      0.203478
     12.29977      4.36576      9.15698         0.002876      0.008921      0.004094
      9.56467      9.24059      9.11779         0.025207     -0.008925      0.003712
     10.90726      1.98320      9.09392         0.004398      0.001858      0.078333
      2.60911      2.05049      9.08745         0.017348      0.019956      0.006048
     12.33610      9.21501      9.04484        -0.004698     -0.006317     -0.005921
     13.72877      6.88371      9.07322         0.005305      0.000619     -0.000774
      5.33458      1.89988      9.13245         0.008678      0.001277      0.001120
      8.08662      6.84737      8.97423        -0.003923     -0.001242      0.010169
      9.52902      4.38510      9.05158         0.007739     -0.014841     -0.000445
      5.26194      6.83461      9.04012         0.005039     -0.005816      0.013093
      8.13605      1.98908      9.01440         0.005952      0.004228      0.000930
      8.10381      3.61949      6.81909        -0.000613     -0.000333     -0.004407
      6.62134      1.13063      6.84809         0.001541     -0.002375     -0.001870
      6.85997      1.05619      1.30452         0.010281     -0.004723     -0.009355
      3.43490      4.14022      2.70460         0.010137     -0.012512      0.007119
      1.24362      1.17401      6.87905        -0.015652     -0.021412      0.029285
      0.89096      1.08547      0.91422         0.031545      0.016512     -0.004750
      6.76854      9.20926      3.10248        -0.001133     -0.004921      0.026355
      6.66025      4.40544      9.06144         0.002988      0.000565      0.001079
      8.14659      5.43358      4.84371        -0.020958     -0.015762      0.038200
     10.85962      6.80448      9.07978        -0.003282     -0.011376     -0.002245
     14.90317      7.35364      4.60198         0.141580      0.005216      0.027272
     12.36754      5.97427      6.94509         0.002718     -0.000033     -0.000776
      6.50094      6.01090      6.79257        -0.001811      0.006431      0.002152
      3.61430      2.58306      4.95012        -0.000691      0.028796      0.003062
     10.86385      5.33986      4.86887         0.018101     -0.035569      0.070575
      3.87543      6.09572      6.90692         0.007581      0.010067      0.003145
     13.70592      8.36565      1.41581        -0.008217      0.001906     -0.018655
      5.33677      8.27602      1.23892        -0.014693     -0.016179     -0.042538
      4.13554      6.22470      1.46246         0.005734      0.008580     -0.005860
      8.34268      2.24715      2.95426        -0.015535     -0.001489     -0.000282
      9.56642      9.21763      2.98551         0.002385      0.009676      0.005564
      2.42860      3.65709      7.02710        -0.003130     -0.008514      0.002209
     12.99964      3.45759      0.96035        -0.003988      0.008176     -0.010020
     10.86191      2.01860      2.94877         0.005511     -0.003193      0.021371
     13.56226      5.11862      4.86453        -0.018496     -0.019209      0.002019
      3.93642      1.05400      7.04148        -0.014799     -0.002828     -0.004662
      9.50327      5.99219      7.01428        -0.002122     -0.008084      0.001902
      3.61805      0.95781      1.13737         0.007234     -0.013862     -0.019480
      9.46777      6.02936      1.09765        -0.014917     -0.001068      0.015414
      5.47508      4.09678      1.29215         0.016242     -0.010512     -0.001969
     12.17188      9.01006      3.09748         0.009885      0.016694      0.001348
     12.23201      7.52981      4.84967         0.041761     -0.011434      0.094270
     13.20191      6.51639      2.86005         0.014602      0.006235     -0.007405
      9.43936      4.48143      2.88198         0.040604      0.030060     -0.003332
      8.27630      8.56031      7.02043        -0.029515      0.009777      0.017190
      8.21587      8.51474      1.04613         0.021658     -0.009207      0.020353
     10.79730      6.95699      2.87721        -0.021476     -0.024823      0.037054
      2.74728      0.16957      5.01634        -0.077196      0.046222      0.207831
      8.01211      3.68639      0.93635         0.026086      0.007237      0.010013
      5.15117      2.01811      2.93976        -0.001363     -0.006726      0.000603
      5.82064      6.71680      3.33353         0.012520     -0.008693      0.010326
      8.08961      0.55272      4.82086         0.034079      0.037300      0.048444
      9.54817      1.24070      6.86284         0.025796      0.011277      0.017235
[...]
      6.61860      2.70072      4.85414         0.016104     -0.011079      0.005046
     12.00438      4.22973      2.91463        -0.007636     -0.003340     -0.033730
      2.29947      1.81745      2.96062         0.008799      0.011613     -0.005846
     11.89741      5.74769      1.03654        -0.001971      0.018164      0.008219
      6.86693      6.06581      1.23796         0.025291     -0.013106      0.009644
      8.32773      7.03578      2.95620        -0.004748      0.031188     -0.029312
      6.88302      4.26924      3.03792        -0.008165     -0.007427      0.008384
     10.95228      3.68508      6.99687         0.011451     -0.013135      0.010739
     10.59153      3.44288      1.02771        -0.012107      0.022157     -0.008044
     10.97701      0.65866      4.91478        -0.033083     -0.074928      0.117408
      9.65018      7.71810      5.00765        -0.057682      0.037668      0.044857
      7.13050      7.75542      5.09564        -0.069494      0.052877     -0.058360
      5.25728      0.25492      4.92126        -0.005332     -0.006344     -0.021859
      0.46225      0.71897     10.31841        -0.228220      0.203923     -0.697739
      7.05343      9.05281     10.80020         0.000224     -0.226187     -0.450981
    total drift:                                0.004077     -0.026681     -0.010247

  FREE ENERGIE OF THE ION-ELECTRON SYSTEM (eV)
  free  energy   TOTEN  =      -505.06230630 eV

  energy  without entropy=     -505.08400135  energy(sigma->0) =     -505.06953799

 d Force =-0.2660402E-02[-0.267E-02,-0.265E-02]  d Energy =-0.2651304E-02-0.910E-05
 d Force = 0.1012577E+02[ 0.101E+02, 0.101E+02]  d Ewald  = 0.1012577E+02 0.102E-05

 NEB: the previous image is higher in energy: F
 NEB: the next image is higher in energy    : T
 NEB: only next energy greater

 NEB: Tangent
     -0.01698     -0.00440      0.00217
     -0.04193     -0.02524     -0.04575
     -0.00290      0.00086      0.00185
      0.02430      0.01283     -0.01132
     -0.00309     -0.00318      0.00387
     -0.02145     -0.02435     -0.17893
     -0.00419     -0.00962     -0.00359
     -0.02446      0.00759     -0.00056
     -0.00423     -0.00025     -0.07780
     -0.01986     -0.01915     -0.00410
      0.00283      0.00846      0.00627
     -0.00640     -0.00122      0.00012
     -0.00787      0.00249      0.00206
      0.00412      0.00250     -0.00717
     -0.00714      0.01448      0.00126
     -0.00458      0.00829     -0.01158
     -0.00408     -0.00289      0.00035
      0.00072      0.00128      0.00102
     -0.00093      0.00323      0.00104
      0.00000      0.00000      0.00000
      0.00000      0.00000      0.00000
      0.01364      0.02259     -0.02605
      0.00000      0.00000      0.00000
      0.00000      0.00000      0.00000
     -0.00232      0.00102      0.00148
      0.00000      0.00000      0.00000
      0.00277      0.01207      0.00221
      0.00000      0.00000      0.00000
     -0.00295     -0.00220      0.00012
     -0.00072     -0.00687     -0.00235
      0.00000      0.00000      0.00000
      0.00000      0.00000      0.00000
     -0.00556     -0.00755     -0.00091
      0.00000      0.00000      0.00000
      0.00000      0.00000      0.00000
      0.00000      0.00000      0.00000
      0.00000      0.00000      0.00000
      0.00000      0.00000      0.00000
      0.00265      0.00091     -0.00051
      0.00000      0.00000      0.00000
      0.00000      0.00000      0.00000
      0.00000      0.00000      0.00000
      0.00753     -0.00106     -0.00217
      0.00387      0.00652     -0.00283
      0.00000      0.00000      0.00000
      0.00000      0.00000      0.00000
      0.00000      0.00000      0.00000
      0.00000      0.00000      0.00000
      0.00000      0.00000      0.00000
      0.00000      0.00000      0.00000
      0.00000      0.00000      0.00000
      0.02069      0.00022     -0.01613
      0.00000      0.00000      0.00000
      0.00000      0.00000      0.00000
      0.00000      0.00000      0.00000
      0.00000      0.00000      0.00000
      0.00000      0.00000      0.00000
      0.00000      0.00000      0.00000
      0.00000      0.00000      0.00000
     -0.02423     -0.01041     -0.01695
[...]
      0.00000      0.00000      0.00000
      0.00000      0.00000      0.00000
      0.00000      0.00000      0.00000
      0.00000      0.00000      0.00000
      0.00000      0.00000      0.00000
      0.00000      0.00000      0.00000
      0.00000      0.00000      0.00000
     -0.00963      0.01456     -0.00462
      0.00000      0.00000      0.00000
      0.00000      0.00000      0.00000
      0.00000      0.00000      0.00000
      0.00000      0.00000      0.00000
      0.00000      0.00000      0.00000
      0.23267     -0.24537      0.74701
      0.01720      0.23209      0.47155

 NEB: forces: par spring, perp REAL, dneb     0.025550    0.058011    0.000000
 NEB: distance to prev, next image, angle between     1.873018    1.878128  108.359249
 NEB: projections on to tangent (spring, REAL)     0.025550   -0.945950

 stress matrix after NEB project (eV)
   -107.29993      5.89465     -1.09787
      5.89465   -113.20597     -0.22337
     -1.09787     -0.22337     -5.44518
  FORCES: max atom, RMS     0.044439    0.007000
  FORCE total and by dimension    0.063389    0.034451
  Stress total and by dimension  156.302658  113.205968
 Quasi-Newton relaxation of ions (Broydens 2nd method)
  g(Force)  = 0.677E-03   g(Stress)= 0.000E+00

 retain information from N=  7 steps
 eigenvalues of (default step * inverse Hessian matrix)
  average eigenvalue of G=   2.1956
 eigenvalue spectrum of G is  5.6789  5.6789  2.5799  0.2993  0.6392  0.4623  0.0310

 reached required accuracy - stopping structural energy minimisation