 vasp.5.4.4.18Apr17-6-g9f103f2a35 (build Oct 25 2019 11:13:22) complex

 executed on             LinuxIFC date 2021.10.28  18:56:40

 INCAR:
 POTCAR:    PAW_PBE Pt 04Feb2005
 POTCAR:    PAW_PBE Fe 06Sep2000
 POTCAR:    PAW_PBE Co 02Aug2007
 POTCAR:    PAW_PBE Cu 22Jun2005
 POTCAR:    PAW_PBE Ni 02Aug2007
 POTCAR:    PAW_PBE H 15Jun2001
 POTCAR:    PAW_PBE Pt 04Feb2005
   VRHFIN =Pt: s1d9

   TITEL  = PAW_PBE Pt 04Feb2005
   POMASS =  195.080; ZVAL   =   10.000    mass and valenz
   ENMAX  =  230.283; ENMIN  =  172.712 eV

 POTCAR:    PAW_PBE Fe 06Sep2000
   VRHFIN =Fe:  d7 s1

   TITEL  = PAW_PBE Fe 06Sep2000
   POMASS =   55.847; ZVAL   =    8.000    mass and valenz
   ENMAX  =  267.882; ENMIN  =  200.911 eV

 POTCAR:    PAW_PBE Co 02Aug2007
   VRHFIN =Co: d8 s1

   TITEL  = PAW_PBE Co 02Aug2007
   POMASS =   58.933; ZVAL   =    9.000    mass and valenz
   ENMAX  =  267.968; ENMIN  =  200.976 eV

 POTCAR:    PAW_PBE Cu 22Jun2005
   VRHFIN =Cu: d10 p1

   TITEL  = PAW_PBE Cu 22Jun2005
   POMASS =   63.546; ZVAL   =   11.000    mass and valenz
   ENMAX  =  295.446; ENMIN  =  221.585 eV

 POTCAR:    PAW_PBE Ni 02Aug2007
   VRHFIN =Ni:

   TITEL  = PAW_PBE Ni 02Aug2007
   POMASS =   58.690; ZVAL   =   10.000    mass and valenz
   ENMAX  =  269.532; ENMIN  =  202.149 eV

 POTCAR:    PAW_PBE H 15Jun2001
   VRHFIN =H: ultrasoft test

   TITEL  = PAW_PBE H 15Jun2001
   POMASS =    1.000; ZVAL   =    1.000    mass and valenz
   ENMAX  =  250.000; ENMIN  =  200.000 eV

 Optimization of the real space projectors (new method)

 maximal supplied QI-value         = 14.36
 optimisation between [QCUT,QGAM] = [ 11.92, 23.98] = [ 39.79,161.09] Ry
 Optimized for a Real-space Cutoff    1.49 Angstroem

   l    n(q)    QCUT    max X(q) W(low)/X(q) W(high)/X(q)  e(spline)
   2     10    11.920    66.195    0.79E-04    0.18E-03    0.24E-06
   2     10    11.920    64.643    0.81E-04    0.19E-03    0.24E-06
   0     11    11.920    95.520    0.28E-04    0.54E-04    0.18E-06
   0     11    11.920    63.403    0.27E-04    0.52E-04    0.17E-06
   1     10    11.920    19.961    0.18E-04    0.11E-03    0.23E-06
   1     10    11.920    13.289    0.25E-04    0.87E-04    0.19E-06
 Optimization of the real space projectors (new method)

[...]

   l    n(q)    QCUT    max X(q) W(low)/X(q) W(high)/X(q)  e(spline)
   2      9    11.864    60.317    0.21E-03    0.51E-03    0.25E-06
   2      9    11.864    55.921    0.21E-03    0.51E-03    0.26E-06
   0      9    11.864    51.690    0.22E-03    0.30E-04    0.17E-06
   0      9    11.864    30.015    0.20E-03    0.28E-04    0.15E-06
   1      9    11.864    18.849    0.76E-04    0.33E-03    0.17E-06
   1      9    11.864    14.624    0.60E-04    0.28E-03    0.15E-06
 Optimization of the real space projectors (new method)

 maximal supplied QI-value         = 34.20
 optimisation between [QCUT,QGAM] = [ 11.97, 23.94] = [ 40.13,160.53] Ry
 Optimized for a Real-space Cutoff    1.18 Angstroem

   l    n(q)    QCUT    max X(q) W(low)/X(q) W(high)/X(q)  e(spline)
   0      8    11.971    19.460    0.15E-03    0.31E-03    0.25E-06
   0      8    11.971    12.209    0.13E-03    0.29E-03    0.25E-06
   1      8    11.971     4.655    0.22E-03    0.24E-03    0.21E-06
  PAW_PBE Pt 04Feb2005                  :
  PAW_PBE Fe 06Sep2000                  :
  PAW_PBE Co 02Aug2007                  :
  PAW_PBE Cu 22Jun2005                  :
  PAW_PBE Ni 02Aug2007                  :
  PAW_PBE H 15Jun2001                   :

 POSCAR: 11.26-high
  positions in cartesian coordinates
 exchange correlation table for  LEXCH =        8
   RHO(1)=    0.500       N(1)  =     2000
   RHO(2)=  100.500       N(2)  =     4000

 ion  position               nearest neighbor table
   1  0.776  0.870  0.315-  56 2.60  32 2.67  15 2.73  33 2.76  65 2.77  23 2.78  40 2.79   8 2.81
                            16 2.82  41 2.87   3 2.89   2 2.91
   2  0.036  0.870  0.315-  79 2.64  38 2.64  32 2.73   8 2.76  26 2.76  10 2.77  20 2.80  34 2.82
                            41 2.82  58 2.83   3 2.84   1 2.91
   3  0.036  0.616  0.313-  50 2.58  68 2.63  32 2.69   4 2.80   6 2.81   9 2.82  20 2.83   2 2.84
                            33 2.84  16 2.87  34 2.87   1 2.89
   4  0.028  0.371  0.319-  50 2.61  36 2.68  42 2.70  11 2.73  77 2.77   9 2.78  14 2.78   3 2.80
                            33 2.81  26 2.83   6 2.89   5 2.96
   5  0.290  0.106  0.319-  61 2.55  36 2.68  39 2.69  58 2.69  12 2.70  65 2.77  26 2.77  14 2.79
                            17 2.79  23 2.80   6 2.91   4 2.96
   6  0.287  0.367  0.317-  68 2.60  71 2.63  36 2.71  23 2.75  29 2.77  17 2.80   9 2.80   3 2.81
                            34 2.86   4 2.89  22 2.90   5 2.91
   7  0.860  0.689  0.125-  74 2.52  43 2.54  45 2.59  55 2.63  60 2.65  50 2.65  56 2.66  32 2.70
                            72 2.71  25 2.83  64 3.07
   8  0.868  0.952  0.417-   2 2.76  16 2.79  41 2.81  20 2.81   1 2.81  21 2.82  13 2.82  15 2.83
                            10 2.85
   9  0.115  0.456  0.420-  20 2.76   4 2.78  16 2.78  11 2.79   6 2.80  29 2.81   3 2.82  14 2.84
                            17 2.90
  10  0.124  0.948  0.417-  81 1.57  58 2.67  26 2.75   2 2.77  12 2.77  18 2.77  14 2.81  20 2.81
                             8 2.85  13 2.88
  11  0.869  0.449  0.421-  77 2.72   4 2.73  19 2.74  13 2.77  14 2.79   9 2.79  33 2.82  31 2.83
                            16 2.85
  12  0.372  0.946  0.419-  58 2.69   5 2.70  65 2.71  18 2.71  31 2.75  10 2.77  15 2.77  17 2.81
                            14 2.85
  13  0.867  0.204  0.416-  77 2.71  26 2.76  11 2.77  41 2.77  21 2.78  19 2.79  14 2.82   8 2.82
                            10 2.88
  14  0.119  0.201  0.420-   4 2.78   5 2.79  11 2.79  26 2.81  17 2.81  10 2.81  13 2.82   9 2.84
                            12 2.85
  15  0.619  0.947  0.418-   1 2.73  65 2.75  16 2.76  31 2.77  12 2.77  17 2.78  23 2.80   8 2.83
                            21 2.90
  16  0.867  0.704  0.420-  15 2.76  33 2.77   9 2.78  20 2.79   8 2.79   1 2.82  31 2.82  11 2.85
                             3 2.87
  17  0.372  0.196  0.420-  23 2.75  15 2.78   5 2.79   6 2.80  12 2.81  14 2.81  21 2.82  29 2.85
                             9 2.90
  18  0.373  0.703  0.418-  51 2.62  58 2.68  12 2.71  31 2.73  34 2.74  10 2.77  19 2.78  29 2.85
                            20 2.89
  19  0.622  0.457  0.419-  51 2.65  77 2.66  31 2.72  22 2.73  11 2.74  18 2.78  13 2.79  21 2.84
                            29 2.88
  20  0.117  0.701  0.419-  81 1.77   9 2.76  34 2.78  16 2.79  29 2.79   2 2.80   8 2.81  10 2.81
                             3 2.83  18 2.89
  21  0.619  0.205  0.417-  22 2.75  23 2.77  13 2.78  41 2.79  29 2.81   8 2.82  17 2.82  19 2.84
                            15 2.90
  22  0.541  0.376  0.318-  70 2.60  71 2.65  30 2.65  77 2.67  51 2.71  19 2.73  21 2.75  34 2.79
                            41 2.80  29 2.81   6 2.90  23 2.91
  23  0.531  0.121  0.317-  71 2.65  40 2.70  39 2.75  17 2.75   6 2.75  21 2.77   1 2.78  15 2.80
                             5 2.80  41 2.84  22 2.91  65 2.94
  24  0.544  0.120  0.050-  46 2.53  63 2.54  55 2.60  43 2.70  66 2.73  54 2.84  62 2.84  52 2.87
                            67 2.92
  25  0.114  0.439  0.123-  54 2.49  48 2.53  45 2.58  36 2.70  73 2.70  63 2.75  50 2.75  68 2.78
                             7 2.83  72 2.85  64 2.94  76 3.11
  26  0.039  0.114  0.316-  79 2.55  61 2.63  42 2.66  10 2.75   2 2.76  13 2.76   5 2.77  58 2.79
                            14 2.81  41 2.82   4 2.83  77 2.96
  27  0.024  0.132  0.037-  48 2.54  49 2.59  73 2.61  28 2.65  78 2.71  59 2.73  66 2.74  52 2.92
                            44 3.11
  28  0.115  0.958  0.130-  59 2.54  79 2.58  44 2.59  38 2.63  27 2.65  61 2.66  69 2.68  73 2.69
                            47 2.79  49 2.84  35 2.87  64 2.93
  29  0.367  0.453  0.420-   6 2.77  34 2.77  20 2.79  21 2.81   9 2.81  22 2.81  18 2.85  17 2.85
                            19 2.88
  30  0.456  0.540  0.221-  76 2.51  57 2.56  22 2.65  34 2.67  37 2.72  51 2.73  35 2.73  80 2.74
                            71 2.76  38 2.79  70 2.79  68 2.85
  31  0.618  0.701  0.421-  51 2.67  65 2.71  19 2.72  18 2.73  33 2.75  12 2.75  15 2.77  16 2.82
                            11 2.83
  32  0.941  0.791  0.218-  64 2.57  69 2.60   1 2.67   3 2.69   7 2.70   2 2.73  56 2.78  40 2.87
                            50 2.87  79 2.91  68 3.02  38 3.04
  33  0.780  0.623  0.318-  56 2.60  37 2.62  50 2.63  65 2.69  77 2.74  31 2.75  51 2.75   1 2.76
                            16 2.77   4 2.81  11 2.82   3 2.84
  34  0.289  0.621  0.318-  38 2.66  30 2.67  68 2.73  18 2.74  58 2.76  51 2.77  29 2.77  20 2.78
                            22 2.79   2 2.82   6 2.86   3 2.87
  35  0.377  0.709  0.122-  53 2.48  75 2.55  59 2.60  47 2.62  60 2.68  30 2.73  80 2.74  38 2.75
                            57 2.85  76 2.87  28 2.87  64 2.87
  36  0.198  0.277  0.223-  73 2.54  63 2.54   4 2.68   5 2.68  25 2.70   6 2.71  61 2.76  42 2.81
                            68 2.83  50 2.84  39 2.91  71 2.97
  37  0.694  0.548  0.222-  72 2.55  60 2.56  57 2.60  33 2.62  56 2.63  80 2.66  51 2.70  77 2.70
                            30 2.72  50 2.75  70 2.82  42 2.88
  38  0.211  0.792  0.224-  64 2.58  58 2.58  61 2.62  28 2.63   2 2.64  34 2.66  80 2.70  35 2.75
                            30 2.79  79 2.85  68 3.02  32 3.04
  39  0.456  0.016  0.221-  47 2.49  55 2.60  80 2.62  63 2.64  65 2.65  61 2.65   5 2.69  56 2.69
                            23 2.75  40 2.78  36 2.91  71 3.11
  40  0.686  0.047  0.215-  46 2.52  69 2.55  55 2.59  23 2.70  71 2.71  41 2.74  39 2.78   1 2.79
                            70 2.86  32 2.87  56 2.93  79 2.99
  41  0.784  0.121  0.313-  70 2.56  79 2.59  40 2.74  13 2.77  21 2.79  22 2.80   8 2.81  26 2.82
                             2 2.82  23 2.84   1 2.87  77 2.87
  42  0.943  0.286  0.222-  49 2.49  72 2.55  70 2.65  26 2.66  79 2.67  73 2.68   4 2.70  77 2.70
                            50 2.78  36 2.81  37 2.88  61 3.01
  43  0.787  0.882  0.049-  55 2.41  69 2.50   7 2.54  44 2.64  24 2.70  66 2.72  45 2.88  67 2.95

  44  0.036  0.851  0.047-  45 2.41  69 2.53  64 2.55  28 2.59  43 2.64  75 2.68  59 3.07  27 3.11

  45  0.048  0.630  0.044-  44 2.41  75 2.46  64 2.49  25 2.58   7 2.59  54 2.82  43 2.88
  46  0.621  0.226  0.132-  70 2.50  62 2.51  57 2.51  40 2.52  24 2.53  66 2.58  76 2.58  71 2.59
                            49 2.65  69 2.81  63 2.90
  47  0.371  0.944  0.131-  59 2.38  52 2.40  39 2.49  67 2.54  61 2.56  35 2.62  80 2.62  60 2.68
                            73 2.76  55 2.77  28 2.79
  48  0.994  0.372  0.045-  72 2.33  78 2.48  74 2.51  25 2.53  27 2.54  73 2.62
  49  0.863  0.212  0.131-  78 2.43  42 2.49  66 2.56  70 2.57  27 2.59  79 2.61  72 2.63  69 2.64
                            46 2.65  57 2.68  28 2.84  73 2.86
  50  0.946  0.532  0.224-   3 2.58   4 2.61  33 2.63  72 2.64   7 2.65  37 2.75  25 2.75  56 2.78
                            42 2.78  36 2.84  32 2.87  68 2.92
  51  0.536  0.619  0.323-  18 2.62  80 2.65  19 2.65  31 2.67  65 2.67  77 2.70  37 2.70  22 2.71
[...]
   0.873E+01 -.248E+02 -.129E+04   -.859E+01 0.243E+02 0.128E+04   -.813E-01 0.478E+00 0.200E+01   -.439E-01 0.298E-01 -.617E-01
   -.443E+02 0.166E+01 -.135E+04   0.436E+02 -.106E+01 0.135E+04   0.678E+00 -.629E+00 0.157E+01   -.206E-01 -.277E-02 -.993E-01
   0.176E+01 -.808E+02 -.137E+04   -.231E+01 0.797E+02 0.137E+04   0.631E+00 0.117E+01 0.175E+01   -.865E-01 -.267E-01 -.161E+00
   0.521E+02 0.238E+01 -.140E+04   -.517E+02 -.244E+01 0.140E+04   -.294E+00 0.707E-01 0.168E+01   -.337E-01 0.543E-02 -.811E-01
   -.122E+03 -.415E+01 0.154E+04   0.122E+03 0.484E+01 -.154E+04   0.101E+01 -.723E+00 0.716E+00   -.700E-01 -.250E-03 0.414E-01
   -.218E+02 0.498E+01 -.264E+04   0.211E+02 -.463E+01 0.264E+04   0.824E+00 -.344E+00 0.188E+01   0.898E-02 -.215E-01 -.426E-01
   -.115E+02 0.152E+02 -.266E+04   0.113E+02 -.145E+02 0.266E+04   0.197E+00 -.792E+00 0.153E+01   -.433E-01 0.256E-01 -.194E-01
   0.382E+02 -.213E+02 -.266E+04   -.377E+02 0.207E+02 0.266E+04   -.491E+00 0.610E+00 0.813E+00   0.270E-02 0.387E-01 -.626E-01
   -.369E+02 0.382E+01 -.271E+04   0.368E+02 -.442E+01 0.270E+04   0.692E-02 0.562E+00 0.183E+01   0.577E-02 0.158E-01 -.182E-01
   0.176E+02 -.442E+02 -.271E+04   -.175E+02 0.441E+02 0.271E+04   -.125E+00 0.126E+00 0.212E+01   -.192E-01 -.270E-01 -.198E-01
   -.434E+01 0.454E+02 -.266E+04   0.400E+01 -.449E+02 0.266E+04   0.328E+00 -.433E+00 0.168E+01   0.256E-01 -.983E-02 -.265E-01
   -.891E+01 -.116E+02 -.268E+04   0.880E+01 0.114E+02 0.268E+04   0.136E+00 0.909E-01 0.167E+01   -.312E-01 0.902E-02 -.397E-01
   -.433E+02 -.415E+02 -.269E+04   0.432E+02 0.407E+02 0.268E+04   0.880E-01 0.878E+00 0.152E+01   0.276E-01 -.388E-01 -.124E-01
   -.378E+02 0.115E+01 -.266E+04   0.374E+02 -.972E+00 0.266E+04   0.458E+00 -.195E+00 0.138E+01   -.369E-03 0.153E-02 -.524E-01
   0.130E+01 -.307E+02 -.269E+04   -.100E+01 0.301E+02 0.269E+04   -.290E+00 0.631E+00 0.182E+01   -.167E-01 -.192E-02 -.349E-02
   0.673E+02 0.178E+02 -.268E+04   -.653E+02 -.180E+02 0.268E+04   -.212E+01 0.890E-01 0.251E+01   0.293E-02 0.201E-01 -.150E-01
   0.351E+02 0.247E+02 -.272E+04   -.343E+02 -.241E+02 0.272E+04   -.797E+00 -.683E+00 0.209E+01   0.323E-01 0.344E-02 0.115E-01
   0.100E+02 0.186E+01 -.265E+04   -.100E+02 -.184E+01 0.265E+04   0.641E-01 -.197E-01 -.998E-01   -.186E-01 0.239E-01 -.496E-01
   0.129E+02 0.213E+02 -.268E+04   -.126E+02 -.207E+02 0.267E+04   -.299E+00 -.534E+00 0.187E+01   0.248E-01 -.369E-01 -.692E-02
   0.504E+02 0.289E+01 -.142E+04   -.490E+02 -.206E+01 0.142E+04   -.135E+01 -.865E+00 0.138E+01   0.136E-01 -.973E-02 -.895E-01
   -.550E+01 0.111E+02 -.136E+04   0.522E+01 -.108E+02 0.136E+04   0.248E+00 -.221E+00 0.115E+01   0.746E-02 -.397E-01 -.974E-01
   0.819E+02 0.606E+02 0.270E+04   -.817E+02 -.606E+02 -.270E+04   -.313E+00 0.887E-01 -.264E+01   0.482E-01 -.578E-01 0.662E-01
   0.521E+02 -.339E+02 0.159E+04   -.526E+02 0.337E+02 -.160E+04   0.643E+00 0.163E+00 0.142E+01   -.124E+00 -.116E-01 0.718E-01
   -.135E+02 -.107E+02 -.136E+04   0.135E+02 0.101E+02 0.135E+04   -.172E-01 0.648E+00 0.161E+01   0.236E-01 -.200E-01 -.137E+00
   -.788E+02 0.858E+02 0.283E+04   0.795E+02 -.846E+02 -.283E+04   -.636E+00 -.135E+01 -.296E+01   -.350E-01 0.100E+00 0.929E-01
   -.144E+02 0.280E+02 0.149E+04   0.141E+02 -.280E+02 -.149E+04   0.311E+00 -.847E-01 -.321E+00   -.582E-02 0.107E+00 0.163E+00
   0.134E+02 -.140E+01 -.269E+04   -.139E+02 0.110E+01 0.268E+04   0.439E+00 0.290E+00 0.193E+01   -.210E-02 0.170E-01 -.919E-02
   0.144E+02 -.801E+02 0.605E+01   -.141E+02 0.793E+02 -.659E+01   -.497E+00 0.723E+00 0.635E+00   0.467E-01 -.304E-02 -.106E+00
   -.298E+02 0.138E+02 -.273E+04   0.292E+02 -.139E+02 0.273E+04   0.594E+00 0.205E+00 0.181E+01   0.139E-01 0.519E-02 -.172E-01
   0.177E+02 0.295E+02 0.948E+02   -.184E+02 -.304E+02 -.950E+02   0.897E+00 0.852E+00 0.249E+00   -.494E-01 0.206E-01 -.235E-01
   -.827E+02 0.250E+02 -.135E+04   0.818E+02 -.248E+02 0.135E+04   0.859E+00 -.251E+00 0.233E+01   0.226E-01 0.376E-01 -.107E+00
   0.496E+02 -.167E+02 -.139E+04   -.486E+02 0.174E+02 0.139E+04   -.106E+01 -.689E+00 0.127E+01   -.275E-01 0.526E-01 -.693E-01
   0.420E+02 -.785E+02 0.159E+04   -.407E+02 0.785E+02 -.159E+04   -.138E+01 -.201E-01 0.135E+01   0.810E-01 -.630E-01 0.988E-01
   0.406E+02 -.302E+02 0.185E+01   -.409E+02 0.303E+02 -.233E+01   0.411E+00 0.905E-02 0.583E+00   -.878E-01 -.690E-01 -.640E-01
   -.498E+02 -.487E+01 0.812E+01   0.502E+02 0.608E+01 -.867E+01   -.387E+00 -.128E+01 0.620E+00   0.343E-01 0.217E-01 -.113E+00
   0.545E+02 -.346E+01 0.233E+02   -.537E+02 0.454E+01 -.230E+02   -.934E+00 -.116E+01 -.135E+00   0.297E-01 0.895E-01 -.261E-01
   -.299E+02 -.612E+02 0.886E+02   0.290E+02 0.597E+02 -.900E+02   0.105E+01 0.168E+01 0.152E+01   -.536E-01 -.517E-01 -.656E-01
   0.140E+02 0.767E+02 0.138E+03   -.143E+02 -.758E+02 -.140E+03   0.377E+00 -.848E+00 0.162E+01   0.148E-01 -.353E-01 -.705E-01
   0.178E+02 0.743E+02 -.134E+04   -.174E+02 -.739E+02 0.134E+04   -.384E+00 -.297E+00 0.150E+01   0.370E-01 -.396E-01 -.108E+00
   -.108E+03 0.370E+01 0.270E+02   0.107E+03 -.371E+01 -.283E+02   0.944E+00 0.664E-01 0.131E+01   0.243E-01 -.509E-01 -.104E+00
   -.964E+00 0.746E+02 0.220E+04   0.217E+01 -.741E+02 -.220E+04   -.121E+01 -.492E+00 -.365E+01   -.310E-01 -.272E-02 0.488E-01
   -.189E+02 -.162E+02 0.222E+04   0.173E+02 0.144E+02 -.222E+04   0.176E+01 0.195E+01 -.306E+01   -.604E-01 0.364E-01 0.409E-01
   0.122E+03 0.272E+02 0.225E+04   -.120E+03 -.260E+02 -.224E+04   -.201E+01 -.133E+01 -.399E+01   -.921E-01 0.252E-01 0.296E-01
   0.422E+02 0.107E+03 0.112E+04   -.418E+02 -.106E+03 -.112E+04   -.589E+00 -.249E+00 -.646E+00   0.573E-01 0.181E-01 0.127E-01
   0.987E+01 -.403E+02 0.114E+04   -.971E+01 0.400E+02 -.114E+04   -.216E+00 0.161E+00 -.524E+00   0.157E-01 0.364E-01 0.123E+00
   -.212E+03 0.624E+01 0.225E+04   0.209E+03 -.650E+01 -.224E+04   0.269E+01 0.188E+00 -.345E+01   -.579E-01 0.119E-01 0.644E-01
   -.619E+02 0.693E+02 0.113E+04   0.617E+02 -.683E+02 -.113E+04   0.336E+00 -.106E+01 -.678E+00   0.574E-02 0.315E-01 0.285E-01
   -.576E+02 -.995E+01 0.337E+02   0.569E+02 0.985E+01 -.332E+02   0.668E+00 0.280E-01 -.617E+00   -.435E-01 0.157E-01 -.433E-01
   0.254E+02 0.793E+01 -.113E+04   -.254E+02 -.814E+01 0.113E+04   0.432E-01 0.116E+00 -.214E+00   0.230E-01 0.303E-01 -.699E-01
   -.288E+02 -.104E+03 0.220E+04   0.281E+02 0.102E+03 -.220E+04   0.712E+00 0.260E+01 -.314E+01   -.115E-02 0.315E-01 0.722E-01
   0.105E+03 -.140E+03 0.252E+04   -.104E+03 0.139E+03 -.252E+04   -.127E+01 0.104E+01 -.309E+01   0.721E-01 -.683E-01 0.686E-01
   0.201E+03 0.808E+02 0.252E+04   -.200E+03 -.795E+02 -.252E+04   -.116E+01 -.138E+01 -.300E+01   0.237E-02 -.330E-01 0.580E-01
   -.506E+02 -.586E+02 0.131E+04   0.504E+02 0.581E+02 -.131E+04   0.226E+00 0.632E+00 -.537E+00   0.112E-01 -.330E-01 0.479E-01
   -.101E+03 -.176E+01 0.427E+02   0.100E+03 0.156E+01 -.428E+02   0.210E+00 0.253E+00 0.960E-01   0.457E-02 -.118E-01 -.477E-01
   -.150E+01 -.462E+02 0.122E+04   0.162E+01 0.455E+02 -.122E+04   -.225E+00 0.784E+00 -.427E+00   0.414E-01 -.152E-01 -.925E-02
   0.577E+02 0.102E+00 -.126E+04   -.575E+02 -.234E+00 0.126E+04   -.248E+00 0.134E+00 0.405E+00   -.764E-02 0.496E-01 -.120E+00
   0.712E+02 0.478E+02 0.255E+04   -.705E+02 -.460E+02 -.254E+04   -.728E+00 -.189E+01 -.408E+01   0.335E-01 0.315E-01 0.651E-01
   -.573E+01 -.355E+02 0.127E+04   0.588E+01 0.359E+02 -.127E+04   -.238E+00 -.383E+00 -.402E+00   0.358E-01 -.408E-01 0.275E-01
[...]
   0.122E+03 -.539E+02 0.263E+02   -.122E+03 0.531E+02 -.256E+02   -.235E-01 0.796E+00 -.640E+00   -.177E-01 0.143E-01 -.444E-01
   0.386E+02 0.114E+03 0.157E+04   -.384E+02 -.113E+03 -.157E+04   -.294E+00 -.708E+00 -.129E+01   -.128E-01 0.547E-01 0.525E-01
   -.134E+02 0.423E+02 -.193E+02   0.140E+02 -.427E+02 0.194E+02   -.634E+00 0.497E+00 -.886E-01   0.361E-01 -.148E-01 -.160E+00
   0.504E+02 0.740E+02 -.343E+02   -.500E+02 -.734E+02 0.345E+02   -.470E+00 -.655E+00 -.875E-01   0.311E-01 -.132E-01 -.103E+00
   -.149E+03 -.612E+01 0.134E+04   0.149E+03 0.607E+01 -.134E+04   0.755E+00 0.102E+00 -.891E+00   -.406E-01 -.114E-01 -.454E-03
   -.216E+02 -.110E+02 0.146E+04   0.221E+02 0.109E+02 -.146E+04   -.481E+00 0.243E+00 -.764E+00   -.529E-01 -.734E-02 0.894E-01
   -.204E+03 -.115E+03 0.285E+04   0.204E+03 0.114E+03 -.285E+04   0.502E+00 0.134E+01 -.264E+01   -.331E-01 -.263E-01 0.591E-01
   -.194E+02 -.127E+03 0.282E+04   0.174E+02 0.126E+03 -.282E+04   0.199E+01 0.268E+00 -.166E+01   0.474E-01 0.114E-01 0.544E-01
   0.628E+02 -.397E+02 0.140E+04   -.621E+02 0.395E+02 -.140E+04   -.853E+00 0.299E+00 -.585E+00   0.124E+00 -.213E-01 0.993E-01
   -.533E+02 0.183E+02 -.140E+04   0.530E+02 -.180E+02 0.140E+04   0.392E+00 -.319E+00 0.180E-03   0.438E-01 -.115E-01 -.834E-01
   -.597E+02 0.504E+02 0.281E+04   0.600E+02 -.498E+02 -.281E+04   -.307E+00 -.620E+00 -.126E+01   -.481E-03 0.465E-01 0.111E+00
   -.124E+02 0.644E+02 0.154E+02   0.127E+02 -.640E+02 -.151E+02   -.395E+00 -.488E+00 -.322E+00   0.569E-01 0.216E-01 -.521E-01
   0.431E+02 0.510E+01 0.879E+01   -.428E+02 -.494E+01 -.859E+01   -.338E+00 -.274E+00 -.298E+00   0.198E-01 0.492E-01 -.649E-01
   -.563E+00 0.453E+00 -.317E+03   0.776E+00 -.543E+00 0.319E+03   -.211E+00 0.631E-01 -.169E+01   -.908E-03 0.482E-03 -.143E-03
   0.148E+00 -.137E+00 0.672E+01   0.774E-12 0.272E-12 0.762E-11   -.315E+00 0.309E-01 -.568E+01   0.162E+00 0.127E+00 -.104E+01

 POSITION                                       TOTAL-FORCE (eV/Angst)
     13.58653      8.45523      6.92002         0.015752      0.008339      0.008065
      5.29674      8.44980      6.95946        -0.021065     -0.003971     -0.016065
      3.87215      6.00055      6.88783        -0.003775     -0.022114      0.001401
      2.39865      3.60695      7.01308         0.008167     -0.015399     -0.002081
      3.84820      1.03178      7.00624         0.001348     -0.001293     -0.007105
      5.28252      3.57185      6.97517        -0.000101      0.008495      0.013022
     13.51950      6.69208      2.75694        -0.014546     -0.027554      0.033784
     15.02052      9.28595      9.15389         0.019163     -0.004949      0.003675
      3.84977      4.43302      9.22201         0.005444     -0.006610     -0.001764
      6.73566      9.26040      9.22996        -0.026450      0.006383     -0.004482
     12.28128      4.36213      9.25454        -0.001190     -0.028095      0.007996
      9.51583      9.20203      9.20521         0.004255      0.008185      0.006463
     10.86626      1.99493      9.14776         0.010283     -0.011448     -0.006849
      2.47097      1.95391      9.24053        -0.020033     -0.021786      0.004476
     12.25749      9.19204      9.19463        -0.002554     -0.001116      0.003521
     13.67004      6.83348      9.23324        -0.005057      0.004293      0.001885
      5.28126      1.91157      9.23618        -0.004255     -0.004676      0.007771
      8.18455      6.83195      9.18374         0.007630     -0.026005     -0.001444
      9.53868      4.43519      9.22508         0.005923     -0.000272      0.010172
      5.21068      6.79230      9.26036         0.015187      0.010856      0.019463
      8.10129      2.00466      9.17426         0.007610      0.005730     -0.002629
      8.18391      3.66052      6.98366         0.000352     -0.017368     -0.005540
      6.64555      1.17846      6.96367         0.015177      0.004631     -0.002251
      6.78185      1.16816      1.10976        -0.013092      0.003844      0.002208
      3.74327      4.26289      2.71491         0.017718     -0.000228      0.002463
      1.07735      1.10943      6.95399         0.000796     -0.005124      0.006524
      1.01575      1.28649      0.81183         0.009938     -0.007834      0.016359
      6.67142      9.31568      2.85544        -0.007117      0.019392     -0.012482
      6.65989      4.37954      9.22591        -0.004645      0.011458      0.000298
      8.14285      5.24496      4.86976        -0.020231      0.046351     -0.021820
     10.87658      6.80780      9.25556         0.001401      0.007428     -0.005720
     14.99686      7.68362      4.79411         0.057503      0.012454      0.025901
     12.24823      6.04911      6.99478         0.010244     -0.000863      0.004402
      6.72669      6.03654      7.00428         0.005419      0.005448      0.001885
      8.20780      6.89173      2.69128        -0.006685     -0.004451     -0.017046
      3.77766      2.69345      4.90572        -0.023522      0.016111     -0.019058
     10.86552      5.33036      4.88657         0.009457      0.010366     -0.045238
      6.80891      7.69639      4.91949        -0.024961      0.005708      0.097479
      5.20720      0.16029      4.85410         0.014511      0.010394     -0.000843
      7.96508      0.45571      4.72390         0.001526      0.014093     -0.009567
      9.48647      1.18014      6.88542         0.002600      0.001735      0.008365
     12.19222      2.77766      4.87496         0.027387      0.067890     -0.094443
     13.78001      8.57392      1.07376        -0.000184     -0.015575     -0.015884
      5.17612      8.26819      1.02395         0.017771      0.012489     -0.002229
      4.07688      6.12594      0.96722         0.011363      0.004471      0.013158
      8.23477      2.19285      2.91186        -0.010338      0.000818      0.006888
      9.46232      9.17873      2.88867        -0.010643      0.006141     -0.010100
     13.23829      3.61532      0.98546         0.012383     -0.012323      0.001976
     10.87798      2.06279      2.87872         0.003601     -0.026620      0.020113
     13.60649      5.17210      4.92826        -0.007980     -0.011383     -0.053018
      9.49926      6.01674      7.09896         0.003590      0.004576      0.005862
      3.91652      1.06390      1.10530         0.013430      0.001138      0.037148
      9.69052      5.79723      1.02825        -0.017118     -0.008660     -0.002168
      5.55996      3.72993      1.09992        -0.017396     -0.038360     -0.014119
     12.22782      8.97667      2.86865        -0.014088     -0.001100      0.004776
     12.22062      7.58099      4.89646        -0.007262      0.006987     -0.024323
      9.50033      4.35926      2.89266        -0.031040      0.015742      0.010562
      8.10112      8.42123      7.04013        -0.022933      0.014765     -0.010809
      8.20297      8.78072      0.90411         0.021071      0.012536     -0.007460
     10.87946      6.90186      2.86164        -0.040017      0.003032      0.005039
[...]
     10.84088      8.41789      0.89812        -0.021908      0.014716     -0.000476
      5.29878      5.08233      4.87221         0.006408      0.028165     -0.003243
     15.21969      9.46320      2.91158         0.016238     -0.000269      0.002241
      9.54798      2.83243      4.93973         0.012383      0.007259     -0.022531
      6.74099      2.86414      4.91726         0.019203     -0.011676     -0.007072
     12.12718      4.37157      2.88927         0.010239     -0.011854     -0.008579
      2.50652      1.86558      2.87455        -0.004424      0.010329     -0.000408
     12.02738      5.81407      0.92547        -0.011251     -0.010392      0.011006
      6.52756      5.95530      1.01982        -0.002081     -0.040023      0.001577
      6.84854      4.37406      2.90086        -0.018679     -0.020335     -0.001189
     10.85830      3.69697      7.03245         0.006433     -0.011572      0.008812
     10.75754      3.55271      0.95995        -0.001177      0.008702     -0.006365
     10.94499      0.41654      4.90182         0.031220     -0.026468      0.006762
      9.50574      7.61774      4.99769        -0.025402      0.008233      0.004749
      6.10908      7.94565     10.20555         0.003927     -0.027344      0.035075
    total drift:                               -0.004532      0.021519      0.004757

  FREE ENERGIE OF THE ION-ELECTRON SYSTEM (eV)
  free  energy   TOTEN  =      -507.86283869 eV

  energy  without entropy=     -507.87353271  energy(sigma->0) =     -507.86640336

 d Force = 0.2013040E-02[ 0.114E-02, 0.289E-02]  d Energy = 0.1970634E-02 0.424E-04
 d Force = 0.4494589E+02[ 0.449E+02, 0.450E+02]  d Ewald  = 0.4494589E+02-0.813E-05

 Conjugate gradient step on ions:
 trial-energy change:   -0.001971  1 .order   -0.002013   -0.002887   -0.001139
  (g-gl).g = 0.167E-02      g.g   = 0.163E-02  gl.gl    = 0.277E-02
 g(Force)  = 0.163E-02   g(Stress)= 0.000E+00 ortho     =-0.389E-04
 gamma     =   0.60506
 trial     =   1.79253
 opt step  =   3.40766  (harmonic =   2.96071) maximal distance =0.01946332
 next E    =  -507.863321   (d E  =  -0.00245)

 reached required accuracy - stopping structural energy minimisation