 vasp.5.4.4.18Apr17-6-g9f103f2a35 (build Oct 25 2019 11:13:22) complex

 executed on             LinuxIFC date 2021.10.14  19:36:48

 INCAR:
 POTCAR:    PAW_PBE Pt 04Feb2005
 POTCAR:    PAW_PBE Fe 06Sep2000
 POTCAR:    PAW_PBE Co 02Aug2007
 POTCAR:    PAW_PBE Cu 22Jun2005
 POTCAR:    PAW_PBE Ni 02Aug2007
 POTCAR:    PAW_PBE H 15Jun2001
 POTCAR:    PAW_PBE Pt 04Feb2005
   VRHFIN =Pt: s1d9

   TITEL  = PAW_PBE Pt 04Feb2005
   POMASS =  195.080; ZVAL   =   10.000    mass and valenz
   ENMAX  =  230.283; ENMIN  =  172.712 eV

 POTCAR:    PAW_PBE Fe 06Sep2000
   VRHFIN =Fe:  d7 s1

   TITEL  = PAW_PBE Fe 06Sep2000
   POMASS =   55.847; ZVAL   =    8.000    mass and valenz
   ENMAX  =  267.882; ENMIN  =  200.911 eV

 POTCAR:    PAW_PBE Co 02Aug2007
   VRHFIN =Co: d8 s1

   TITEL  = PAW_PBE Co 02Aug2007
   POMASS =   58.933; ZVAL   =    9.000    mass and valenz
   ENMAX  =  267.968; ENMIN  =  200.976 eV

 POTCAR:    PAW_PBE Cu 22Jun2005
   VRHFIN =Cu: d10 p1

   TITEL  = PAW_PBE Cu 22Jun2005
   POMASS =   63.546; ZVAL   =   11.000    mass and valenz
   ENMAX  =  295.446; ENMIN  =  221.585 eV

 POTCAR:    PAW_PBE Ni 02Aug2007
   VRHFIN =Ni:

   TITEL  = PAW_PBE Ni 02Aug2007
   POMASS =   58.690; ZVAL   =   10.000    mass and valenz
   ENMAX  =  269.532; ENMIN  =  202.149 eV

 POTCAR:    PAW_PBE H 15Jun2001
   VRHFIN =H: ultrasoft test

   TITEL  = PAW_PBE H 15Jun2001
   POMASS =    1.000; ZVAL   =    1.000    mass and valenz
   ENMAX  =  250.000; ENMIN  =  200.000 eV

 Optimization of the real space projectors (new method)

 maximal supplied QI-value         = 14.36
 optimisation between [QCUT,QGAM] = [ 11.92, 23.98] = [ 39.79,161.09] Ry
 Optimized for a Real-space Cutoff    1.49 Angstroem

   l    n(q)    QCUT    max X(q) W(low)/X(q) W(high)/X(q)  e(spline)
   2     10    11.920    66.195    0.79E-04    0.18E-03    0.24E-06
   2     10    11.920    64.643    0.81E-04    0.19E-03    0.24E-06
   0     11    11.920    95.520    0.28E-04    0.54E-04    0.18E-06
   0     11    11.920    63.403    0.27E-04    0.52E-04    0.17E-06
   1     10    11.920    19.961    0.18E-04    0.11E-03    0.23E-06
   1     10    11.920    13.289    0.25E-04    0.87E-04    0.19E-06
 Optimization of the real space projectors (new method)

[...]

   l    n(q)    QCUT    max X(q) W(low)/X(q) W(high)/X(q)  e(spline)
   2      9    11.864    60.317    0.21E-03    0.51E-03    0.25E-06
   2      9    11.864    55.921    0.21E-03    0.51E-03    0.26E-06
   0      9    11.864    51.690    0.22E-03    0.30E-04    0.17E-06
   0      9    11.864    30.015    0.20E-03    0.28E-04    0.15E-06
   1      9    11.864    18.849    0.76E-04    0.33E-03    0.17E-06
   1      9    11.864    14.624    0.60E-04    0.28E-03    0.15E-06
 Optimization of the real space projectors (new method)

 maximal supplied QI-value         = 34.20
 optimisation between [QCUT,QGAM] = [ 11.97, 23.94] = [ 40.13,160.53] Ry
 Optimized for a Real-space Cutoff    1.18 Angstroem

   l    n(q)    QCUT    max X(q) W(low)/X(q) W(high)/X(q)  e(spline)
   0      8    11.971    19.460    0.15E-03    0.31E-03    0.25E-06
   0      8    11.971    12.209    0.13E-03    0.29E-03    0.25E-06
   1      8    11.971     4.655    0.22E-03    0.24E-03    0.21E-06
  PAW_PBE Pt 04Feb2005                  :
  PAW_PBE Fe 06Sep2000                  :
  PAW_PBE Co 02Aug2007                  :
  PAW_PBE Cu 22Jun2005                  :
  PAW_PBE Ni 02Aug2007                  :
  PAW_PBE H 15Jun2001                   :

 POSCAR: 10.76
  positions in direct lattice
  velocities in cartesian coordinates
 exchange correlation table for  LEXCH =        8
   RHO(1)=    0.500       N(1)  =     2000
   RHO(2)=  100.500       N(2)  =     4000

 ion  position               nearest neighbor table
   1  0.786  0.880  0.316-  49 2.61  28 2.63  59 2.64  19 2.68  61 2.70  33 2.71  29 2.72  60 2.72
                            11 2.75   2 2.77   4 2.82  12 2.84
   2  0.042  0.882  0.314-  79 2.55  77 2.60  60 2.67  28 2.67  30 2.68  52 2.71  33 2.71  22 2.73
                             1 2.77   6 2.79   4 2.86  16 2.93
   3  0.279  0.381  0.318-  64 2.56  39 2.61  31 2.64  33 2.64  68 2.70  19 2.75  43 2.76  30 2.76
                             5 2.76  13 2.79  25 2.83  18 2.87
   4  0.871  0.964  0.422-  17 2.65  11 2.67   9 2.70  12 2.73   6 2.74  16 2.76  60 2.80   1 2.82
                             2 2.86
   5  0.120  0.463  0.424-  16 2.65  12 2.66   7 2.66  10 2.67  39 2.70  33 2.71  25 2.72  13 2.74
                             3 2.76
   6  0.125  0.964  0.420-   8 2.65  10 2.68   9 2.71  14 2.72   4 2.74  16 2.76  52 2.78   2 2.79
                            22 2.85
   7  0.874  0.459  0.423-   9 2.66  15 2.66   5 2.66  39 2.67  10 2.68  12 2.68  27 2.72  75 2.72
                            29 2.77
   8  0.374  0.960  0.418-  43 2.59   6 2.65  14 2.66  52 2.67  27 2.67  13 2.68  10 2.69  11 2.70
                            61 2.70
   9  0.872  0.214  0.417-  75 2.65   7 2.66  15 2.66  17 2.68   4 2.70  60 2.70   6 2.71  10 2.72
                            22 2.80
  10  0.125  0.212  0.419-  13 2.66  39 2.66   5 2.67   6 2.68   7 2.68   8 2.69  43 2.71   9 2.72
                            22 2.76
  11  0.624  0.960  0.420-   4 2.67  12 2.68  13 2.68  27 2.69  17 2.69   8 2.70   1 2.75  61 2.80
                            19 2.81
  12  0.872  0.710  0.423-   5 2.66  27 2.68  11 2.68   7 2.68  33 2.69  16 2.72   4 2.73  29 2.76
                             1 2.84
  13  0.374  0.209  0.421-  10 2.66   8 2.68  11 2.68  17 2.70  25 2.71   5 2.74  43 2.74   3 2.79
                            19 2.80
  14  0.378  0.711  0.420-  27 2.63  44 2.66   8 2.66  15 2.67  25 2.71   6 2.72  52 2.72  16 2.73
                            30 2.75
  15  0.626  0.462  0.420-  81 1.69   9 2.66   7 2.66  44 2.67  27 2.67  14 2.67  75 2.70  17 2.71
                            25 2.71  18 2.75
  16  0.126  0.707  0.425-   5 2.65  25 2.66  33 2.70  12 2.72  14 2.73   6 2.76   4 2.76  30 2.82
                             2 2.93
  17  0.624  0.211  0.419-  81 1.70   4 2.65   9 2.68  25 2.69  11 2.69  13 2.70  15 2.71  18 2.74
                            60 2.76  19 2.84
  18  0.548  0.376  0.316-  67 2.56  68 2.64  60 2.65  26 2.66  75 2.67  44 2.69  17 2.74  15 2.75
                            30 2.76  19 2.78  25 2.85   3 2.87
  19  0.534  0.125  0.314-  80 2.55  68 2.57  59 2.60  43 2.60   1 2.68  61 2.69   3 2.75  18 2.78
                            13 2.80  11 2.81  60 2.81  17 2.84
  20  0.548  0.123  0.044-  57 2.55  37 2.55  48 2.57  62 2.68  63 2.73  47 2.75  34 2.75  45 2.76
                            56 2.76
  21  0.119  0.460  0.129-  40 2.52  36 2.52  47 2.52  42 2.60  64 2.63  69 2.65  70 2.68  50 2.68
                            31 2.71  58 2.75  57 2.76  74 2.79
  22  0.044  0.136  0.313-  65 2.53  55 2.54  77 2.57  43 2.62  39 2.63  75 2.68   2 2.73  60 2.74
                            10 2.76  52 2.77   9 2.80   6 2.85  31 3.40
  23  0.041  0.131  0.035-  70 2.57  41 2.60  40 2.62  45 2.66  76 2.67  62 2.67  24 2.69  35 2.79
                            53 2.85
  24  0.131  0.958  0.133-  79 2.51  77 2.55  35 2.56  53 2.58  55 2.59  70 2.66  38 2.68  58 2.69
                            23 2.69  73 2.69  66 2.75  41 2.78
  25  0.374  0.461  0.422-  16 2.66  17 2.69  15 2.71  13 2.71  14 2.71   5 2.72  30 2.81   3 2.83
                            18 2.85
  26  0.455  0.547  0.219-  73 2.50  74 2.54  51 2.56  79 2.64  30 2.65  18 2.66  64 2.69  78 2.70
                            32 2.71  68 2.72  44 2.73  67 2.78
  27  0.622  0.712  0.421-  14 2.63  15 2.67   8 2.67  12 2.68  44 2.68  11 2.69   7 2.72  61 2.74
                            29 2.78
  28  0.956  0.787  0.221-  58 2.56  66 2.58  50 2.58  42 2.62   1 2.63  49 2.64   2 2.67  64 2.68
                            33 2.69  59 2.77  79 2.86  77 2.87
  29  0.795  0.623  0.318-  42 2.55  39 2.58  32 2.62  75 2.62  49 2.67  33 2.69  44 2.71   1 2.72
                            61 2.72  12 2.76   7 2.77  27 2.78
  30  0.290  0.632  0.317-  79 2.56  64 2.60  52 2.65  26 2.65   2 2.68  44 2.69  33 2.69  14 2.75
                             3 2.76  18 2.76  25 2.81  16 2.82
  31  0.201  0.279  0.225-  70 2.51  43 2.58  55 2.59  57 2.59  65 2.60   3 2.64  39 2.65  21 2.71
                            80 2.75  42 2.76  68 2.84  64 2.87  22 3.40
  32  0.705  0.551  0.221-  54 2.54  69 2.56  51 2.58  49 2.61  29 2.62  78 2.65  42 2.65  65 2.67
                            44 2.68  75 2.69  26 2.71  67 2.74
  33  0.040  0.632  0.323-   3 2.64  30 2.69  29 2.69  28 2.69  64 2.69  12 2.69  39 2.69  16 2.70
                             1 2.71   5 2.71   2 2.71  42 2.72
  34  0.795  0.861  0.046-  50 2.37  48 2.50  66 2.51  36 2.59  71 2.61  63 2.64  20 2.75  62 2.83
                            35 2.84
  35  0.058  0.864  0.041-  58 2.53  24 2.56  36 2.57  72 2.57  66 2.62  53 2.71  23 2.79  62 2.80
                            34 2.84
  36  0.046  0.632  0.040-  21 2.52  35 2.57  58 2.57  34 2.59  50 2.60  72 2.69  47 2.69  71 2.80
                            40 2.81
  37  0.628  0.225  0.130-  67 2.51  51 2.51  56 2.52  74 2.55  20 2.55  68 2.56  59 2.56  41 2.58
                            62 2.59  66 2.72  57 2.81  48 3.01
  38  0.383  0.954  0.131-  53 2.46  80 2.47  45 2.47  78 2.53  63 2.55  73 2.57  55 2.57  48 2.58
                            54 2.59  24 2.68  57 2.68  70 2.73
  39  0.035  0.384  0.323-  29 2.58   3 2.61  75 2.63  22 2.63  42 2.64  31 2.65  10 2.66   7 2.67
                            33 2.69   5 2.70  65 2.73  43 2.85
  40  0.026  0.381  0.040-  69 2.42  21 2.52  76 2.55  71 2.56  70 2.56  23 2.62  36 2.81  45 2.87
                            47 2.92
  41  0.872  0.215  0.130-  76 2.45  77 2.51  65 2.52  67 2.53  62 2.57  37 2.58  23 2.60  69 2.61
                            51 2.63  66 2.70  70 2.70  24 2.78
  42  0.955  0.544  0.224-  50 2.54  29 2.55  21 2.60  69 2.60  28 2.62  39 2.64  32 2.65  65 2.67
                            49 2.67  64 2.71  33 2.72  31 2.76
  43  0.297  0.116  0.320-  55 2.52  31 2.58   8 2.59  52 2.60  19 2.60  61 2.61  22 2.62  80 2.63
                            10 2.71  13 2.74   3 2.76  39 2.85
  44  0.541  0.629  0.321-  61 2.62  78 2.62  52 2.63  14 2.66  15 2.67  32 2.68  27 2.68  18 2.69
                            30 2.69  75 2.69  29 2.71  26 2.73
  45  0.295  0.116  0.043-  70 2.47  38 2.47  57 2.57  53 2.60  23 2.66  63 2.67  20 2.76  40 2.87
                            47 2.87
  46  0.550  0.625  0.046-  51 2.38  73 2.40  54 2.40  71 2.58  53 2.61  63 2.63  76 2.64  56 2.66
                            72 2.70
  47  0.297  0.382  0.042-  74 2.38  21 2.52  57 2.61  72 2.64  56 2.64  36 2.69  20 2.75  45 2.87
                            40 2.92
  48  0.625  0.947  0.134-  49 2.39  80 2.48  54 2.49  34 2.50  63 2.55  59 2.56  20 2.57  38 2.58
                            50 2.61  57 2.72  66 2.76  37 3.01
  49  0.707  0.793  0.220-  48 2.39  50 2.47  54 2.49  80 2.59   1 2.61  32 2.61  61 2.64  28 2.64
                            78 2.66  42 2.67  29 2.67  59 2.77
  50  0.864  0.703  0.130-  34 2.37  71 2.41  49 2.47  54 2.50  42 2.54  28 2.58  69 2.59  36 2.60
[...]
   0.359E+02 -.708E+01 -.149E+04   -.375E+02 0.728E+01 0.149E+04   0.163E+01 -.213E+00 0.199E+01   -.157E-01 0.901E-04 0.939E-03
   -.526E+01 0.295E+02 -.286E+04   0.543E+01 -.295E+02 0.286E+04   -.203E+00 0.235E-01 0.112E+01   0.164E-01 -.966E-02 -.399E-02
   -.121E+02 0.683E+01 -.286E+04   0.114E+02 -.632E+01 0.286E+04   0.644E+00 -.516E+00 0.168E+01   0.213E-02 -.148E-01 -.182E-02
   0.475E+01 0.352E+01 -.285E+04   -.472E+01 -.387E+01 0.285E+04   -.133E-01 0.309E+00 0.126E+01   -.151E-01 -.181E-01 -.131E-01
   -.225E+02 -.702E+01 -.289E+04   0.227E+02 0.661E+01 0.288E+04   -.257E+00 0.387E+00 0.170E+01   -.370E-02 -.281E-02 -.218E-01
   0.121E+02 -.194E+02 -.288E+04   -.124E+02 0.196E+02 0.288E+04   0.267E+00 -.192E+00 0.204E+01   0.526E-02 0.253E-02 0.799E-02
   -.200E+02 0.152E+02 -.286E+04   0.206E+02 -.155E+02 0.286E+04   -.712E+00 0.260E+00 0.173E+01   -.334E-03 0.149E-01 -.145E-01
   -.108E+02 -.125E+01 -.284E+04   0.113E+02 0.155E+01 0.284E+04   -.435E+00 -.270E+00 0.182E+01   -.390E-02 0.100E-01 -.554E-02
   -.920E+01 -.107E+01 -.288E+04   0.953E+01 0.913E+00 0.288E+04   -.349E+00 0.134E+00 0.106E+01   -.793E-02 -.217E-01 0.397E-02
   -.126E+02 -.157E+01 -.286E+04   0.128E+02 0.131E+01 0.286E+04   -.223E+00 0.270E+00 0.140E+01   -.158E-01 0.779E-02 0.104E-01
   0.349E+01 -.243E+02 -.286E+04   -.396E+01 0.238E+02 0.285E+04   0.494E+00 0.540E+00 0.125E+01   -.107E-01 0.946E-02 -.150E-01
   0.285E+02 0.135E+02 -.287E+04   -.279E+02 -.131E+02 0.287E+04   -.609E+00 -.379E+00 0.175E+01   -.812E-02 -.237E-02 -.169E-01
   0.178E+02 -.221E+02 -.287E+04   -.173E+02 0.226E+02 0.287E+04   -.583E+00 -.502E+00 0.569E+00   0.128E-01 -.459E-02 -.552E-01
   0.470E+00 -.453E+01 -.286E+04   -.744E+00 0.401E+01 0.286E+04   0.261E+00 0.518E+00 0.136E+01   0.190E-01 0.193E-01 -.958E-02
   0.331E+02 0.972E+01 -.286E+04   -.328E+02 -.922E+01 0.286E+04   -.281E+00 -.482E+00 -.574E+00   0.157E-01 0.109E-01 -.189E-01
   0.685E+02 -.617E+02 -.152E+04   -.671E+02 0.619E+02 0.151E+04   -.134E+01 -.258E+00 0.193E+01   0.215E-01 0.137E-01 0.134E-01
   0.269E+02 -.446E+02 -.148E+04   -.277E+02 0.443E+02 0.148E+04   0.761E+00 0.242E+00 0.214E+01   -.604E-02 0.109E-01 0.111E-01
   0.339E+02 0.243E+02 0.295E+04   -.340E+02 -.245E+02 -.295E+04   0.811E-01 0.248E+00 -.265E+01   0.415E-02 0.121E-01 -.157E-01
   0.253E+02 -.572E+01 0.158E+04   -.262E+02 0.642E+01 -.158E+04   0.970E+00 -.680E+00 0.922E+00   -.218E-01 0.406E-02 0.224E-01
   -.640E+02 0.980E+01 -.144E+04   0.649E+02 -.916E+01 0.144E+04   -.884E+00 -.626E+00 0.257E+01   -.298E-02 0.414E-02 -.160E-01
   -.527E+02 0.592E+02 0.302E+04   0.534E+02 -.581E+02 -.301E+04   -.708E+00 -.108E+01 -.236E+01   -.620E-02 0.167E-01 0.589E-02
   0.890E+01 -.546E+02 0.156E+04   -.863E+01 0.541E+02 -.156E+04   -.326E+00 0.506E+00 -.762E+00   -.308E-02 0.103E-01 0.207E-01
   0.715E+01 0.848E+00 -.284E+04   -.816E+01 -.413E+00 0.284E+04   0.104E+01 -.448E+00 0.139E+01   -.117E-02 0.126E-02 -.190E-01
   -.150E+02 0.266E+01 0.873E+01   0.150E+02 -.227E+01 -.100E+02   -.784E-01 -.485E+00 0.123E+01   0.127E-01 -.549E-03 0.138E-01
   -.183E+02 0.565E+01 -.287E+04   0.176E+02 -.596E+01 0.287E+04   0.750E+00 0.330E+00 0.160E+01   0.772E-02 0.714E-02 -.363E-01
   0.126E+02 0.529E+02 0.280E+02   -.136E+02 -.542E+02 -.283E+02   0.110E+01 0.122E+01 0.131E+00   0.795E-03 -.198E-01 0.129E-01
   -.621E+02 0.555E+01 -.146E+04   0.626E+02 -.673E+01 0.146E+04   -.474E+00 0.128E+01 0.283E+01   -.324E-02 -.185E-01 -.103E-01
   0.273E+02 0.287E+02 -.150E+04   -.271E+02 -.280E+02 0.150E+04   -.283E+00 -.649E+00 0.219E+01   0.108E-01 0.852E-04 0.616E-03
   0.743E+01 -.641E+02 -.640E+02   -.834E+01 0.635E+02 0.644E+02   0.100E+01 0.532E+00 -.327E+00   -.282E-01 0.233E-01 0.130E-01
   -.203E+02 -.179E+02 0.586E+01   0.210E+02 0.186E+02 -.649E+01   -.771E+00 -.778E+00 0.613E+00   0.133E-01 -.136E-01 0.720E-02
   0.179E+02 0.132E+02 -.121E+04   -.180E+02 -.135E+02 0.121E+04   0.105E+00 0.441E+00 0.348E+00   -.585E-02 -.674E-02 -.155E-01
   -.670E+02 -.761E+01 0.237E+04   0.672E+02 0.638E+01 -.237E+04   -.296E+00 0.128E+01 -.286E+01   0.333E-02 -.109E-01 -.101E-01
   0.361E+02 -.201E+02 0.241E+04   -.359E+02 0.185E+02 -.241E+04   -.103E+00 0.166E+01 -.257E+01   -.223E-02 0.127E-02 0.151E-02
   0.266E+02 0.384E+01 0.241E+04   -.266E+02 -.309E+01 -.240E+04   -.463E-01 -.793E+00 -.313E+01   -.623E-02 -.431E-02 0.336E-02
   0.183E+02 0.603E+02 0.125E+04   -.174E+02 -.595E+02 -.125E+04   -.959E+00 -.811E+00 -.872E-01   0.167E-01 0.175E-01 0.240E-02
   0.301E+02 -.651E+02 0.125E+04   -.300E+02 0.648E+02 -.125E+04   -.838E-01 0.323E+00 -.389E+00   -.196E-01 -.522E-02 0.446E-03
   -.567E+02 -.210E+02 -.120E+04   0.569E+02 0.212E+02 0.120E+04   -.145E+00 -.260E+00 0.616E+00   -.957E-02 0.757E-02 -.169E-01
   -.119E+03 0.180E+02 0.242E+04   0.118E+03 -.179E+02 -.242E+04   0.757E+00 -.157E+00 -.297E+01   -.139E-01 0.506E-02 0.940E-02
   -.345E+02 0.505E+02 0.127E+04   0.337E+02 -.501E+02 -.127E+04   0.863E+00 -.527E+00 -.443E+00   0.690E-02 0.152E-01 0.716E-02
   -.528E+02 0.364E+01 -.352E+02   0.525E+02 -.327E+01 0.352E+02   0.231E+00 -.436E+00 -.142E+00   -.930E-02 -.999E-02 0.596E-02
   0.134E+02 -.819E+02 -.121E+04   -.135E+02 0.817E+02 0.121E+04   0.141E+00 0.221E+00 0.934E+00   -.129E-01 0.101E-01 0.190E-02
   0.127E+02 0.334E+02 -.121E+04   -.128E+02 -.334E+02 0.121E+04   0.130E+00 -.550E-01 0.290E+00   0.352E-02 -.104E-01 -.213E-02
   0.324E+01 -.624E+02 0.239E+04   -.403E+01 0.614E+02 -.239E+04   0.817E+00 0.106E+01 -.303E+01   -.566E-02 0.754E-02 -.212E-02
   0.111E+02 -.153E+02 0.269E+04   -.111E+02 0.156E+02 -.269E+04   0.416E-01 -.309E+00 -.255E+01   0.141E-01 -.150E-01 0.752E-02
   0.132E+03 0.387E+02 0.272E+04   -.132E+03 -.378E+02 -.272E+04   0.166E+00 -.888E+00 -.275E+01   -.999E-03 0.372E-02 0.160E-02
   -.476E+02 -.445E+02 0.138E+04   0.471E+02 0.434E+02 -.138E+04   0.524E+00 0.118E+01 -.401E+00   0.385E-02 -.180E-01 -.763E-02
   -.636E+02 0.533E+02 0.236E+02   0.636E+02 -.531E+02 -.243E+02   -.106E+00 -.211E+00 0.624E+00   0.882E-02 -.483E-01 0.174E-01
   -.105E+03 0.126E+02 0.138E+04   0.105E+03 -.121E+02 -.138E+04   0.480E+00 -.470E+00 -.159E+00   -.645E-02 -.346E-01 0.145E-01
   -.154E+02 0.652E+01 0.136E+04   0.155E+02 -.682E+01 -.136E+04   -.145E+00 0.346E+00 -.153E+00   0.177E-01 0.667E-02 0.470E-03
   0.434E+02 0.429E+01 -.137E+04   -.433E+02 -.445E+01 0.137E+04   -.196E+00 0.196E+00 0.121E+01   -.113E-01 -.637E-02 -.312E-02
   0.598E+02 -.792E+02 0.271E+04   -.594E+02 0.790E+02 -.270E+04   -.479E+00 0.255E+00 -.272E+01   0.431E-02 -.813E-02 0.222E-02
   -.131E+02 0.416E+01 0.135E+04   0.132E+02 -.387E+01 -.135E+04   -.166E+00 -.276E+00 -.477E+00   -.456E-02 -.408E-01 -.384E-02
   0.247E+02 -.739E+02 -.135E+02   -.239E+02 0.734E+02 0.139E+02   -.801E+00 0.542E+00 -.477E+00   -.237E-01 0.105E-01 0.951E-02
   0.358E+02 0.408E+02 0.336E+04   -.360E+02 -.399E+02 -.336E+04   0.136E+00 -.910E+00 -.399E+01   0.190E-01 0.129E-01 0.394E-02
   0.572E+02 0.518E+01 0.170E+04   -.574E+02 -.583E+01 -.170E+04   0.170E+00 0.668E+00 -.965E-01   -.158E-01 0.297E-01 -.223E-02
   0.113E+03 -.344E+02 0.167E+04   -.113E+03 0.345E+02 -.167E+04   -.184E+00 -.618E-01 -.946E-01   -.919E-03 -.542E-02 0.148E-01
   0.204E+02 0.635E+02 0.101E+03   -.211E+02 -.633E+02 -.101E+03   0.682E+00 -.262E+00 0.383E+00   0.330E-01 0.959E-02 0.214E-01
   0.168E+02 0.486E+02 -.167E+04   -.165E+02 -.481E+02 0.166E+04   -.332E+00 -.495E+00 0.120E+01   0.160E-01 0.138E-01 0.284E-03
[...]
   0.526E+02 -.243E+02 0.653E+01   -.520E+02 0.238E+02 -.658E+01   -.549E+00 0.431E+00 0.147E+00   0.718E-02 0.256E-01 0.119E-01
   -.783E+02 0.316E+01 0.151E+04   0.779E+02 -.304E+01 -.151E+04   0.470E+00 -.831E-01 -.242E+00   -.594E-02 0.508E-02 0.167E-01
   -.187E+02 0.170E+02 0.159E+04   0.191E+02 -.173E+02 -.159E+04   -.395E+00 0.265E+00 -.475E+00   -.164E-01 0.149E-01 0.153E-01
   -.109E+03 -.799E+01 0.302E+04   0.109E+03 0.801E+01 -.302E+04   -.444E+00 0.263E-01 -.170E+01   -.172E-01 -.163E-01 0.118E-01
   0.696E+02 -.465E+02 0.301E+04   -.701E+02 0.471E+02 -.301E+04   0.481E+00 -.611E+00 -.109E+01   0.102E-01 -.858E-02 0.281E-02
   0.197E+02 -.324E+02 0.152E+04   -.194E+02 0.322E+02 -.152E+04   -.380E+00 0.207E+00 -.566E-01   0.107E-01 -.181E-01 0.566E-02
   0.561E+02 0.706E+01 0.155E+04   -.556E+02 -.711E+01 -.155E+04   -.562E+00 0.956E-01 -.245E+00   0.858E-02 0.757E-02 0.775E-02
   -.298E+02 -.638E+02 -.152E+04   0.296E+02 0.639E+02 0.152E+04   0.241E+00 -.683E-01 0.565E+00   -.779E-03 0.128E-01 -.668E-02
   -.427E+02 0.319E+02 0.300E+04   0.431E+02 -.313E+02 -.300E+04   -.475E+00 -.604E+00 -.207E+01   0.205E-02 0.146E-01 0.130E-01
   -.440E+02 0.780E+02 0.819E+02   0.445E+02 -.777E+02 -.819E+02   -.447E+00 -.404E+00 -.102E+00   0.144E-01 0.931E-02 0.108E-01
   -.894E+00 0.578E+02 -.125E+02   0.822E+00 -.570E+02 0.124E+02   0.127E+00 -.833E+00 -.214E-02   -.114E-01 -.282E-01 0.140E-01
   0.582E+02 0.146E+01 -.265E+02   -.578E+02 -.890E+00 0.264E+02   -.413E+00 -.623E+00 -.997E-01   -.205E-02 0.333E-02 0.140E-01
   0.760E+01 -.639E+02 0.342E+02   -.807E+01 0.634E+02 -.344E+02   0.454E+00 0.486E+00 0.147E+00   -.219E-01 0.671E-02 0.240E-01
   -.721E+00 -.210E+01 -.343E+03   0.879E+00 0.241E+01 0.345E+03   -.164E+00 -.317E+00 -.190E+01   0.648E-03 -.898E-04 -.627E-03
   -.157E+01 0.268E+00 -.116E+00   0.338E-12 0.821E-12 0.455E-12   0.152E+01 -.206E+00 0.781E-02   0.184E-01 -.111E-01 0.119E+00

 POSITION                                       TOTAL-FORCE (eV/Angst)
     13.18749      8.19965      6.93975        -0.005989     -0.004904     -0.001165
      5.20333      8.22097      6.89844         0.010417     -0.001746     -0.013349
      5.05640      3.54576      6.99158         0.008549     -0.018227      0.000998
     14.58798      8.95747      9.22189        -0.005203      0.003017      0.031544
      3.78588      4.32325      9.33207        -0.014984     -0.038405     -0.007752
      6.51617      8.95650      9.19772        -0.018519     -0.023258      0.024330
     11.89155      4.28241      9.30218         0.002888     -0.006788      0.004352
      9.18879      8.95257      9.19055         0.016983     -0.010495     -0.006449
     10.56215      1.95428      9.16666        -0.005393     -0.014333      0.005741
      2.48987      1.97337      9.22363        -0.003609      0.022096      0.001949
     11.88118      8.94670      9.24735         0.004947     -0.005503     -0.006948
     13.22532      6.62885      9.30328        -0.010358      0.019285     -0.014366
      5.13730      1.94469      9.26827         0.001968     -0.008882     -0.002524
      7.87355      6.65198      9.24523        -0.017305      0.009048     -0.000586
      9.23699      4.32230      9.31553        -0.025914     -0.017829      0.023599
      5.15567      6.62412      9.29582         0.013784      0.027604      0.018568
      7.83494      1.93826      9.28765         0.018893      0.038597      0.016275
      7.94195      3.51355      6.97358         0.000309     -0.012518      0.038852
      6.43801      1.18015      6.91056        -0.002280      0.006674      0.012388
      6.55899      1.14886      0.96438        -0.008373     -0.011358     -0.005953
      3.75747      4.28391      2.83239        -0.021786     -0.020484     -0.019798
      1.21180      1.27060      6.88724        -0.002368     -0.007802     -0.012627
      1.14464      1.22211      0.77800         0.003285      0.015492     -0.002638
      6.56687      8.92705      2.92680        -0.012045      0.005522     -0.006309
      6.47390      4.31111      9.27921         0.005417      0.012739      0.011344
      7.84317      5.09593      4.82253         0.013226     -0.044813     -0.024809
     10.51661      6.62842      9.23629        -0.002055     -0.014320      0.022752
     14.51918      7.33687      4.85107         0.020885     -0.018943     -0.058518
     11.91348      5.80383      6.99394        -0.007396      0.009558      0.018329
      6.52768      5.87894      6.97325         0.012059      0.013655     -0.005412
      3.66556      2.59850      4.95871        -0.004318     -0.019217      0.000159
     10.55203      5.13182      4.86368        -0.010757     -0.006122     -0.020387
      3.83300      5.88289      7.11143         0.004112      0.004961     -0.015286
     13.19219      8.02433      1.00573        -0.009816     -0.004212      0.027742
      5.26821      8.05279      0.90098         0.002652      0.006394      0.012039
      3.88993      5.88755      0.88776         0.004530     -0.009933      0.027214
      7.96781      2.09986      2.87061        -0.019851      0.001645     -0.001849
      9.24633      8.88529      2.89138         0.020786      0.048256     -0.006021
      2.44997      3.57771      7.09822        -0.001435      0.006217     -0.000755
      2.33068      3.55115      0.88683         0.027317     -0.002882      0.000745
     10.54411      2.00466      2.85564        -0.007395      0.018062     -0.024258
     13.20125      5.07200      4.92596         0.009287     -0.043759     -0.025522
      3.82750      1.07936      7.04179         0.011140      0.014804     -0.008625
      9.20177      5.86830      7.05821         0.008868     -0.018574      0.011195
      3.79990      1.08422      0.93869        -0.012563      0.002681      0.018052
      9.28005      5.82724      1.01487        -0.012239      0.016286      0.002392
      5.25238      3.56304      0.92964        -0.012430      0.003262      0.013727
     11.82187      8.82904      2.94048         0.004631      0.008849      0.000164
     11.87544      7.38555      4.84901        -0.017352      0.018507     -0.029403
     13.08248      6.55049      2.85969         0.015788     -0.006258     -0.004919
      9.21707      4.27951      2.82588         0.003736      0.007325     -0.005785
      7.90701      8.15599      6.98533        -0.002527     -0.010272     -0.000153
      7.97778      8.09308      0.93938        -0.008953      0.024145      0.003314
     10.58681      6.67050      2.84722        -0.020579     -0.013531     -0.004525
      2.57872      0.24765      5.01085         0.040361      0.016465     -0.033887
      7.89204      3.56304      0.82040        -0.007602     -0.008617      0.017140
      5.16267      1.91547      2.95300        -0.003108     -0.006695      0.018907
      5.28297      6.56629      2.94356         0.011131     -0.005215     -0.003442
      7.85418      0.47531      4.84859         0.006255      0.021878     -0.012828
      9.22792      1.20904      6.94741        -0.002951      0.010860      0.000661
[...]
      9.26929      2.70975      4.92992        -0.022423      0.008215      0.018423
      6.49665      2.73164      4.86532         0.029463      0.017668      0.052739
     11.86943      4.25741      2.84734         0.017588     -0.017626     -0.029175
      2.48289      1.92464      2.85312        -0.032534      0.003103     -0.004779
     11.85493      5.78777      0.92942        -0.010982      0.023755      0.012851
      6.57689      5.84104      0.99111         0.007684      0.004185     -0.012107
      7.99191      6.64267      2.86446         0.018634     -0.020538      0.018882
      6.54439      4.21089      2.82135        -0.014117      0.005773      0.008254
     10.57797      3.55379      7.03040        -0.004272      0.006466      0.007541
     10.54163      3.50860      0.91916        -0.007205     -0.008577      0.010988
     10.57208      0.50548      4.87385         0.002386      0.000192     -0.028169
      9.21999      7.42016      4.95848         0.020612     -0.001927     -0.025479
      6.61478      7.43446      4.94584         0.035224     -0.020622     -0.023935
      5.12149      0.26726      4.90165        -0.003281      0.006073      0.007811
      8.49237      3.07018     10.37847        -0.004956     -0.005494      0.007674
    total drift:                               -0.031548      0.051225      0.011302

  FREE ENERGIE OF THE ION-ELECTRON SYSTEM (eV)
  free  energy   TOTEN  =      -509.05589938 eV

  energy  without entropy=     -509.08110490  energy(sigma->0) =     -509.06430122

 d Force = 0.1729604E-02[ 0.263E-03, 0.320E-02]  d Energy = 0.1460592E-02 0.269E-03
 d Force = 0.2058629E+02[ 0.206E+02, 0.206E+02]  d Ewald  = 0.2058630E+02-0.359E-05

 Conjugate gradient step on ions:
 trial-energy change:   -0.001461  1 .order   -0.001730   -0.003196   -0.000263
  (g-gl).g = 0.214E-02      g.g   = 0.202E-02  gl.gl    = 0.442E-02
 g(Force)  = 0.202E-02   g(Stress)= 0.000E+00 ortho     =-0.822E-04
 gamma     =   0.48460
 trial     =   1.61376
 opt step  =   2.17476  (harmonic =   1.75865) maximal distance =0.01735173
 next E    =  -509.055934   (d E  =  -0.00150)

 reached required accuracy - stopping structural energy minimisation