 vasp.5.4.4.18Apr17-6-g9f103f2a35 (build Nov 30 2020 22:55:02) complex

 executed on             LinuxIFC date 2022.09.16  22:09:45

 INCAR:
 POTCAR:    PAW_PBE Pt 04Feb2005
 POTCAR:    PAW_PBE Fe 06Sep2000
 POTCAR:    PAW_PBE Co 02Aug2007
 POTCAR:    PAW_PBE Cu 22Jun2005
 POTCAR:    PAW_PBE Ni 02Aug2007
 POTCAR:    PAW_PBE N 08Apr2002

 POTCAR:    PAW_PBE Pt 04Feb2005
   VRHFIN =Pt: s1d9

   TITEL  = PAW_PBE Pt 04Feb2005
   POMASS =  195.080; ZVAL   =   10.000    mass and valenz
   ENMAX  =  230.283; ENMIN  =  172.712 eV

 POTCAR:    PAW_PBE Fe 06Sep2000
   VRHFIN =Fe:  d7 s1

   TITEL  = PAW_PBE Fe 06Sep2000
   POMASS =   55.847; ZVAL   =    8.000    mass and valenz
   ENMAX  =  267.882; ENMIN  =  200.911 eV

 POTCAR:    PAW_PBE Co 02Aug2007
   VRHFIN =Co: d8 s1

   TITEL  = PAW_PBE Co 02Aug2007
   POMASS =   58.933; ZVAL   =    9.000    mass and valenz
   ENMAX  =  267.968; ENMIN  =  200.976 eV

 POTCAR:    PAW_PBE Cu 22Jun2005
   VRHFIN =Cu: d10 p1

   TITEL  = PAW_PBE Cu 22Jun2005
   POMASS =   63.546; ZVAL   =   11.000    mass and valenz
   ENMAX  =  295.446; ENMIN  =  221.585 eV

 POTCAR:    PAW_PBE Ni 02Aug2007
   VRHFIN =Ni:

   TITEL  = PAW_PBE Ni 02Aug2007
   POMASS =   58.690; ZVAL   =   10.000    mass and valenz
   ENMAX  =  269.532; ENMIN  =  202.149 eV

 POTCAR:    PAW_PBE N 08Apr2002
   VRHFIN =N: s2p3

   TITEL  = PAW_PBE N 08Apr2002
   POMASS =   14.001; ZVAL   =    5.000    mass and valenz
   ENMAX  =  400.000; ENMIN  =  300.000 eV

 Optimization of the real space projectors (new method)

 maximal supplied QI-value         = 14.36
 optimisation between [QCUT,QGAM] = [ 11.92, 23.98] = [ 39.79,161.09] Ry
 Optimized for a Real-space Cutoff    1.49 Angstroem

   l    n(q)    QCUT    max X(q) W(low)/X(q) W(high)/X(q)  e(spline)
   2     10    11.920    66.195    0.79E-04    0.18E-03    0.24E-06
   2     10    11.920    64.643    0.81E-04    0.19E-03    0.24E-06
   0     11    11.920    95.520    0.28E-04    0.54E-04    0.18E-06
   0     11    11.920    63.403    0.27E-04    0.52E-04    0.17E-06
   1     10    11.920    19.961    0.18E-04    0.11E-03    0.23E-06
   1     10    11.920    13.289    0.25E-04    0.87E-04    0.19E-06
 Optimization of the real space projectors (new method)

[...]

   l    n(q)    QCUT    max X(q) W(low)/X(q) W(high)/X(q)  e(spline)
   2      9    11.864    60.317    0.21E-03    0.51E-03    0.25E-06
   2      9    11.864    55.921    0.21E-03    0.51E-03    0.26E-06
   0      9    11.864    51.690    0.22E-03    0.30E-04    0.17E-06
   0      9    11.864    30.015    0.20E-03    0.28E-04    0.15E-06
   1      9    11.864    18.849    0.76E-04    0.33E-03    0.17E-06
   1      9    11.864    14.624    0.60E-04    0.28E-03    0.15E-06
 Optimization of the real space projectors (new method)

 maximal supplied QI-value         = 25.13
 optimisation between [QCUT,QGAM] = [ 11.81, 23.88] = [ 39.08,159.64] Ry
 Optimized for a Real-space Cutoff    1.41 Angstroem

   l    n(q)    QCUT    max X(q) W(low)/X(q) W(high)/X(q)  e(spline)
   0     10    11.813    79.467    0.48E-04    0.30E-04    0.67E-06
   0     10    11.813    66.151    0.47E-04    0.30E-04    0.67E-06
   1     10    11.813    20.169    0.11E-03    0.17E-03    0.11E-05
   1     10    11.813    14.454    0.11E-03    0.17E-03    0.11E-05
  PAW_PBE Pt 04Feb2005                  :
  PAW_PBE Fe 06Sep2000                  :
  PAW_PBE Co 02Aug2007                  :
  PAW_PBE Cu 22Jun2005                  :
  PAW_PBE Ni 02Aug2007                  :
  PAW_PBE N 08Apr2002                   :

 POSCAR: 10.56
  positions in cartesian coordinates
 exchange correlation table for  LEXCH =        8
   RHO(1)=    0.500       N(1)  =     2000
   RHO(2)=  100.500       N(2)  =     4000

 ion  position               nearest neighbor table
   1  0.787  0.879  0.317-  28 2.61  49 2.62  19 2.63  59 2.64  33 2.65  61 2.67  60 2.67  29 2.68
                             2 2.73  11 2.77   4 2.80  12 2.84
   2  0.043  0.884  0.317-  79 2.56  77 2.61  60 2.62  30 2.64  52 2.66  22 2.69  33 2.69  28 2.69
                             1 2.73   6 2.80   4 2.81  16 2.88
   3  0.278  0.381  0.320-  39 2.54  64 2.58  33 2.59  31 2.63  19 2.71  30 2.72  43 2.73  68 2.73
                            13 2.76   5 2.78  18 2.82  25 2.86
   4  0.873  0.962  0.424-   6 2.61  17 2.62  11 2.63   9 2.64  12 2.65  16 2.66   1 2.80   2 2.81
                            60 2.82
   5  0.122  0.463  0.428-  10 2.61  12 2.61  16 2.62   7 2.63  25 2.66  13 2.67  39 2.73  33 2.74
                             3 2.78
   6  0.121  0.959  0.428-  81 1.95   4 2.61  16 2.62  14 2.70   9 2.70  10 2.72   8 2.72   2 2.80
                            52 2.92  22 2.96
   7  0.874  0.460  0.426-  10 2.59  15 2.61   5 2.63   9 2.63  27 2.64  12 2.65  39 2.68  75 2.77
                            29 2.79
   8  0.380  0.957  0.427-  81 1.96  27 2.59  11 2.61  14 2.66  13 2.68  43 2.71   6 2.72  10 2.75
                            61 2.80  52 2.83
   9  0.868  0.214  0.418-  15 2.59  17 2.59   7 2.63   4 2.64  75 2.65  60 2.68   6 2.70  10 2.70
                            22 2.79
  10  0.121  0.217  0.432-  81 1.96   7 2.59   5 2.61  13 2.68   9 2.70   6 2.72   8 2.75  39 2.82
                            43 2.92  22 2.92
  11  0.626  0.959  0.423-   8 2.61   4 2.63  12 2.63  27 2.64  17 2.64  13 2.65   1 2.77  61 2.82
                            19 2.83
  12  0.875  0.710  0.426-   5 2.61  11 2.63  16 2.63  27 2.65   7 2.65   4 2.65  33 2.68  29 2.81
                             1 2.84
  13  0.376  0.212  0.424-  17 2.61  25 2.62  11 2.65   5 2.67   8 2.68  10 2.68   3 2.76  43 2.76
                            19 2.79
  14  0.379  0.706  0.423-  15 2.59  25 2.61  27 2.62   8 2.66  16 2.66  44 2.67   6 2.70  30 2.74
                            52 2.80
  15  0.626  0.461  0.423-   9 2.59  14 2.59   7 2.61  27 2.62  25 2.66  17 2.67  44 2.71  75 2.74
                            18 2.77
  16  0.125  0.709  0.426-   6 2.62   5 2.62  25 2.63  12 2.63   4 2.66  14 2.66  33 2.67  30 2.82
                             2 2.88
  17  0.625  0.209  0.422-   9 2.59  13 2.61   4 2.62  11 2.64  25 2.65  15 2.67  18 2.77  60 2.80
                            19 2.86
  18  0.548  0.375  0.317-  67 2.56  60 2.59  75 2.62  68 2.65  44 2.65  26 2.67  30 2.71  19 2.73
                            15 2.77  17 2.77   3 2.82  25 2.90
  19  0.534  0.124  0.315-  80 2.55  43 2.56  68 2.57  59 2.60  61 2.63   1 2.63   3 2.71  18 2.73
                            60 2.77  13 2.79  11 2.83  17 2.86
  20  0.547  0.124  0.040-  37 2.55  57 2.56  48 2.58  62 2.64  63 2.68  47 2.68  45 2.68  56 2.70
                            34 2.71
  21  0.121  0.460  0.128-  40 2.52  36 2.53  47 2.53  42 2.60  69 2.61  64 2.62  70 2.64  50 2.64
                            58 2.67  31 2.70  57 2.71  74 2.72
  22  0.046  0.137  0.316-  65 2.54  55 2.54  43 2.55  39 2.56  75 2.61  77 2.62   2 2.69  60 2.71
                            52 2.72   9 2.79  10 2.92   6 2.96  31 3.39
  23  0.042  0.130  0.033-  70 2.58  40 2.60  41 2.61  45 2.62  62 2.64  76 2.64  24 2.69  35 2.73
                            53 2.78
  24  0.130  0.958  0.132-  79 2.51  77 2.54  35 2.57  53 2.57  55 2.58  70 2.62  38 2.64  58 2.64
                            73 2.65  23 2.69  66 2.70  41 2.72
  25  0.374  0.461  0.427-  14 2.61  13 2.62  16 2.63  17 2.65   5 2.66  15 2.66  30 2.86   3 2.86
                            18 2.90
  26  0.455  0.546  0.219-  73 2.50  74 2.54  51 2.56  79 2.61  64 2.63  30 2.65  18 2.67  68 2.67
                            78 2.67  32 2.68  67 2.72  44 2.75
  27  0.624  0.710  0.424-   8 2.59  14 2.62  15 2.62  11 2.64   7 2.64  12 2.65  44 2.69  61 2.77
                            29 2.78
  28  0.956  0.790  0.221-  58 2.57  66 2.57  50 2.58  42 2.59  49 2.61   1 2.61  64 2.63   2 2.69
                            59 2.70  33 2.71  79 2.76  77 2.77
  29  0.794  0.623  0.319-  39 2.54  42 2.56  75 2.57  32 2.61  44 2.64  33 2.65  61 2.68   1 2.68
                            49 2.68  27 2.78   7 2.79  12 2.81
  30  0.291  0.631  0.318-  79 2.56  64 2.60  52 2.62  44 2.62   2 2.64  26 2.65  33 2.65  18 2.71
                             3 2.72  14 2.74  16 2.82  25 2.86
  31  0.203  0.281  0.225-  70 2.52  55 2.56  65 2.57  57 2.60  43 2.62   3 2.63  39 2.67  80 2.70
                            21 2.70  42 2.71  68 2.75  64 2.79  22 3.39
  32  0.706  0.549  0.221-  54 2.53  69 2.56  51 2.58  49 2.59  42 2.60  29 2.61  78 2.62  65 2.63
                            75 2.67  26 2.68  44 2.70  67 2.70
  33  0.040  0.631  0.325-   3 2.59  39 2.64   1 2.65  29 2.65  30 2.65  16 2.67  12 2.68   2 2.69
                            64 2.69  28 2.71  42 2.72   5 2.74
  34  0.797  0.862  0.042-  50 2.38  66 2.51  48 2.53  36 2.55  71 2.56  63 2.61  20 2.71  35 2.76
                            62 2.76
  35  0.056  0.866  0.038-  58 2.54  72 2.55  36 2.56  24 2.57  66 2.62  53 2.65  23 2.73  62 2.73
                            34 2.76
  36  0.046  0.628  0.037-  21 2.53  34 2.55  35 2.56  58 2.58  50 2.61  47 2.63  72 2.64  40 2.69
                            71 2.72
  37  0.627  0.222  0.129-  51 2.51  74 2.51  67 2.52  56 2.53  41 2.55  20 2.55  68 2.56  59 2.56
                            62 2.59  66 2.66  57 2.73  48 2.89
  38  0.382  0.955  0.130-  53 2.47  80 2.48  45 2.49  78 2.53  48 2.54  73 2.55  63 2.55  54 2.56
                            55 2.59  57 2.62  24 2.64  70 2.67
  39  0.036  0.384  0.324-  29 2.54   3 2.54  22 2.56  75 2.58  33 2.64  42 2.66  31 2.67   7 2.68
                             5 2.73  65 2.76  43 2.81  10 2.82
  40  0.031  0.382  0.038-  69 2.44  21 2.52  71 2.53  76 2.56  70 2.57  23 2.60  36 2.69  45 2.78
                            47 2.78
  41  0.872  0.215  0.128-  76 2.45  65 2.52  77 2.53  67 2.54  37 2.55  69 2.57  62 2.57  51 2.59
                            23 2.61  70 2.65  66 2.66  24 2.72
  42  0.955  0.545  0.224-  50 2.56  29 2.56  28 2.59  21 2.60  32 2.60  69 2.61  49 2.63  65 2.64
                            64 2.65  39 2.66  31 2.71  33 2.72
  43  0.298  0.114  0.322-  52 2.51  61 2.54  55 2.54  22 2.55  19 2.56  31 2.62  80 2.67   8 2.71
                             3 2.73  13 2.76  39 2.81  10 2.92
  44  0.540  0.631  0.322-  61 2.56  52 2.57  30 2.62  78 2.63  29 2.64  18 2.65  14 2.67  75 2.67
                            27 2.69  32 2.70  15 2.71  26 2.75
  45  0.295  0.119  0.039-  70 2.49  38 2.49  57 2.57  53 2.60  23 2.62  63 2.64  20 2.68  47 2.75
                            40 2.78
  46  0.548  0.625  0.044-  51 2.38  73 2.39  54 2.41  71 2.56  53 2.56  63 2.58  76 2.59  56 2.62
                            72 2.64
  47  0.296  0.379  0.039-  74 2.41  21 2.53  57 2.61  72 2.61  56 2.62  36 2.63  20 2.68  45 2.75
                            40 2.78
  48  0.625  0.950  0.132-  49 2.40  80 2.48  54 2.48  34 2.53  38 2.54  59 2.55  50 2.56  63 2.57
                            20 2.58  57 2.65  66 2.68  37 2.89
  49  0.706  0.794  0.220-  48 2.40  50 2.48  54 2.49  80 2.53  32 2.59  28 2.61  78 2.61   1 2.62
                            42 2.63  61 2.64  29 2.68  59 2.69
  50  0.866  0.706  0.129-  34 2.38  71 2.42  54 2.48  49 2.48  42 2.56  48 2.56  69 2.58  28 2.58
[...]
     12.86756      6.45280      2.83379        -0.070089      0.307410      0.016804
      9.04201      4.20780      2.79628         0.012136     -0.082337      0.017210
      7.77974      8.00809      6.97848         0.009869     -0.031301     -0.030830
      7.81315      7.93922      0.88653        -0.080815      0.082171     -0.000957
     10.39144      6.53566      2.82198         0.034388      0.018664     -0.004917
      2.51347      0.25826      5.00083         0.045505      0.067424     -0.006568
      7.74264      3.48454      0.76157         0.074950     -0.023990     -0.036822
      5.07835      1.87760      2.91701        -0.035054     -0.055774     -0.047727
      5.16037      6.44715      2.89923         0.021970     -0.064265     -0.011868
      7.70892      0.45986      4.84799        -0.003686      0.025455     -0.059671
      9.06391      1.18608      6.95448        -0.002533     -0.007374      0.006689
[...]
      9.07350      2.65252      4.91360         0.016907      0.004529     -0.049044
      6.37169      2.66558      4.85827        -0.029825      0.011634     -0.014732
     11.65891      4.17486      2.81483        -0.006432      0.000539     -0.012621
      2.44098      1.89237      2.83279         0.019441      0.034366     -0.083418
     11.64953      5.68621      0.88546         0.116155     -0.071040     -0.072554
      6.44743      5.71949      0.92597        -0.087521      0.170098     -0.018159
      7.82927      6.50651      2.83621        -0.011587      0.073905     -0.072635
      6.41922      4.13007      2.78290        -0.092621      0.052839      0.165314
     10.38562      3.46744      7.02967         0.008620      0.007382      0.015864
     10.34410      3.45013      0.86804         0.161212     -0.009009     -0.084341
     10.37063      0.48410      4.87151         0.063974     -0.010869      0.049312
      9.04079      7.29017      4.93700         0.022345     -0.043468     -0.001152
      6.46265      7.29503      4.94074         0.029166      0.044460      0.024639
      5.04247      0.27633      4.88406        -0.055073     -0.017873     -0.005919
      2.43053      0.34894     10.57804        -0.018806     -0.010631      0.238606
    total drift:                                0.003416     -0.029801     -0.023280

  FREE ENERGIE OF THE ION-ELECTRON SYSTEM (eV)
  free  energy   TOTEN  =      -511.71423989 eV

  energy  without entropy=     -511.71423989  energy(sigma->0) =     -511.71423989

 d Force = 0.4950105E-03[-0.716E-02, 0.815E-02]  d Energy =-0.5504695E-03 0.105E-02
 d Force =-0.5156734E+02[-0.516E+02,-0.515E+02]  d Ewald  =-0.5156828E+02 0.944E-03

 Finite differences progress:
  Degree of freedom:   3/  3
  Displacement:        2/  2
  Total:               6/  6

 SECOND DERIVATIVES (NOT SYMMETRIZED)
              81X         81Y         81Z
 81X   -10.656585   -0.387836   -0.546493
 81Y    -0.123488  -11.118695    0.091097
 81Z    -0.494282    0.110315  -17.007117

 Eigenvectors and eigenvalues of the dynamical matrix

   1 f  =   17.252036 THz   108.397741 2PiTHz  575.465972 cm-1    71.348713 meV
             X         Y         Z           dx          dy          dz
     12.959197  8.042718  6.976304            0           0           0
      5.124445  8.084263  6.979127            0           0           0
      4.948963  3.481627  7.035486            0           0           0
     14.299178  8.795914  9.318128            0           0           0
      3.727354  4.230643  9.412215            0           0           0
      6.343414  8.767350  9.409993            0           0           0
     11.657299  4.205006  9.375995            0           0           0
      9.066666  8.747919  9.384455            0           0           0
     10.292412  1.957955  9.204647            0           0           0
      2.417206  1.980322  9.505029            0           0           0
     11.672362  8.771535  9.314457            0           0           0
     12.986904  6.494747  9.362409            0           0           0
      5.093650  1.937336  9.320176            0           0           0
      7.723777  6.453842  9.300816            0           0           0
      9.044632  4.220259  9.299591            0           0           0
      5.060947  6.486371  9.371025            0           0           0
      7.702968  1.915789  9.291271            0           0           0
      7.769609  3.433296  6.975644            0           0           0
      6.297752  1.137920  6.928087            0           0           0
      6.428579  1.129740  0.878720            0           0           0
      3.705484  4.208436  2.816869            0           0           0
      1.208620  1.254929  6.943023            0           0           0
      1.135691  1.190800  0.725566            0           0           0
      6.436066  8.760995  2.900314            0           0           0
      6.386342  4.214304  9.397262            0           0           0
      7.681351  4.990728  4.814740            0           0           0
     10.340081  6.496058  9.317345            0           0           0
     14.264242  7.225928  4.862987            0           0           0
     11.670624  5.694412  7.017048            0           0           0
      6.406701  5.774209  7.000348            0           0           0
      3.621194  2.565893  4.960228            0           0           0
     10.360912  5.024302  4.856517            0           0           0
      3.758212  5.774634  7.146798            0           0           0
     12.969068  7.879772  0.925674            0           0           0
      5.163396  7.917194  0.830298            0           0           0
      3.807011  5.745024  0.813805            0           0           0
      7.798522  2.032451  2.832513            0           0           0
      9.077547  8.733730  2.857427            0           0           0
      2.406820  3.508664  7.138437            0           0           0
      2.344093  3.490514  0.825101            0           0           0
     10.348141  1.969830  2.822490            0           0           0
     12.960353  4.985870  4.925592            0           0           0
      3.742552  1.038249  7.084996            0           0           0
      9.028897  5.767944  7.078555            0           0           0
      3.748243  1.091821  0.867003            0           0           0
      9.091210  5.718673  0.960427            0           0           0
      5.124479  3.470454  0.855627            0           0           0
     11.620923  8.687580  2.905895            0           0           0
     11.653130  7.264496  4.842290            0           0           0
     12.867560  6.452796  2.833790            0           0           0
      9.042010  4.207796  2.796278            0           0           0
      7.779743  8.008093  6.978481            0           0           0
      7.813155  7.939223  0.886525            0           0           0
     10.391439  6.535663  2.821980            0           0           0
      2.513474  0.258257  5.000827            0           0           0
      7.742638  3.484538  0.761574            0           0           0
      5.078354  1.877603  2.917008            0           0           0
      5.160365  6.447147  2.899226            0           0           0
      7.708921  0.459858  4.847993            0           0           0
      9.063909  1.186082  6.954477            0           0           0
[...]
      9.073503  2.652522  4.913605            0           0           0
      6.371693  2.665576  4.858272            0           0           0
     11.658911  4.174860  2.814827            0           0           0
      2.440982  1.892366  2.832794            0           0           0
     11.649530  5.686214  0.885461            0           0           0
      6.447433  5.719494  0.925972            0           0           0
      7.829267  6.506514  2.836212            0           0           0
      6.419224  4.130068  2.782896            0           0           0
     10.385625  3.467440  7.029670            0           0           0
     10.344097  3.450125  0.868038            0           0           0
     10.370626  0.484098  4.871515            0           0           0
      9.040790  7.290173  4.936995            0           0           0
      6.462653  7.295032  4.940739            0           0           0
      5.042471  0.276335  4.884059            0           0           0
      2.430533  0.348943 10.593036     0.080578   -0.013447    0.996658

[...]

   3 f  =   13.539586 THz    85.071728 2PiTHz  451.631962 cm-1    55.995247 meV
             X         Y         Z           dx          dy          dz
     12.959197  8.042718  6.976304            0           0           0
      5.124445  8.084263  6.979127            0           0           0
      4.948963  3.481627  7.035486            0           0           0
     14.299178  8.795914  9.318128            0           0           0
      3.727354  4.230643  9.412215            0           0           0
      6.343414  8.767350  9.409993            0           0           0
     11.657299  4.205006  9.375995            0           0           0
      9.066666  8.747919  9.384455            0           0           0
     10.292412  1.957955  9.204647            0           0           0
      2.417206  1.980322  9.505029            0           0           0
     11.672362  8.771535  9.314457            0           0           0
     12.986904  6.494747  9.362409            0           0           0
      5.093650  1.937336  9.320176            0           0           0
      7.723777  6.453842  9.300816            0           0           0
      9.044632  4.220259  9.299591            0           0           0
      5.060947  6.486371  9.371025            0           0           0
      7.702968  1.915789  9.291271            0           0           0
      7.769609  3.433296  6.975644            0           0           0
      6.297752  1.137920  6.928087            0           0           0
      6.428579  1.129740  0.878720            0           0           0
      3.705484  4.208436  2.816869            0           0           0
      1.208620  1.254929  6.943023            0           0           0
      1.135691  1.190800  0.725566            0           0           0
      6.436066  8.760995  2.900314            0           0           0
      6.386342  4.214304  9.397262            0           0           0
      7.681351  4.990728  4.814740            0           0           0
     10.340081  6.496058  9.317345            0           0           0
     14.264242  7.225928  4.862987            0           0           0
     11.670624  5.694412  7.017048            0           0           0
      6.406701  5.774209  7.000348            0           0           0
      3.621194  2.565893  4.960228            0           0           0
     10.360912  5.024302  4.856517            0           0           0
      3.758212  5.774634  7.146798            0           0           0
     12.969068  7.879772  0.925674            0           0           0
      5.163396  7.917194  0.830298            0           0           0
      3.807011  5.745024  0.813805            0           0           0
      7.798522  2.032451  2.832513            0           0           0
      9.077547  8.733730  2.857427            0           0           0
      2.406820  3.508664  7.138437            0           0           0
      2.344093  3.490514  0.825101            0           0           0
     10.348141  1.969830  2.822490            0           0           0
     12.960353  4.985870  4.925592            0           0           0
      3.742552  1.038249  7.084996            0           0           0
      9.028897  5.767944  7.078555            0           0           0
      3.748243  1.091821  0.867003            0           0           0
      9.091210  5.718673  0.960427            0           0           0
      5.124479  3.470454  0.855627            0           0           0
     11.620923  8.687580  2.905895            0           0           0
     11.653130  7.264496  4.842290            0           0           0
     12.867560  6.452796  2.833790            0           0           0
      9.042010  4.207796  2.796278            0           0           0
      7.779743  8.008093  6.978481            0           0           0
      7.813155  7.939223  0.886525            0           0           0
     10.391439  6.535663  2.821980            0           0           0
      2.513474  0.258257  5.000827            0           0           0
      7.742638  3.484538  0.761574            0           0           0
      5.078354  1.877603  2.917008            0           0           0
      5.160365  6.447147  2.899226            0           0           0
      7.708921  0.459858  4.847993            0           0           0
      9.063909  1.186082  6.954477            0           0           0
[...]
      9.073503  2.652522  4.913605            0           0           0
      6.371693  2.665576  4.858272            0           0           0
     11.658911  4.174860  2.814827            0           0           0
      2.440982  1.892366  2.832794            0           0           0
     11.649530  5.686214  0.885461            0           0           0
      6.447433  5.719494  0.925972            0           0           0
      7.829267  6.506514  2.836212            0           0           0
      6.419224  4.130068  2.782896            0           0           0
     10.385625  3.467440  7.029670            0           0           0
     10.344097  3.450125  0.868038            0           0           0
     10.370626  0.484098  4.871515            0           0           0
      9.040790  7.290173  4.936995            0           0           0
      6.462653  7.295032  4.940739            0           0           0
      5.042471  0.276335  4.884059            0           0           0
      2.430533  0.348943 10.593036    -0.916218    0.392740    0.079373

 Finite differences POTIM=  1.500000000000000E-002
  LATTYP: Found a hexagonal cell.
 ALAT       =    10.5600004196
 C/A-ratio  =     2.0833332505

  Lattice vectors:

 A1 = (   5.2800002098,  -9.1452286274,   0.0000000000)
 A2 = ( -10.5600004196,   0.0000000000,   0.0000000000)
 A3 = (   0.0000000000,   0.0000000000, -22.0000000000)

Analysis of symmetry for initial positions (statically):
 Subroutine PRICEL returns:
 Original cell was already a primitive cell.

[...]

The static configuration has the point symmetry C_1 .

Analysis of symmetry for dynamics (positions and initial velocities):
 Subroutine PRICEL returns:
 Original cell was already a primitive cell.

[...]

The dynamic configuration has the point symmetry C_1 .

Analysis of constrained symmetry for selective dynamics:
 Subroutine PRICEL returns:
 Original cell was already a primitive cell.

[...]

The constrained configuration has the point symmetry C_1 .

Analysis of structural, dynamic, and magnetic symmetry:
 Subroutine PRICEL returns:
 Original cell was already a primitive cell.

 Routine SETGRP: Setting up the symmetry group for a
 hexagonal supercell.

 Subroutine GETGRP returns: Found  1 space group operations
 (whereof  1 operations were pure point group operations)
 out of a pool of 24 trial point group operations.

The magnetic configuration has the point symmetry C_1 .

 Subroutine INISYM returns: Found  1 space group operations
 (whereof  1 operations are pure point group operations),
 and found     1 'primitive' translations

 KPOINTS: mesh auto

Automatic generation of k-mesh.
Space group operators:
 irot       det(A)        alpha          n_x          n_y          n_z        tau_x        tau_y        tau_z
    1     1.000000     0.000001     1.000000     0.000000     0.000000     0.000000     0.000000     0.000000

 Subroutine IBZKPT returns following result:

 Found      4 irreducible k-points:

 Following reciprocal coordinates:
            Coordinates               Weight
  0.000000  0.000000  0.000000      1.000000
  0.500000  0.000000  0.000000      1.000000
  0.000000  0.500000  0.000000      1.000000
  0.500000  0.500000  0.000000      1.000000

 Following cartesian coordinates:
            Coordinates               Weight
  0.000000  0.000000  0.000000      1.000000
  0.047348 -0.027337  0.000000      1.000000
  0.000000  0.054673  0.000000      1.000000
  0.047348  0.027337  0.000000      1.000000

 TETIRR: Found     12 inequivalent tetrahedra from       24
 BZINTS: Fermi energy:  2.036726;782.000000 electrons
         Band energy:-721.008756;  BLOECHL correction: -0.088258