 vasp.5.4.4.18Apr17-6-g9f103f2a35 (build Oct 25 2019 11:13:22) complex

 executed on             LinuxIFC date 2021.10.11  21:11:38

 INCAR:
 POTCAR:    PAW_PBE Pt 04Feb2005
 POTCAR:    PAW_PBE Fe 06Sep2000
 POTCAR:    PAW_PBE Co 02Aug2007
 POTCAR:    PAW_PBE Cu 22Jun2005
 POTCAR:    PAW_PBE Ni 02Aug2007
 POTCAR:    PAW_PBE H 15Jun2001
 POTCAR:    PAW_PBE Pt 04Feb2005
   VRHFIN =Pt: s1d9

   TITEL  = PAW_PBE Pt 04Feb2005
   POMASS =  195.080; ZVAL   =   10.000    mass and valenz
   ENMAX  =  230.283; ENMIN  =  172.712 eV

 POTCAR:    PAW_PBE Fe 06Sep2000
   VRHFIN =Fe:  d7 s1

   TITEL  = PAW_PBE Fe 06Sep2000
   POMASS =   55.847; ZVAL   =    8.000    mass and valenz
   ENMAX  =  267.882; ENMIN  =  200.911 eV

 POTCAR:    PAW_PBE Co 02Aug2007
   VRHFIN =Co: d8 s1

   TITEL  = PAW_PBE Co 02Aug2007
   POMASS =   58.933; ZVAL   =    9.000    mass and valenz
   ENMAX  =  267.968; ENMIN  =  200.976 eV

 POTCAR:    PAW_PBE Cu 22Jun2005
   VRHFIN =Cu: d10 p1

   TITEL  = PAW_PBE Cu 22Jun2005
   POMASS =   63.546; ZVAL   =   11.000    mass and valenz
   ENMAX  =  295.446; ENMIN  =  221.585 eV

 POTCAR:    PAW_PBE Ni 02Aug2007
   VRHFIN =Ni:

   TITEL  = PAW_PBE Ni 02Aug2007
   POMASS =   58.690; ZVAL   =   10.000    mass and valenz
   ENMAX  =  269.532; ENMIN  =  202.149 eV

 POTCAR:    PAW_PBE H 15Jun2001
   VRHFIN =H: ultrasoft test

   TITEL  = PAW_PBE H 15Jun2001
   POMASS =    1.000; ZVAL   =    1.000    mass and valenz
   ENMAX  =  250.000; ENMIN  =  200.000 eV

 Optimization of the real space projectors (new method)

 maximal supplied QI-value         = 14.36
 optimisation between [QCUT,QGAM] = [ 11.92, 23.98] = [ 39.79,161.09] Ry
 Optimized for a Real-space Cutoff    1.49 Angstroem

   l    n(q)    QCUT    max X(q) W(low)/X(q) W(high)/X(q)  e(spline)
   2     10    11.920    66.195    0.79E-04    0.18E-03    0.24E-06
   2     10    11.920    64.643    0.81E-04    0.19E-03    0.24E-06
   0     11    11.920    95.520    0.28E-04    0.54E-04    0.18E-06
   0     11    11.920    63.403    0.27E-04    0.52E-04    0.17E-06
   1     10    11.920    19.961    0.18E-04    0.11E-03    0.23E-06
   1     10    11.920    13.289    0.25E-04    0.87E-04    0.19E-06
 Optimization of the real space projectors (new method)

[...]

   l    n(q)    QCUT    max X(q) W(low)/X(q) W(high)/X(q)  e(spline)
   2      9    11.864    60.317    0.21E-03    0.51E-03    0.25E-06
   2      9    11.864    55.921    0.21E-03    0.51E-03    0.26E-06
   0      9    11.864    51.690    0.22E-03    0.30E-04    0.17E-06
   0      9    11.864    30.015    0.20E-03    0.28E-04    0.15E-06
   1      9    11.864    18.849    0.76E-04    0.33E-03    0.17E-06
   1      9    11.864    14.624    0.60E-04    0.28E-03    0.15E-06
 Optimization of the real space projectors (new method)

 maximal supplied QI-value         = 34.20
 optimisation between [QCUT,QGAM] = [ 11.97, 23.94] = [ 40.13,160.53] Ry
 Optimized for a Real-space Cutoff    1.18 Angstroem

   l    n(q)    QCUT    max X(q) W(low)/X(q) W(high)/X(q)  e(spline)
   0      8    11.971    19.460    0.15E-03    0.31E-03    0.25E-06
   0      8    11.971    12.209    0.13E-03    0.29E-03    0.25E-06
   1      8    11.971     4.655    0.22E-03    0.24E-03    0.21E-06
  PAW_PBE Pt 04Feb2005                  :
  PAW_PBE Fe 06Sep2000                  :
  PAW_PBE Co 02Aug2007                  :
  PAW_PBE Cu 22Jun2005                  :
  PAW_PBE Ni 02Aug2007                  :
  PAW_PBE H 15Jun2001                   :

 POSCAR: 10.46
  positions in direct lattice
  velocities in cartesian coordinates
 exchange correlation table for  LEXCH =        8
   RHO(1)=    0.500       N(1)  =     2000
   RHO(2)=  100.500       N(2)  =     4000

 ion  position               nearest neighbor table
   1  0.789  0.879  0.319-  19 2.61  33 2.62  28 2.63  60 2.64  61 2.64  49 2.65  29 2.66  59 2.66
                             2 2.67  11 2.78  12 2.84   4 2.93
   2  0.042  0.883  0.318-  79 2.57  60 2.59  30 2.62  77 2.62  52 2.64  33 2.65  22 2.66  28 2.67
                             1 2.67   6 2.80   4 2.97  16 2.99
   3  0.279  0.381  0.321-  39 2.54  33 2.56  64 2.58  31 2.63  43 2.68  19 2.68  30 2.69  68 2.73
                            18 2.79  13 2.80   5 2.80  25 2.87
   4  0.872  0.963  0.433-  17 2.59  11 2.60   9 2.64  12 2.64   6 2.66  16 2.67   1 2.93  60 2.95
                             2 2.97
   5  0.123  0.461  0.431-  16 2.60  12 2.60   7 2.61  10 2.61  13 2.64  25 2.64  33 2.74  39 2.75
                             3 2.80
   6  0.125  0.963  0.426-  81 1.88   8 2.60  10 2.60   9 2.63  14 2.63   4 2.66  16 2.66   2 2.80
                            52 2.86  22 2.92
   7  0.874  0.460  0.430-  15 2.60   9 2.60   5 2.61  12 2.61  10 2.61  27 2.63  39 2.72  75 2.82
                            29 2.84
   8  0.374  0.960  0.421-  14 2.59   6 2.60  27 2.60  43 2.61  13 2.61  11 2.62  10 2.62  52 2.70
                            61 2.73
   9  0.873  0.213  0.421-  15 2.59   7 2.60  17 2.61  10 2.63   6 2.63   4 2.64  75 2.67  60 2.71
                            22 2.81
  10  0.125  0.211  0.424-   6 2.60  13 2.60   5 2.61   7 2.61   8 2.62   9 2.63  39 2.67  43 2.73
                            22 2.80
  11  0.624  0.961  0.426-   4 2.60  13 2.61  27 2.62  17 2.62  12 2.62   8 2.62   1 2.78  19 2.84
                            61 2.86
  12  0.874  0.710  0.428-   5 2.60   7 2.61  27 2.61  11 2.62  16 2.64   4 2.64  33 2.67  29 2.82
                             1 2.84
  13  0.375  0.209  0.426-  10 2.60  11 2.61   8 2.61  17 2.63   5 2.64  25 2.64  43 2.78   3 2.80
                            19 2.84
  14  0.377  0.711  0.424-  81 1.90  27 2.57   8 2.59  15 2.61  25 2.63   6 2.63  16 2.64  44 2.69
                            30 2.75  52 2.78
  15  0.626  0.461  0.424-   9 2.59   7 2.60  27 2.60  14 2.61  25 2.62  17 2.63  44 2.71  75 2.73
                            18 2.76
  16  0.127  0.708  0.433-  81 1.88  25 2.59   5 2.60  12 2.64  14 2.64   6 2.66   4 2.67  33 2.75
                            30 2.91   2 2.99
  17  0.625  0.211  0.423-   4 2.59   9 2.61  11 2.62  25 2.62  15 2.63  13 2.63  18 2.77  60 2.77
                            19 2.86
  18  0.548  0.376  0.317-  67 2.57  60 2.57  75 2.58  44 2.63  68 2.66  26 2.66  30 2.68  19 2.70
                            15 2.76  17 2.77   3 2.79  25 2.91
  19  0.535  0.124  0.316-  43 2.55  80 2.55  68 2.58  59 2.60  61 2.61   1 2.61   3 2.68  18 2.70
                            60 2.72  11 2.84  13 2.84  17 2.86
  20  0.546  0.123  0.038-  37 2.55  57 2.56  48 2.58  62 2.61  45 2.65  63 2.65  47 2.66  56 2.67
                            34 2.68
  21  0.121  0.460  0.127-  40 2.52  47 2.53  36 2.53  69 2.59  42 2.60  70 2.61  50 2.62  64 2.62
                            58 2.64  57 2.68  74 2.69  31 2.70
  22  0.043  0.136  0.315-  65 2.52  55 2.53  43 2.55  39 2.56  77 2.57  75 2.58  60 2.65   2 2.66
                            52 2.70  10 2.80   9 2.81   6 2.92  31 3.39
  23  0.043  0.130  0.032-  70 2.58  40 2.59  45 2.59  41 2.62  62 2.62  76 2.62  24 2.68  35 2.69
                            53 2.75
  24  0.130  0.958  0.131-  79 2.51  77 2.53  53 2.57  35 2.58  55 2.58  70 2.59  58 2.62  38 2.62
                            73 2.63  66 2.68  23 2.68  41 2.70
  25  0.375  0.461  0.429-  16 2.59  17 2.62  15 2.62  14 2.63   5 2.64  13 2.64  30 2.86   3 2.87
                            18 2.91
  26  0.454  0.545  0.219-  73 2.49  74 2.54  51 2.56  79 2.59  64 2.60  68 2.65  78 2.65  18 2.66
                            30 2.66  32 2.67  67 2.70  44 2.76
  27  0.623  0.711  0.426-  14 2.57   8 2.60  15 2.60  12 2.61  11 2.62   7 2.63  44 2.71  29 2.80
                            61 2.80
  28  0.956  0.790  0.221-  58 2.57  42 2.57  66 2.58  50 2.59  49 2.59  64 2.61   1 2.63   2 2.67
                            59 2.67  79 2.72  77 2.73  33 2.75
  29  0.794  0.622  0.319-  39 2.51  75 2.55  42 2.56  44 2.61  32 2.62  33 2.64  61 2.65   1 2.66
                            49 2.70  27 2.80  12 2.82   7 2.84
  30  0.291  0.631  0.319-  79 2.58  52 2.59  44 2.61  64 2.61   2 2.62  33 2.62  26 2.66  18 2.68
                             3 2.69  14 2.75  25 2.86  16 2.91
  31  0.203  0.282  0.225-  70 2.53  55 2.55  65 2.56  43 2.60  57 2.61   3 2.63  80 2.67  42 2.68
                            39 2.68  21 2.70  68 2.71  64 2.75  22 3.39
  32  0.707  0.549  0.221-  54 2.53  69 2.56  49 2.57  42 2.58  51 2.58  65 2.60  78 2.60  29 2.62
                            26 2.67  67 2.68  75 2.69  44 2.70
  33  0.041  0.631  0.328-   3 2.56  39 2.62   1 2.62  30 2.62  29 2.64   2 2.65  12 2.67  64 2.73
                             5 2.74  16 2.75  28 2.75  42 2.77
  34  0.798  0.862  0.040-  50 2.39  66 2.50  71 2.53  36 2.54  48 2.54  63 2.59  20 2.68  35 2.72
                            62 2.73
  35  0.056  0.867  0.036-  72 2.53  58 2.54  36 2.55  24 2.58  53 2.62  66 2.62  23 2.69  62 2.70
                            34 2.72
  36  0.047  0.627  0.035-  21 2.53  34 2.54  35 2.55  58 2.59  47 2.59  72 2.62  50 2.62  40 2.64
                            71 2.69
  37  0.627  0.221  0.128-  74 2.49  51 2.51  67 2.52  41 2.54  56 2.54  20 2.55  59 2.56  68 2.56
                            62 2.60  66 2.63  57 2.68  48 2.82
  38  0.382  0.955  0.129-  80 2.48  53 2.48  45 2.51  48 2.52  78 2.53  73 2.54  54 2.54  63 2.55
                            55 2.59  57 2.60  24 2.62  70 2.65
  39  0.035  0.383  0.326-  29 2.51   3 2.54  22 2.56  75 2.56  33 2.62  10 2.67  42 2.68  31 2.68
                             7 2.72   5 2.75  43 2.76  65 2.78
  40  0.032  0.382  0.036-  69 2.46  71 2.51  21 2.52  76 2.55  70 2.58  23 2.59  36 2.64  47 2.73
                            45 2.75
  41  0.872  0.216  0.128-  76 2.46  65 2.51  37 2.54  69 2.54  67 2.54  77 2.54  51 2.57  62 2.58
                            23 2.62  70 2.63  66 2.64  24 2.70
  42  0.955  0.545  0.224-  29 2.56  50 2.56  28 2.57  32 2.58  21 2.60  49 2.61  64 2.62  69 2.62
                            65 2.63  31 2.68  39 2.68  33 2.77
  43  0.296  0.116  0.322-  52 2.51  55 2.54  61 2.54  22 2.55  19 2.55  31 2.60   8 2.61  80 2.67
                             3 2.68  10 2.73  39 2.76  13 2.78
  44  0.541  0.631  0.322-  61 2.53  52 2.55  29 2.61  30 2.61  18 2.63  78 2.63  75 2.64  14 2.69
                            32 2.70  15 2.71  27 2.71  26 2.76
  45  0.295  0.120  0.038-  70 2.50  38 2.51  57 2.57  53 2.59  23 2.59  63 2.62  20 2.65  47 2.72
                            40 2.75
  46  0.548  0.625  0.042-  51 2.38  73 2.40  54 2.42  53 2.54  71 2.55  63 2.56  76 2.57  56 2.59
                            72 2.61
  47  0.295  0.380  0.037-  74 2.43  21 2.53  72 2.58  36 2.59  56 2.61  57 2.61  20 2.66  45 2.72
                            40 2.73
  48  0.625  0.951  0.131-  49 2.40  54 2.48  80 2.48  38 2.52  34 2.54  59 2.54  50 2.54  63 2.58
                            20 2.58  57 2.62  66 2.64  37 2.82
  49  0.706  0.795  0.220-  48 2.40  50 2.48  54 2.49  80 2.51  32 2.57  78 2.59  28 2.59  42 2.61
                            61 2.63   1 2.65  59 2.66  29 2.70
  50  0.866  0.707  0.128-  34 2.39  71 2.43  54 2.46  49 2.48  48 2.54  42 2.56  69 2.57  28 2.59
[...]

 FORCES acting on ions
    electron-ion (+dipol)            ewald-force                    non-local-force                 convergence-correction
   -.349E+02 0.863E+02 -.153E+04   0.346E+02 -.865E+02 0.153E+04   0.276E+00 0.282E+00 0.225E+01   0.169E-02 0.300E-01 0.145E+00
   0.138E+02 0.730E+02 -.154E+04   -.132E+02 -.734E+02 0.154E+04   -.626E+00 0.352E+00 0.243E+01   0.482E-01 0.622E-01 0.143E+00
   0.366E+02 -.150E+02 -.157E+04   -.382E+02 0.154E+02 0.157E+04   0.173E+01 -.321E+00 0.210E+01   -.463E-02 -.449E-01 0.133E+00
   -.500E+01 0.222E+02 -.295E+04   0.480E+01 -.220E+02 0.294E+04   0.207E+00 -.224E+00 0.589E+00   0.167E-01 0.238E-01 0.136E-02
   -.279E+01 0.112E+02 -.296E+04   0.249E+01 -.107E+02 0.295E+04   0.297E+00 -.434E+00 0.126E+01   -.389E-01 -.375E-01 -.261E-01
   -.605E+01 -.129E+02 -.293E+04   0.593E+01 0.132E+02 0.293E+04   0.132E+00 -.389E+00 -.204E+00   0.102E-01 0.206E-01 -.439E-01
   -.150E+02 -.470E+01 -.298E+04   0.152E+02 0.440E+01 0.298E+04   -.159E+00 0.300E+00 0.110E+01   -.397E-02 -.367E-01 -.306E-01
   0.145E+02 -.155E+02 -.293E+04   -.145E+02 0.158E+02 0.293E+04   -.879E-03 -.287E+00 0.176E+01   -.173E-01 0.118E-02 -.511E-01
   -.192E+02 0.810E+01 -.297E+04   0.191E+02 -.787E+01 0.297E+04   0.626E-01 -.246E+00 0.857E+00   0.124E-01 0.222E-01 -.753E-01
   -.102E+02 -.582E+00 -.293E+04   0.106E+02 0.931E+00 0.293E+04   -.311E+00 -.304E+00 0.138E+01   -.166E-01 0.475E-02 -.543E-01
   -.180E+01 -.429E+01 -.298E+04   0.212E+01 0.420E+01 0.298E+04   -.351E+00 0.483E-01 0.440E+00   -.136E-01 0.132E-01 -.198E-01
   -.888E+00 0.190E+01 -.295E+04   0.128E+01 -.220E+01 0.295E+04   -.376E+00 0.298E+00 0.876E+00   -.302E-01 -.332E-02 -.282E-01
   0.315E+01 -.131E+02 -.296E+04   -.336E+01 0.129E+02 0.296E+04   0.223E+00 0.219E+00 0.617E+00   -.523E-02 -.204E-01 -.632E-01
   0.580E+01 0.928E+01 -.295E+04   -.458E+01 -.989E+01 0.295E+04   -.126E+01 0.590E+00 0.968E+00   0.323E-02 0.194E-01 -.659E-01
   0.160E+02 -.965E+01 -.295E+04   -.158E+02 0.989E+01 0.294E+04   -.229E+00 -.187E+00 0.102E+01   0.227E-01 -.292E-01 -.719E-01
   0.658E+01 0.394E+01 -.296E+04   -.770E+01 -.493E+01 0.296E+04   0.112E+01 0.958E+00 0.525E+00   0.162E-01 0.223E-01 -.331E-01
   0.256E+02 -.744E+01 -.296E+04   -.255E+02 0.759E+01 0.296E+04   -.805E-01 -.174E+00 0.758E+00   0.103E-01 0.367E-02 -.411E-01
   0.718E+02 -.770E+02 -.155E+04   -.706E+02 0.774E+02 0.155E+04   -.120E+01 -.290E+00 0.183E+01   0.584E-01 -.205E-01 0.143E+00
   0.323E+02 -.443E+02 -.155E+04   -.334E+02 0.438E+02 0.155E+04   0.111E+01 0.414E+00 0.256E+01   -.299E-01 -.821E-02 0.128E+00
   0.346E+02 0.330E+02 0.308E+04   -.348E+02 -.331E+02 -.308E+04   0.149E+00 0.194E+00 -.230E+01   0.416E-01 -.570E-01 0.491E-01
   0.384E+02 -.894E+01 0.161E+04   -.393E+02 0.962E+01 -.162E+04   0.907E+00 -.622E+00 0.958E+00   -.418E-01 0.139E-01 0.239E+00
   -.736E+02 0.120E+02 -.151E+04   0.746E+02 -.116E+02 0.151E+04   -.875E+00 -.414E+00 0.246E+01   -.206E-01 0.125E-01 0.113E+00
   -.555E+02 0.489E+02 0.312E+04   0.562E+02 -.481E+02 -.312E+04   -.691E+00 -.794E+00 -.187E+01   -.135E-01 -.195E-01 0.494E-01
   -.405E+01 -.522E+02 0.161E+04   0.438E+01 0.517E+02 -.161E+04   -.338E+00 0.348E+00 -.736E+00   -.480E-01 0.460E-01 0.262E+00
   0.479E+01 0.294E+01 -.294E+04   -.503E+01 -.311E+01 0.294E+04   0.224E+00 0.182E+00 0.454E+00   0.264E-01 -.114E-01 -.622E-02
   -.217E+02 -.123E+02 0.433E+01   0.217E+02 0.126E+02 -.609E+01   -.442E-01 -.302E+00 0.144E+01   0.728E-02 0.906E-02 0.318E+00
   -.120E+02 0.674E+01 -.296E+04   0.116E+02 -.691E+01 0.296E+04   0.451E+00 0.209E+00 0.104E+01   0.878E-03 0.920E-02 -.489E-01
   0.184E+02 0.723E+02 -.926E+01   -.193E+02 -.735E+02 0.847E+01   0.108E+01 0.113E+01 0.464E+00   0.197E-01 0.537E-01 0.216E+00
   -.684E+02 0.860E+01 -.151E+04   0.687E+02 -.977E+01 0.151E+04   -.335E+00 0.130E+01 0.287E+01   -.388E-01 -.470E-01 0.134E+00
   0.315E+02 0.209E+02 -.158E+04   -.312E+02 -.201E+02 0.158E+04   -.337E+00 -.846E+00 0.232E+01   0.379E-01 0.478E-01 0.153E+00
   0.278E+02 -.632E+02 -.816E+02   -.287E+02 0.627E+02 0.817E+02   0.970E+00 0.470E+00 -.326E+00   -.134E-01 -.471E-01 0.268E+00
   -.234E+02 -.227E+02 0.266E+01   0.242E+02 0.234E+02 -.375E+01   -.891E+00 -.764E+00 0.759E+00   0.187E-01 -.349E-01 0.338E+00
   0.130E+02 0.124E+02 -.128E+04   -.132E+02 -.128E+02 0.128E+04   0.146E+00 0.464E+00 0.621E+00   -.502E-02 0.963E-02 0.906E-01
   -.574E+02 -.173E+01 0.247E+04   0.578E+02 0.429E+00 -.247E+04   -.471E+00 0.131E+01 -.256E+01   0.184E-01 0.268E-01 0.432E-01
   0.289E+02 -.126E+02 0.250E+04   -.288E+02 0.112E+02 -.250E+04   -.558E-01 0.139E+01 -.213E+01   -.330E-01 0.378E-01 0.468E-01
   0.224E+02 -.763E+01 0.251E+04   -.226E+02 0.809E+01 -.251E+04   0.202E+00 -.539E+00 -.276E+01   -.344E-01 0.422E-01 0.329E-01
   0.169E+01 0.470E+02 0.131E+04   -.885E+00 -.463E+02 -.131E+04   -.858E+00 -.621E+00 -.158E+00   0.208E-01 -.675E-01 0.175E+00
   0.364E+02 -.517E+02 0.129E+04   -.363E+02 0.514E+02 -.129E+04   -.134E+00 0.236E+00 -.431E+00   -.136E-02 0.452E-01 0.207E+00
   -.539E+02 -.255E+02 -.126E+04   0.541E+02 0.257E+02 0.126E+04   -.126E+00 -.204E+00 0.811E+00   -.598E-01 -.405E-01 0.107E+00
   -.858E+02 0.231E+02 0.251E+04   0.857E+02 -.229E+02 -.251E+04   0.120E+00 -.253E+00 -.248E+01   -.144E-02 -.151E-01 0.262E-01
   -.329E+02 0.463E+02 0.131E+04   0.321E+02 -.458E+02 -.131E+04   0.786E+00 -.563E+00 -.404E+00   0.239E-02 -.752E-01 0.206E+00
   -.411E+02 0.227E+01 -.481E+02   0.409E+02 -.190E+01 0.478E+02   0.191E+00 -.401E+00 -.497E-01   -.138E-01 -.818E-02 0.199E+00
   0.156E+02 -.824E+02 -.126E+04   -.158E+02 0.823E+02 0.126E+04   0.180E+00 0.236E+00 0.119E+01   -.225E-01 -.337E-01 0.974E-01
   0.166E+02 0.303E+02 -.125E+04   -.168E+02 -.302E+02 0.125E+04   0.149E+00 -.109E+00 0.588E+00   0.897E-02 0.356E-03 0.988E-01
   0.179E+02 -.424E+02 0.248E+04   -.186E+02 0.418E+02 -.248E+04   0.665E+00 0.624E+00 -.261E+01   -.139E-01 -.204E-01 0.413E-01
   0.194E+01 -.216E+02 0.279E+04   -.201E+01 0.218E+02 -.279E+04   0.919E-01 -.209E+00 -.220E+01   0.298E-02 0.243E-01 0.103E-01
   0.115E+03 0.300E+02 0.283E+04   -.116E+03 -.293E+02 -.282E+04   0.529E+00 -.688E+00 -.217E+01   -.252E-01 -.238E-01 0.293E-01
   -.311E+02 -.214E+02 0.144E+04   0.307E+02 0.204E+02 -.144E+04   0.407E+00 0.102E+01 -.476E+00   0.239E-01 0.305E-01 0.200E+00
   -.592E+02 0.738E+02 0.256E+02   0.592E+02 -.736E+02 -.267E+02   0.230E-02 -.266E+00 0.889E+00   -.426E-03 0.293E-01 0.241E+00
   -.829E+02 0.233E+02 0.142E+04   0.824E+02 -.228E+02 -.142E+04   0.528E+00 -.487E+00 -.689E-01   0.454E-01 0.321E-01 0.191E+00
   -.201E+02 0.133E+02 0.141E+04   0.202E+02 -.135E+02 -.141E+04   -.170E+00 0.269E+00 -.307E-01   0.888E-02 -.846E-01 0.260E+00
   0.525E+02 0.108E+02 -.142E+04   -.523E+02 -.111E+02 0.142E+04   -.264E+00 0.293E+00 0.162E+01   0.126E-02 0.406E-01 0.126E+00
   0.506E+02 -.833E+02 0.279E+04   -.503E+02 0.830E+02 -.279E+04   -.298E+00 0.201E+00 -.222E+01   -.297E-01 0.872E-01 0.379E-01
   -.137E+02 -.839E+00 0.140E+04   0.138E+02 0.971E+00 -.140E+04   -.115E+00 -.220E+00 -.410E+00   0.551E-01 0.621E-01 0.251E+00
   0.174E+02 -.664E+02 -.189E+02   -.166E+02 0.659E+02 0.188E+02   -.778E+00 0.587E+00 -.323E+00   -.148E-01 -.138E-01 0.262E+00
   0.310E+02 0.332E+02 0.348E+04   -.311E+02 -.323E+02 -.348E+04   0.648E-01 -.866E+00 -.338E+01   -.541E-03 -.117E+00 0.198E-02
   0.668E+02 0.781E+01 0.177E+04   -.669E+02 -.844E+01 -.177E+04   0.794E-01 0.742E+00 -.163E+00   -.519E-02 -.709E-01 0.288E+00
   0.960E+02 -.286E+02 0.174E+04   -.958E+02 0.285E+02 -.174E+04   -.169E+00 0.373E-01 0.124E+00   -.539E-01 0.743E-01 0.266E+00
   0.130E+02 0.737E+02 0.757E+02   -.136E+02 -.736E+02 -.769E+02   0.561E+00 -.201E+00 0.820E+00   0.341E-01 0.247E-02 0.264E+00
   0.123E+02 0.541E+02 -.173E+04   -.119E+02 -.537E+02 0.173E+04   -.500E+00 -.488E+00 0.165E+01   0.664E-01 0.441E-01 0.135E+00
[...]
   0.567E+02 -.451E+02 0.114E+01   -.562E+02 0.448E+02 -.190E+01   -.582E+00 0.426E+00 0.494E+00   -.225E-02 -.602E-01 0.296E+00
   -.762E+02 0.215E+01 0.157E+04   0.757E+02 -.197E+01 -.157E+04   0.389E+00 -.619E-01 -.317E-01   0.555E-01 -.406E-01 0.252E+00
   -.112E+02 0.210E+02 0.164E+04   0.116E+02 -.212E+02 -.164E+04   -.340E+00 0.188E+00 -.420E+00   -.243E-01 -.323E-01 0.230E+00
   -.990E+02 -.336E+01 0.312E+04   0.994E+02 0.342E+01 -.312E+04   -.534E+00 -.733E-01 -.115E+01   0.105E+00 0.345E-01 0.256E-01
   0.714E+02 -.555E+02 0.312E+04   -.716E+02 0.560E+02 -.312E+04   0.314E+00 -.578E+00 -.704E+00   -.610E-01 0.490E-01 0.248E-01
   0.144E+02 -.453E+02 0.156E+04   -.140E+02 0.450E+02 -.156E+04   -.370E+00 0.249E+00 0.359E-01   -.542E-01 0.877E-01 0.298E+00
   0.509E+02 0.137E+01 0.161E+04   -.504E+02 -.127E+01 -.161E+04   -.482E+00 -.154E-01 -.780E-01   -.171E-01 -.303E-01 0.260E+00
   -.426E+02 -.775E+02 -.156E+04   0.425E+02 0.776E+02 0.156E+04   0.123E+00 -.680E-01 0.911E+00   0.101E-01 -.346E-01 0.138E+00
   -.583E+02 0.297E+02 0.311E+04   0.587E+02 -.290E+02 -.310E+04   -.399E+00 -.550E+00 -.181E+01   0.402E-01 -.106E+00 0.336E-01
   -.501E+02 0.737E+02 0.706E+02   0.505E+02 -.734E+02 -.711E+02   -.378E+00 -.403E+00 0.203E+00   0.114E-01 0.740E-02 0.250E+00
   0.389E+01 0.631E+02 0.265E+00   -.393E+01 -.624E+02 -.683E+00   0.502E-01 -.832E+00 -.446E-01   -.143E-01 0.680E-01 0.313E+00
   0.438E+02 0.112E+02 -.384E+02   -.435E+02 -.107E+02 0.381E+02   -.331E+00 -.632E+00 0.659E-01   -.403E-02 0.779E-01 0.282E+00
   0.311E+02 -.462E+02 0.319E+02   -.314E+02 0.457E+02 -.324E+02   0.334E+00 0.479E+00 0.215E+00   -.214E-01 -.657E-03 0.272E+00
   -.243E+01 -.165E+00 -.352E+03   0.253E+01 -.329E-01 0.354E+03   -.118E+00 0.233E+00 -.176E+01   0.387E-03 0.294E-02 -.102E-01
   -.184E+01 -.169E+01 -.177E+02   0.706E-13 0.694E-12 -.117E-10   0.180E+01 0.162E+01 0.745E+01   0.426E-01 0.478E-01 0.102E+02

 POSITION                                       TOTAL-FORCE (eV/Angst)
     12.82949      7.95147      6.99411        -0.007120      0.011336      0.001217
      5.06336      7.98109      6.98241        -0.005987      0.008557      0.012502
      4.91211      3.44877      7.05339        -0.000392     -0.010698      0.004230
     14.16169      8.71388      9.33602         0.024635     -0.006887      0.014432
      3.70463      4.17613      9.47506        -0.033169     -0.010279      0.001972
      6.32965      8.73037      9.37837         0.001467      0.012735     -0.003812
     11.55371      4.16303      9.42937         0.021629     -0.005910     -0.029399
      8.95761      8.69593      9.24455        -0.006230     -0.029005     -0.005054
     10.24900      1.91477      9.28772        -0.021117      0.016339     -0.002084
      2.42332      1.91160      9.32972         0.009101      0.021631     -0.002738
     11.56126      8.69434      9.37294        -0.010082      0.004115     -0.025812
     12.86129      6.43417      9.43406        -0.021637     -0.000668      0.004015
      5.01662      1.88926      9.40354         0.010411     -0.004520      0.017022
      7.67281      6.42592      9.43461         0.006299     -0.004673     -0.005668
      8.95740      4.17282      9.31041         0.001075     -0.016073      0.019257
      4.99588      6.41729      9.54922         0.011571     -0.002262      0.019305
      7.64278      1.90399      9.33117        -0.017068      0.009950      0.001903
      7.70170      3.39880      6.98143         0.001726     -0.000041      0.010967
      6.24348      1.12574      6.94771         0.016081     -0.002675      0.003026
      6.36060      1.11842      0.83643        -0.007583     -0.000887     -0.007497
      3.67604      4.17054      2.79730         0.012074      0.013912     -0.011868
      1.16098      1.22493      6.93118        -0.000240     -0.002569      0.003493
      1.12703      1.17594      0.69812        -0.021864      0.024826     -0.005586
      6.37362      8.68069      2.88743        -0.013769     -0.016480      0.007957
      6.33004      4.15744      9.41017         0.012282      0.014788     -0.017801
      7.60189      4.94104      4.81158         0.003174     -0.012830      0.000132
     10.24353      6.43518      9.34877         0.012213      0.013125      0.021773
     14.13769      7.16055      4.86796         0.046658     -0.041347     -0.048231
     11.56169      5.62528      7.02628        -0.005745      0.009254      0.005777
      6.36187      5.71872      7.03934        -0.002921      0.010155      0.017566
      3.59772      2.55377      4.95823        -0.023572      0.006150     -0.037765
     10.26754      4.96975      4.85148        -0.015326     -0.022434     -0.004007
      3.72689      5.70931      7.20893         0.003722      0.000095      0.004159
     12.85228      7.80762      0.88868        -0.002856      0.007950     -0.005890
      5.11408      7.84972      0.79309         0.005093      0.019331      0.015511
      3.77023      5.68258      0.76914         0.006466     -0.006146     -0.014353
      7.70970      1.99756      2.81572        -0.011234     -0.013110     -0.023966
      8.99527      8.65169      2.84555        -0.002772      0.016643     -0.009477
      2.37976      3.46506      7.16439         0.000958      0.000918      0.002945
      2.33777      3.46419      0.78556         0.005179      0.008052     -0.003548
     10.24620      1.95217      2.80512        -0.021144     -0.018096     -0.009857
     12.84195      4.93745      4.92144         0.023381     -0.015678     -0.009380
      3.70259      1.05219      7.07429         0.005059     -0.001562      0.006020
      8.95155      5.71203      7.09037        -0.002579     -0.001657      0.016395
      3.71395      1.08784      0.82514         0.005260     -0.002432      0.001723
      8.99829      5.66522      0.92800         0.006071      0.003565     -0.012649
      5.06743      3.44147      0.81265        -0.004207      0.021563      0.004592
     11.51727      8.61665      2.89228         0.009949     -0.004986     -0.005365
     11.54465      7.19978      4.83241        -0.001081      0.004133     -0.020123
     12.75801      6.40091      2.81726         0.038766      0.001034      0.013611
      8.95770      4.17295      2.77896        -0.018402      0.026979      0.006020
      7.69777      7.92526      6.99532         0.002365     -0.008749     -0.015841
      7.73138      7.86096      0.86088        -0.005879      0.001151     -0.003524
     10.29450      6.46618      2.80924        -0.012400     -0.007968     -0.018327
      2.48849      0.26233      4.99690        -0.026314      0.008841      0.003424
      7.67241      3.44637      0.72761        -0.002658     -0.009681      0.011023
      5.03303      1.85843      2.89234        -0.018968      0.003229      0.009215
      5.10108      6.38920      2.87489        -0.005252      0.001034      0.003365
      7.63667      0.45282      4.84968        -0.011227      0.004121      0.001149
      8.97267      1.17131      6.98355        -0.003350     -0.004732     -0.005149
[...]
      8.97964      2.61894      4.90350         0.011735     -0.010166     -0.019757
      6.30589      2.63413      4.85503        -0.008298     -0.002536     -0.019527
     11.54224      4.13511      2.79014         0.008648      0.012892     -0.017431
      2.41993      1.87995      2.81735         0.005376      0.014759      0.017950
     11.54338      5.63874      0.85840         0.009793      0.020952     -0.013731
      6.38743      5.66222      0.89172        -0.010200      0.007131     -0.006010
      7.74928      6.43552      2.82185        -0.011229      0.017068     -0.017028
      6.36172      4.09062      2.75984        -0.016390      0.006157     -0.005824
     10.27842      3.41717      7.05396         0.004681     -0.003278      0.004211
     10.24544      3.41772      0.83401        -0.003619     -0.011407     -0.013040
     10.26946      0.46989      4.86907         0.015863     -0.028848      0.045015
      8.95807      7.22027      4.93062        -0.023712     -0.006854     -0.032401
      6.39295      7.22925      4.93874         0.022121     -0.036050      0.059941
      4.99996      0.28300      4.87997         0.009973      0.006444      0.006602
      6.35093      7.33738     10.47593        -0.012177      0.036428      0.011751
    total drift:                                0.002557     -0.015151     -0.085320

  FREE ENERGIE OF THE ION-ELECTRON SYSTEM (eV)
  free  energy   TOTEN  =      -511.37427647 eV

  energy  without entropy=     -511.39374044  energy(sigma->0) =     -511.38076446

 d Force = 0.1590376E-04[-0.289E-04, 0.607E-04]  d Energy = 0.6729358E-04-0.514E-04
 d Force = 0.4396734E+01[ 0.440E+01, 0.440E+01]  d Ewald  = 0.4396733E+01 0.755E-06

 reached required accuracy - stopping structural energy minimisation