 vasp.5.4.4.18Apr17-6-g9f103f2a35 (build Nov 30 2020 22:55:02) complex

 executed on             LinuxIFC date 2023.08.09  21:19:17

 INCAR:
 POTCAR:    PAW_PBE Pt 04Feb2005
 POTCAR:    PAW_PBE Fe 06Sep2000
 POTCAR:    PAW_PBE Co 02Aug2007
 POTCAR:    PAW_PBE Cu 22Jun2005
 POTCAR:    PAW_PBE Ni 02Aug2007
 POTCAR:    PAW_PBE H 15Jun2001

 POTCAR:    PAW_PBE Pt 04Feb2005
   VRHFIN =Pt: s1d9

   TITEL  = PAW_PBE Pt 04Feb2005
   POMASS =  195.080; ZVAL   =   10.000    mass and valenz
   ENMAX  =  230.283; ENMIN  =  172.712 eV

 POTCAR:    PAW_PBE Fe 06Sep2000
   VRHFIN =Fe:  d7 s1

   TITEL  = PAW_PBE Fe 06Sep2000
   POMASS =   55.847; ZVAL   =    8.000    mass and valenz
   ENMAX  =  267.882; ENMIN  =  200.911 eV

 POTCAR:    PAW_PBE Co 02Aug2007
   VRHFIN =Co: d8 s1

   TITEL  = PAW_PBE Co 02Aug2007
   POMASS =   58.933; ZVAL   =    9.000    mass and valenz
   ENMAX  =  267.968; ENMIN  =  200.976 eV

 POTCAR:    PAW_PBE Cu 22Jun2005
   VRHFIN =Cu: d10 p1

   TITEL  = PAW_PBE Cu 22Jun2005
   POMASS =   63.546; ZVAL   =   11.000    mass and valenz
   ENMAX  =  295.446; ENMIN  =  221.585 eV

 POTCAR:    PAW_PBE Ni 02Aug2007
   VRHFIN =Ni:

   TITEL  = PAW_PBE Ni 02Aug2007
   POMASS =   58.690; ZVAL   =   10.000    mass and valenz
   ENMAX  =  269.532; ENMIN  =  202.149 eV

 POTCAR:    PAW_PBE H 15Jun2001
   VRHFIN =H: ultrasoft test

   TITEL  = PAW_PBE H 15Jun2001
   POMASS =    1.000; ZVAL   =    1.000    mass and valenz
   ENMAX  =  250.000; ENMIN  =  200.000 eV

 Optimization of the real space projectors (new method)

 maximal supplied QI-value         = 14.36
 optimisation between [QCUT,QGAM] = [ 11.92, 23.98] = [ 39.79,161.09] Ry
 Optimized for a Real-space Cutoff    1.49 Angstroem

   l    n(q)    QCUT    max X(q) W(low)/X(q) W(high)/X(q)  e(spline)
   2     10    11.920    66.195    0.79E-04    0.18E-03    0.24E-06
   2     10    11.920    64.643    0.81E-04    0.19E-03    0.24E-06
   0     11    11.920    95.520    0.28E-04    0.54E-04    0.18E-06
   0     11    11.920    63.403    0.27E-04    0.52E-04    0.17E-06
   1     10    11.920    19.961    0.18E-04    0.11E-03    0.23E-06
   1     10    11.920    13.289    0.25E-04    0.87E-04    0.19E-06
 Optimization of the real space projectors (new method)

[...]

   l    n(q)    QCUT    max X(q) W(low)/X(q) W(high)/X(q)  e(spline)
   2      9    11.864    60.317    0.21E-03    0.51E-03    0.25E-06
   2      9    11.864    55.921    0.21E-03    0.51E-03    0.26E-06
   0      9    11.864    51.690    0.22E-03    0.30E-04    0.17E-06
   0      9    11.864    30.015    0.20E-03    0.28E-04    0.15E-06
   1      9    11.864    18.849    0.76E-04    0.33E-03    0.17E-06
   1      9    11.864    14.624    0.60E-04    0.28E-03    0.15E-06
 Optimization of the real space projectors (new method)

 maximal supplied QI-value         = 34.20
 optimisation between [QCUT,QGAM] = [ 11.97, 23.94] = [ 40.13,160.53] Ry
 Optimized for a Real-space Cutoff    1.18 Angstroem

   l    n(q)    QCUT    max X(q) W(low)/X(q) W(high)/X(q)  e(spline)
   0      8    11.971    19.460    0.15E-03    0.31E-03    0.25E-06
   0      8    11.971    12.209    0.13E-03    0.29E-03    0.25E-06
   1      8    11.971     4.655    0.22E-03    0.24E-03    0.21E-06
  PAW_PBE Pt 04Feb2005                  :
  PAW_PBE Fe 06Sep2000                  :
  PAW_PBE Co 02Aug2007                  :
  PAW_PBE Cu 22Jun2005                  :
  PAW_PBE Ni 02Aug2007                  :
  PAW_PBE H 15Jun2001                   :

 POSCAR: 11.26
  positions in cartesian coordinates
 exchange correlation table for  LEXCH =        8
   RHO(1)=    0.500       N(1)  =     2000
   RHO(2)=  100.500       N(2)  =     4000

 ion  position               nearest neighbor table
   1  0.783  0.871  0.304-  49 2.53  59 2.60  28 2.67  61 2.74   4 2.77  33 2.78  19 2.80  11 2.80
                             2 2.81  29 2.83  60 2.84  12 2.87
   2  0.033  0.873  0.301-  79 2.52  77 2.55  30 2.77  33 2.79  28 2.80   4 2.81   1 2.81  60 2.82
                             6 2.87  16 2.91  22 2.95  52 3.09
   3  0.276  0.363  0.314-  64 2.54  31 2.65  68 2.66  39 2.71   5 2.72  13 2.74  43 2.76  25 2.78
                            19 2.81  30 2.82  33 2.85  18 2.97
   4  0.869  0.955  0.406-  60 2.67  11 2.75   1 2.77  12 2.78  17 2.79   6 2.79  16 2.80   9 2.81
                             2 2.81
   5  0.110  0.463  0.413-  39 2.63  33 2.70  12 2.71   3 2.72  10 2.74   7 2.75  16 2.75  25 2.83
                            13 2.97
   6  0.121  0.948  0.410-  82 1.82  81 1.90  52 2.68  16 2.76  14 2.77  22 2.78   4 2.79   2 2.87
                             9 2.93   8 2.95  10 2.99
   7  0.870  0.452  0.416-  39 2.62  75 2.65  29 2.72   5 2.75   9 2.79  10 2.79  15 2.79  27 2.80
                            12 2.86
   8  0.384  0.948  0.416-  82 1.75  52 2.58  43 2.61  61 2.70  27 2.72  11 2.74  13 2.79  14 2.84
                            10 2.92   6 2.95
   9  0.860  0.209  0.408-  81 1.72  75 2.63  60 2.65  17 2.71  15 2.74   7 2.79   4 2.81  22 2.82
                             6 2.93  10 3.00
  10  0.126  0.211  0.416-  81 2.01  82 2.08  39 2.66  43 2.69   5 2.74  13 2.74  22 2.78   7 2.79
                             8 2.92   6 2.99   9 3.00
  11  0.627  0.949  0.411-  61 2.66  12 2.73   8 2.74  19 2.74   4 2.75   1 2.80  13 2.81  17 2.83
                            27 2.83
  12  0.871  0.707  0.413-  33 2.68  29 2.69   5 2.71  11 2.73  16 2.75   4 2.78  27 2.85   7 2.86
                             1 2.87
  13  0.376  0.200  0.415-  43 2.67  19 2.74   3 2.74  10 2.74  17 2.77   8 2.79  25 2.80  11 2.81
                             5 2.97
  14  0.370  0.702  0.407-  44 2.55  52 2.62   6 2.77  15 2.79  27 2.80  25 2.81  30 2.81  16 2.83
                             8 2.84
  15  0.620  0.456  0.412-  44 2.59  75 2.60   9 2.74  27 2.75  18 2.76  14 2.79   7 2.79  17 2.82
                            25 2.85
  16  0.117  0.704  0.410-  33 2.65  30 2.69  12 2.75   5 2.75   6 2.76   4 2.80  25 2.81  14 2.83
                             2 2.91
  17  0.621  0.204  0.410-  60 2.70   9 2.71  18 2.74  19 2.77  13 2.77   4 2.79  15 2.82  11 2.83
                            25 2.83
  18  0.536  0.372  0.310-  67 2.53  68 2.63  26 2.68  17 2.74  15 2.76  44 2.78  25 2.78  60 2.79
                            75 2.83  30 2.88  19 2.90   3 2.97
  19  0.531  0.117  0.311-  80 2.51  68 2.54  59 2.57  43 2.68  13 2.74  11 2.74  61 2.75  17 2.77
                             1 2.80   3 2.81  60 2.88  18 2.90
  20  0.557  0.109  0.059-  37 2.52  48 2.53  57 2.55  62 2.63  34 2.71  63 2.75  56 2.89  45 3.25

  21  0.093  0.426  0.123-  47 2.48  40 2.50  36 2.53  70 2.60  42 2.61  69 2.66  31 2.74  57 2.74
                            64 2.76  50 2.79
  22  0.050  0.126  0.311-  77 2.52  65 2.54  55 2.58  43 2.69  39 2.71   6 2.78  10 2.78  52 2.79
                             9 2.82   2 2.95  75 2.97  60 3.00  31 3.31
  23  0.024  0.112  0.042-  40 2.53  41 2.56  70 2.59  62 2.65  24 2.72  45 2.74  35 2.80  76 2.81
                            53 2.86
  24  0.129  0.948  0.141-  79 2.49  35 2.53  77 2.57  55 2.58  70 2.60  53 2.61  58 2.68  73 2.68
                            23 2.72  66 2.78  38 2.80  41 2.95
  25  0.366  0.454  0.412-   3 2.78  18 2.78  30 2.78  13 2.80  16 2.81  14 2.81   5 2.83  17 2.83
                            15 2.85
  26  0.446  0.559  0.220-  73 2.48  74 2.49  51 2.53  79 2.55  30 2.61  44 2.62  18 2.68  32 2.72
                            78 2.74  67 2.97  58 3.06  68 3.13  64 3.14
  27  0.620  0.700  0.413-  44 2.62  61 2.69   8 2.72  29 2.74  15 2.75   7 2.80  14 2.80  11 2.83
                            12 2.85
  28  0.950  0.757  0.209-  58 2.57  50 2.57  66 2.61  42 2.62  33 2.64   1 2.67  49 2.69  64 2.78
                             2 2.80
  29  0.795  0.615  0.315-  42 2.54  49 2.61  32 2.64  39 2.65  75 2.66  12 2.69  33 2.72   7 2.72
                            27 2.74   1 2.83  61 2.83  44 2.86
  30  0.270  0.618  0.308-  79 2.51  26 2.61  33 2.62  64 2.68  16 2.69   2 2.77  25 2.78  14 2.81
                             3 2.82  18 2.88  44 3.03  52 3.17
  31  0.189  0.266  0.225-  70 2.50  55 2.57  57 2.59  43 2.62  39 2.62  65 2.65   3 2.65  21 2.74
                            64 2.76  42 2.84  80 2.85  68 3.01  22 3.31
  32  0.693  0.549  0.221-  69 2.52  54 2.57  49 2.58  51 2.59  44 2.61  29 2.64  75 2.65  78 2.67
                            42 2.71  26 2.72  67 2.75  65 2.79  50 3.30
  33  0.032  0.626  0.314-  30 2.62  28 2.64  16 2.65  64 2.67  12 2.68   5 2.70  29 2.72  42 2.73
                             1 2.78   2 2.79  39 2.82   3 2.85
  34  0.791  0.861  0.064-  48 2.37  50 2.40  66 2.51  36 2.70  20 2.71  62 2.82  63 2.83  35 2.86

  35  0.050  0.852  0.056-  36 2.39  24 2.53  66 2.57  58 2.66  72 2.69  23 2.80  34 2.86  53 2.90
                            62 2.93
  36  0.048  0.640  0.066-  35 2.39  47 2.52  21 2.53  58 2.57  50 2.59  34 2.70  72 2.75
  37  0.628  0.231  0.134-  67 2.48  51 2.49  74 2.50  56 2.50  20 2.52  41 2.53  59 2.53  62 2.56
                            68 2.61  66 2.82
  38  0.378  0.948  0.136-  45 2.38  80 2.45  55 2.46  53 2.47  73 2.51  63 2.51  78 2.52  54 2.58
                            48 2.62  57 2.79  24 2.80  70 2.85
  39  0.029  0.377  0.320-  42 2.61   7 2.62  31 2.62   5 2.63  65 2.64  29 2.65  10 2.66  22 2.71
                             3 2.71  75 2.73  33 2.82  43 3.02
  40  0.980  0.356  0.044-  69 2.33  76 2.41  21 2.50  23 2.53  71 2.54  70 2.64  45 3.11
  41  0.864  0.208  0.134-  77 2.39  76 2.41  69 2.49  67 2.50  37 2.53  23 2.56  65 2.57  62 2.59
                            66 2.61  70 2.67  51 2.84  24 2.95
  42  0.945  0.527  0.221-  50 2.47  29 2.54  65 2.61  21 2.61  39 2.61  28 2.62  69 2.65  32 2.71
                            64 2.71  33 2.73  49 2.75  31 2.84
  43  0.298  0.107  0.320-  52 2.51  55 2.51   8 2.61  80 2.62  31 2.62  13 2.67  19 2.68  22 2.69
                            10 2.69  61 2.73   3 2.76  39 3.02
  44  0.539  0.618  0.318-  14 2.55  15 2.59  32 2.61  26 2.62  27 2.62  78 2.63  75 2.67  18 2.78
                            61 2.81  52 2.82  29 2.86  30 3.03
  45  0.273  0.099  0.052-  38 2.38  53 2.39  70 2.41  57 2.59  63 2.73  23 2.74  40 3.11  20 3.25

  46  0.533  0.620  0.050-  51 2.36  73 2.40  54 2.41  71 2.45  72 2.60  56 2.76  53 2.78  76 2.82
                            63 2.89
  47  0.277  0.422  0.059-  74 2.25  72 2.41  21 2.48  36 2.52  56 2.59  57 2.67
  48  0.621  0.927  0.141-  49 2.29  34 2.37  80 2.44  54 2.48  63 2.51  20 2.53  38 2.62  59 2.63
                            50 2.71
  49  0.703  0.775  0.220-  48 2.29  50 2.43  54 2.51   1 2.53  32 2.58  78 2.59  61 2.60  29 2.61
                            28 2.69  42 2.75  80 2.80
  50  0.841  0.670  0.130-  71 2.37  34 2.40  49 2.43  54 2.44  42 2.47  28 2.57  69 2.58  36 2.59
                            48 2.71  21 2.79  32 3.30
  51  0.611  0.461  0.131-  46 2.36  76 2.42  37 2.49  26 2.53  56 2.54  74 2.57  69 2.58  32 2.59
                            67 2.64  73 2.79  54 2.82  41 2.84
  52  0.302  0.882  0.319-  55 2.39  79 2.40  43 2.51  78 2.54   8 2.58  14 2.62  61 2.63   6 2.68
[...]
     13.705920  8.365654  1.415812            0           0           0
      5.336769  8.276025  1.238917            0           0           0
      4.135541  6.224697  1.462456            0           0           0
      8.342678  2.247154  2.954262            0           0           0
      9.566421  9.217632  2.985507            0           0           0
      2.432753  3.659480  7.032114            0           0           0
     12.999641  3.457592  0.960354            0           0           0
     10.861906  2.018596  2.948772            0           0           0
     13.562259  5.118621  4.864532            0           0           0
      3.946177  1.042567  7.044211            0           0           0
      9.515440  6.003443  7.002638            0           0           0
      3.618050  0.957810  1.137373            0           0           0
      9.467772  6.029359  1.097646            0           0           0
      5.475081  4.096778  1.292149            0           0           0
     12.171883  9.010064  3.097482            0           0           0
     12.232007  7.529814  4.849671            0           0           0
     13.201906  6.516389  2.860049            0           0           0
      9.439361  4.481434  2.881981            0           0           0
      8.334142  8.568470  7.009883            0           0           0
      8.215871  8.514745  1.046134            0           0           0
     10.797304  6.956992  2.877208            0           0           0
      2.747277  0.169566  5.016340            0           0           0
      8.012111  3.686386  0.936353            0           0           0
      5.151173  2.018111  2.939760            0           0           0
      5.820638  6.716796  3.333529            0           0           0
      8.089607  0.552716  4.820863            0           0           0
      9.495548  1.207801  6.831051            0           0           0
[...]
      6.618604  2.700720  4.854143            0           0           0
     12.004382  4.229734  2.914633            0           0           0
      2.299472  1.817449  2.960623            0           0           0
     11.897406  5.747693  1.036536            0           0           0
      6.866926  6.065809  1.237958            0           0           0
      8.327728  7.035784  2.956202            0           0           0
      6.883022  4.269237  3.037923            0           0           0
     10.931216  3.738505  6.980331            0           0           0
     10.591534  3.442881  1.027706            0           0           0
     10.977009  0.658663  4.914776            0           0           0
      9.650178  7.718098  5.007647            0           0           0
      7.130498  7.755423  5.095638            0           0           0
      5.257279  0.254918  4.921263            0           0           0
      0.885954  1.217860  9.783755     0.596952   -0.346603    0.591179
      2.545905  0.103014  9.879164    -0.312404    0.176252    0.212982

[...]

   5 f  =    6.830217 THz    42.915521 2PiTHz  227.831518 cm-1    28.247518 meV
             X         Y         Z           dx          dy          dz
     13.680171  8.469591  6.696861            0           0           0
      5.266360  8.483211  6.619338            0           0           0
      5.139636  3.528447  6.906146            0           0           0
     15.107678  9.281046  8.931779            0           0           0
      3.830663  4.497292  9.090160            0           0           0
      6.676728  9.210807  9.012490            0           0           0
     12.304631  4.392435  9.151654            0           0           0
      9.628097  9.209968  9.146356            0           0           0
     10.829597  2.031276  8.971880            0           0           0
      2.603097  2.050447  9.146700            0           0           0
     12.361787  9.223885  9.049720            0           0           0
     13.736785  6.866976  9.075607            0           0           0
      5.344308  1.939354  9.132387            0           0           0
      8.091974  6.825858  8.948376            0           0           0
      9.512945  4.427572  9.053777            0           0           0
      5.263305  6.845514  9.024277            0           0           0
      8.115843  1.983267  9.013443            0           0           0
      8.103697  3.620340  6.819027            0           0           0
      6.613950  1.133013  6.847448            0           0           0
      6.859966  1.056188  1.304516            0           0           0
      3.434902  4.140216  2.704604            0           0           0
      1.271084  1.221875  6.847562            0           0           0
      0.890964  1.085470  0.914220            0           0           0
      6.768544  9.209257  3.102482            0           0           0
      6.658595  4.410221  9.059136            0           0           0
      8.146595  5.433584  4.843710            0           0           0
     10.890750  6.804376  9.084259            0           0           0
     14.903167  7.353642  4.601981            0           0           0
     12.373883  5.975187  6.935492            0           0           0
      6.492987  6.003400  6.783126            0           0           0
      3.614299  2.583061  4.950121            0           0           0
     10.863846  5.339863  4.868867            0           0           0
      3.872940  6.081890  6.905285            0           0           0
     13.705920  8.365654  1.415812            0           0           0
      5.336769  8.276025  1.238917            0           0           0
      4.135541  6.224697  1.462456            0           0           0
      8.342678  2.247154  2.954262            0           0           0
      9.566421  9.217632  2.985507            0           0           0
      2.432753  3.659480  7.032114            0           0           0
     12.999641  3.457592  0.960354            0           0           0
     10.861906  2.018596  2.948772            0           0           0
     13.562259  5.118621  4.864532            0           0           0
      3.946177  1.042567  7.044211            0           0           0
      9.515440  6.003443  7.002638            0           0           0
      3.618050  0.957810  1.137373            0           0           0
      9.467772  6.029359  1.097646            0           0           0
      5.475081  4.096778  1.292149            0           0           0
     12.171883  9.010064  3.097482            0           0           0
     12.232007  7.529814  4.849671            0           0           0
     13.201906  6.516389  2.860049            0           0           0
      9.439361  4.481434  2.881981            0           0           0
      8.334142  8.568470  7.009883            0           0           0
      8.215871  8.514745  1.046134            0           0           0
     10.797304  6.956992  2.877208            0           0           0
      2.747277  0.169566  5.016340            0           0           0
      8.012111  3.686386  0.936353            0           0           0
      5.151173  2.018111  2.939760            0           0           0
      5.820638  6.716796  3.333529            0           0           0
      8.089607  0.552716  4.820863            0           0           0
      9.495548  1.207801  6.831051            0           0           0
[...]
      6.618604  2.700720  4.854143            0           0           0
     12.004382  4.229734  2.914633            0           0           0
      2.299472  1.817449  2.960623            0           0           0
     11.897406  5.747693  1.036536            0           0           0
      6.866926  6.065809  1.237958            0           0           0
      8.327728  7.035784  2.956202            0           0           0
      6.883022  4.269237  3.037923            0           0           0
     10.931216  3.738505  6.980331            0           0           0
     10.591534  3.442881  1.027706            0           0           0
     10.977009  0.658663  4.914776            0           0           0
      9.650178  7.718098  5.007647            0           0           0
      7.130498  7.755423  5.095638            0           0           0
      5.257279  0.254918  4.921263            0           0           0
      0.885954  1.217860  9.783755    -0.376983   -0.566950    0.085126
      2.545905  0.103014  9.879164    -0.150156   -0.672305    0.233804

   6 f/i=    3.085451 THz    19.386460 2PiTHz  102.919559 cm-1    12.760404 meV
             X         Y         Z           dx          dy          dz
     13.680171  8.469591  6.696861            0           0           0
      5.266360  8.483211  6.619338            0           0           0
      5.139636  3.528447  6.906146            0           0           0
     15.107678  9.281046  8.931779            0           0           0
      3.830663  4.497292  9.090160            0           0           0
      6.676728  9.210807  9.012490            0           0           0
     12.304631  4.392435  9.151654            0           0           0
      9.628097  9.209968  9.146356            0           0           0
     10.829597  2.031276  8.971880            0           0           0
      2.603097  2.050447  9.146700            0           0           0
     12.361787  9.223885  9.049720            0           0           0
     13.736785  6.866976  9.075607            0           0           0
      5.344308  1.939354  9.132387            0           0           0
      8.091974  6.825858  8.948376            0           0           0
      9.512945  4.427572  9.053777            0           0           0
      5.263305  6.845514  9.024277            0           0           0
      8.115843  1.983267  9.013443            0           0           0
      8.103697  3.620340  6.819027            0           0           0
      6.613950  1.133013  6.847448            0           0           0
      6.859966  1.056188  1.304516            0           0           0
      3.434902  4.140216  2.704604            0           0           0
      1.271084  1.221875  6.847562            0           0           0
      0.890964  1.085470  0.914220            0           0           0
      6.768544  9.209257  3.102482            0           0           0
      6.658595  4.410221  9.059136            0           0           0
      8.146595  5.433584  4.843710            0           0           0
     10.890750  6.804376  9.084259            0           0           0
     14.903167  7.353642  4.601981            0           0           0
     12.373883  5.975187  6.935492            0           0           0
      6.492987  6.003400  6.783126            0           0           0
      3.614299  2.583061  4.950121            0           0           0
     10.863846  5.339863  4.868867            0           0           0
      3.872940  6.081890  6.905285            0           0           0
     13.705920  8.365654  1.415812            0           0           0
      5.336769  8.276025  1.238917            0           0           0
      4.135541  6.224697  1.462456            0           0           0
      8.342678  2.247154  2.954262            0           0           0
      9.566421  9.217632  2.985507            0           0           0
      2.432753  3.659480  7.032114            0           0           0
     12.999641  3.457592  0.960354            0           0           0
     10.861906  2.018596  2.948772            0           0           0
     13.562259  5.118621  4.864532            0           0           0
      3.946177  1.042567  7.044211            0           0           0
      9.515440  6.003443  7.002638            0           0           0
      3.618050  0.957810  1.137373            0           0           0
      9.467772  6.029359  1.097646            0           0           0
      5.475081  4.096778  1.292149            0           0           0
     12.171883  9.010064  3.097482            0           0           0
     12.232007  7.529814  4.849671            0           0           0
     13.201906  6.516389  2.860049            0           0           0
      9.439361  4.481434  2.881981            0           0           0
      8.334142  8.568470  7.009883            0           0           0
      8.215871  8.514745  1.046134            0           0           0
     10.797304  6.956992  2.877208            0           0           0
      2.747277  0.169566  5.016340            0           0           0
      8.012111  3.686386  0.936353            0           0           0
      5.151173  2.018111  2.939760            0           0           0
      5.820638  6.716796  3.333529            0           0           0
      8.089607  0.552716  4.820863            0           0           0
      9.495548  1.207801  6.831051            0           0           0
[...]
      6.618604  2.700720  4.854143            0           0           0
     12.004382  4.229734  2.914633            0           0           0
      2.299472  1.817449  2.960623            0           0           0
     11.897406  5.747693  1.036536            0           0           0
      6.866926  6.065809  1.237958            0           0           0
      8.327728  7.035784  2.956202            0           0           0
      6.883022  4.269237  3.037923            0           0           0
     10.931216  3.738505  6.980331            0           0           0
     10.591534  3.442881  1.027706            0           0           0
     10.977009  0.658663  4.914776            0           0           0
      9.650178  7.718098  5.007647            0           0           0
      7.130498  7.755423  5.095638            0           0           0
      5.257279  0.254918  4.921263            0           0           0
      0.885954  1.217860  9.783755     0.517733    0.492849   -0.183615
      2.545905  0.103014  9.879164    -0.105539   -0.627367    0.224967

 Finite differences POTIM=  1.500000000000000E-002
  LATTYP: Found a hexagonal cell.
 ALAT       =    11.2227001190
 C/A-ratio  =     1.9603125600

  Lattice vectors:

 A1 = (   5.6113500595,  -9.7191434021,   0.0000000000)
 A2 = ( -11.2227001190,   0.0000000000,   0.0000000000)
 A3 = (   0.0000000000,   0.0000000000, -22.0000000000)

Analysis of symmetry for initial positions (statically):
 Subroutine PRICEL returns:
 Original cell was already a primitive cell.

[...]

The static configuration has the point symmetry C_1 .

Analysis of symmetry for dynamics (positions and initial velocities):
 Subroutine PRICEL returns:
 Original cell was already a primitive cell.

[...]

The dynamic configuration has the point symmetry C_1 .

Analysis of constrained symmetry for selective dynamics:
 Subroutine PRICEL returns:
 Original cell was already a primitive cell.

[...]

The constrained configuration has the point symmetry C_1 .

Analysis of structural, dynamic, and magnetic symmetry:
 Subroutine PRICEL returns:
 Original cell was already a primitive cell.

 Routine SETGRP: Setting up the symmetry group for a
 hexagonal supercell.

 Subroutine GETGRP returns: Found  1 space group operations
 (whereof  1 operations were pure point group operations)
 out of a pool of 24 trial point group operations.

The magnetic configuration has the point symmetry C_1 .

 Subroutine INISYM returns: Found  1 space group operations
 (whereof  1 operations are pure point group operations),
 and found     1 'primitive' translations

 KPOINTS: mesh auto

Automatic generation of k-mesh.
Space group operators:
 irot       det(A)        alpha          n_x          n_y          n_z        tau_x        tau_y        tau_z
    1     1.000000     0.000000     1.000000     0.000000     0.000000     0.000000     0.000000     0.000000

 Subroutine IBZKPT returns following result:

 Found      4 irreducible k-points:

 Following reciprocal coordinates:
            Coordinates               Weight
  0.000000  0.000000  0.000000      1.000000
  0.500000  0.000000  0.000000      1.000000
  0.000000  0.500000  0.000000      1.000000
  0.500000  0.500000  0.000000      1.000000

 Following cartesian coordinates:
            Coordinates               Weight
  0.000000  0.000000  0.000000      1.000000
  0.044553 -0.025722  0.000000      1.000000
  0.000000  0.051445  0.000000      1.000000
  0.044553  0.025722  0.000000      1.000000

 TETIRR: Found     12 inequivalent tetrahedra from       24
 BZINTS: Fermi energy:  1.315030;779.000000 electrons
         Band energy:***********;  BLOECHL correction: -0.205121