 vasp.5.4.4.18Apr17-6-g9f103f2a35 (build Oct 25 2019 11:13:22) complex

 executed on             LinuxIFC date 2021.11.02  16:59:02

 INCAR:
 POTCAR:    PAW_PBE Pt 04Feb2005
 POTCAR:    PAW_PBE Fe 06Sep2000
 POTCAR:    PAW_PBE Co 02Aug2007
 POTCAR:    PAW_PBE Cu 22Jun2005
 POTCAR:    PAW_PBE Ni 02Aug2007
 POTCAR:    PAW_PBE H 15Jun2001

 POTCAR:    PAW_PBE Pt 04Feb2005
   VRHFIN =Pt: s1d9

   TITEL  = PAW_PBE Pt 04Feb2005
   POMASS =  195.080; ZVAL   =   10.000    mass and valenz
   ENMAX  =  230.283; ENMIN  =  172.712 eV

 POTCAR:    PAW_PBE Fe 06Sep2000
   VRHFIN =Fe:  d7 s1

   TITEL  = PAW_PBE Fe 06Sep2000
   POMASS =   55.847; ZVAL   =    8.000    mass and valenz
   ENMAX  =  267.882; ENMIN  =  200.911 eV

 POTCAR:    PAW_PBE Co 02Aug2007
   VRHFIN =Co: d8 s1

   TITEL  = PAW_PBE Co 02Aug2007
   POMASS =   58.933; ZVAL   =    9.000    mass and valenz
   ENMAX  =  267.968; ENMIN  =  200.976 eV

 POTCAR:    PAW_PBE Cu 22Jun2005
   VRHFIN =Cu: d10 p1

   TITEL  = PAW_PBE Cu 22Jun2005
   POMASS =   63.546; ZVAL   =   11.000    mass and valenz
   ENMAX  =  295.446; ENMIN  =  221.585 eV

 POTCAR:    PAW_PBE Ni 02Aug2007
   VRHFIN =Ni:

   TITEL  = PAW_PBE Ni 02Aug2007
   POMASS =   58.690; ZVAL   =   10.000    mass and valenz
   ENMAX  =  269.532; ENMIN  =  202.149 eV

 POTCAR:    PAW_PBE H 15Jun2001
   VRHFIN =H: ultrasoft test

   TITEL  = PAW_PBE H 15Jun2001
   POMASS =    1.000; ZVAL   =    1.000    mass and valenz
   ENMAX  =  250.000; ENMIN  =  200.000 eV

 Optimization of the real space projectors (new method)

 maximal supplied QI-value         = 14.36
 optimisation between [QCUT,QGAM] = [ 11.92, 23.98] = [ 39.79,161.09] Ry
 Optimized for a Real-space Cutoff    1.49 Angstroem

   l    n(q)    QCUT    max X(q) W(low)/X(q) W(high)/X(q)  e(spline)
   2     10    11.920    66.195    0.79E-04    0.18E-03    0.24E-06
   2     10    11.920    64.643    0.81E-04    0.19E-03    0.24E-06
   0     11    11.920    95.520    0.28E-04    0.54E-04    0.18E-06
   0     11    11.920    63.403    0.27E-04    0.52E-04    0.17E-06
   1     10    11.920    19.961    0.18E-04    0.11E-03    0.23E-06
   1     10    11.920    13.289    0.25E-04    0.87E-04    0.19E-06
 Optimization of the real space projectors (new method)

[...]

   l    n(q)    QCUT    max X(q) W(low)/X(q) W(high)/X(q)  e(spline)
   2      9    11.864    60.317    0.21E-03    0.51E-03    0.25E-06
   2      9    11.864    55.921    0.21E-03    0.51E-03    0.26E-06
   0      9    11.864    51.690    0.22E-03    0.30E-04    0.17E-06
   0      9    11.864    30.015    0.20E-03    0.28E-04    0.15E-06
   1      9    11.864    18.849    0.76E-04    0.33E-03    0.17E-06
   1      9    11.864    14.624    0.60E-04    0.28E-03    0.15E-06
 Optimization of the real space projectors (new method)

 maximal supplied QI-value         = 34.20
 optimisation between [QCUT,QGAM] = [ 11.97, 23.94] = [ 40.13,160.53] Ry
 Optimized for a Real-space Cutoff    1.18 Angstroem

   l    n(q)    QCUT    max X(q) W(low)/X(q) W(high)/X(q)  e(spline)
   0      8    11.971    19.460    0.15E-03    0.31E-03    0.25E-06
   0      8    11.971    12.209    0.13E-03    0.29E-03    0.25E-06
   1      8    11.971     4.655    0.22E-03    0.24E-03    0.21E-06
  PAW_PBE Pt 04Feb2005                  :
  PAW_PBE Fe 06Sep2000                  :
  PAW_PBE Co 02Aug2007                  :
  PAW_PBE Cu 22Jun2005                  :
  PAW_PBE Ni 02Aug2007                  :
  PAW_PBE H 15Jun2001                   :

 POSCAR: 10.56
  positions in cartesian coordinates
 exchange correlation table for  LEXCH =        8
   RHO(1)=    0.500       N(1)  =     2000
   RHO(2)=  100.500       N(2)  =     4000

 ion  position               nearest neighbor table
   1  0.787  0.879  0.318-  19 2.62  49 2.63  28 2.63  61 2.65  33 2.65  59 2.66  29 2.67  60 2.67
                             2 2.71  11 2.83  12 2.84   4 2.88
   2  0.041  0.883  0.316-  79 2.56  77 2.60  60 2.62  30 2.65  28 2.65  52 2.67  33 2.67  22 2.69
                             1 2.71   6 2.75   4 2.87  16 2.89
   3  0.279  0.381  0.320-  39 2.56  64 2.57  33 2.58  31 2.63  30 2.71  19 2.71  43 2.71  68 2.72
                            13 2.78   5 2.80  18 2.81  25 2.86
   4  0.878  0.961  0.428-  81 1.83   6 2.62  16 2.63   9 2.65  12 2.67  17 2.68  11 2.70   2 2.87
                            60 2.87   1 2.88
   5  0.122  0.462  0.429-  12 2.61   7 2.63  16 2.64  10 2.64  13 2.65  25 2.66  39 2.74  33 2.75
                             3 2.80
   6  0.125  0.961  0.421-   4 2.62   8 2.63  14 2.64  10 2.64   9 2.64  16 2.65   2 2.75  52 2.77
                            22 2.86
   7  0.874  0.460  0.427-  15 2.62   9 2.62   5 2.63  12 2.63  10 2.64  27 2.65  39 2.69  75 2.78
                            29 2.81
   8  0.374  0.960  0.420-  43 2.60  14 2.61  11 2.62   6 2.63  27 2.63  13 2.63  10 2.64  52 2.69
                            61 2.72
   9  0.875  0.212  0.420-   7 2.62  15 2.64  10 2.64   6 2.64   4 2.65  17 2.65  75 2.67  60 2.71
                            22 2.79
  10  0.125  0.211  0.423-  13 2.61   9 2.64   5 2.64   8 2.64   6 2.64   7 2.64  39 2.67  43 2.73
                            22 2.78
  11  0.622  0.959  0.427-  81 1.87  27 2.62   8 2.62  13 2.65  12 2.66  17 2.69   4 2.70   1 2.83
                            61 2.88  19 2.89
  12  0.875  0.709  0.426-   5 2.61   7 2.63  16 2.64  27 2.65  11 2.66   4 2.67  33 2.68  29 2.81
                             1 2.84
  13  0.372  0.210  0.424-  10 2.61   8 2.63  11 2.65   5 2.65  25 2.66  17 2.67  43 2.75   3 2.78
                            19 2.82
  14  0.376  0.712  0.424-  27 2.61   8 2.61   6 2.64  15 2.64  25 2.65  16 2.66  44 2.70  30 2.76
                            52 2.76
  15  0.626  0.462  0.422-   7 2.62  27 2.62  17 2.63   9 2.64  14 2.64  25 2.66  44 2.70  75 2.72
                            18 2.75
  16  0.125  0.710  0.426-  25 2.63   4 2.63   5 2.64  12 2.64   6 2.65  14 2.66  33 2.68  30 2.82
                             2 2.89
  17  0.623  0.214  0.424-  81 1.87  25 2.63  15 2.63   9 2.65  13 2.67   4 2.68  11 2.69  18 2.77
                            60 2.81  19 2.89
  18  0.548  0.376  0.317-  67 2.57  60 2.59  75 2.60  44 2.65  68 2.66  26 2.67  30 2.70  19 2.72
                            15 2.75  17 2.77   3 2.81  25 2.89
  19  0.535  0.124  0.315-  80 2.56  43 2.57  68 2.58  59 2.61   1 2.62  61 2.63   3 2.71  18 2.72
                            60 2.74  13 2.82  11 2.89  17 2.89
  20  0.547  0.124  0.040-  37 2.55  57 2.56  48 2.58  62 2.64  63 2.68  47 2.68  45 2.68  56 2.70
                            34 2.71
  21  0.121  0.460  0.128-  40 2.52  36 2.53  47 2.53  42 2.60  69 2.61  64 2.62  70 2.64  50 2.64
                            58 2.67  31 2.70  57 2.71  74 2.72
  22  0.043  0.137  0.314-  65 2.51  55 2.53  77 2.57  39 2.58  43 2.58  75 2.60   2 2.69  60 2.69
                            52 2.72  10 2.78   9 2.79   6 2.86  31 3.39
  23  0.042  0.130  0.033-  70 2.58  40 2.60  41 2.61  45 2.62  62 2.64  76 2.64  24 2.69  35 2.73
                            53 2.78
  24  0.130  0.958  0.132-  79 2.51  77 2.54  35 2.57  53 2.57  55 2.58  70 2.62  38 2.64  58 2.64
                            73 2.65  23 2.69  66 2.70  41 2.72
  25  0.374  0.462  0.427-  16 2.63  17 2.63  14 2.65   5 2.66  15 2.66  13 2.66  30 2.85   3 2.86
                            18 2.89
  26  0.455  0.546  0.219-  73 2.50  74 2.54  51 2.56  79 2.61  64 2.63  30 2.65  68 2.67  18 2.67
                            78 2.67  32 2.68  67 2.72  44 2.75
  27  0.623  0.711  0.424-  14 2.61  15 2.62  11 2.62   8 2.63  12 2.65   7 2.65  44 2.69  61 2.77
                            29 2.79
  28  0.956  0.790  0.221-  58 2.57  66 2.57  50 2.58  42 2.59  49 2.61  64 2.63   1 2.63   2 2.65
                            59 2.70  33 2.72  79 2.76  77 2.77
  29  0.794  0.622  0.319-  39 2.54  42 2.55  75 2.58  32 2.61  44 2.64  33 2.65   1 2.67  61 2.68
                            49 2.68  27 2.79   7 2.81  12 2.81
  30  0.292  0.631  0.318-  79 2.57  64 2.61  52 2.61  44 2.62  26 2.65   2 2.65  33 2.66  18 2.70
                             3 2.71  14 2.76  16 2.82  25 2.85
  31  0.203  0.281  0.225-  70 2.52  55 2.56  65 2.57  43 2.59  57 2.60   3 2.63  39 2.67  80 2.70
                            21 2.70  42 2.71  68 2.75  64 2.79  22 3.39
  32  0.706  0.549  0.221-  54 2.53  69 2.56  51 2.58  49 2.59  42 2.60  29 2.61  78 2.62  65 2.63
                            26 2.68  75 2.69  44 2.69  67 2.70
  33  0.040  0.631  0.326-   3 2.58  39 2.64  29 2.65   1 2.65  30 2.66   2 2.67  16 2.68  12 2.68
                            64 2.70  28 2.72  42 2.73   5 2.75
  34  0.797  0.862  0.042-  50 2.38  66 2.51  48 2.53  36 2.55  71 2.56  63 2.61  20 2.71  35 2.76
                            62 2.76
  35  0.056  0.866  0.038-  58 2.54  72 2.55  36 2.56  24 2.57  66 2.62  53 2.65  23 2.73  62 2.73
                            34 2.76
  36  0.046  0.628  0.037-  21 2.53  34 2.55  35 2.56  58 2.58  50 2.61  47 2.63  72 2.64  40 2.69
                            71 2.72
  37  0.627  0.222  0.129-  51 2.51  74 2.51  67 2.52  56 2.53  41 2.55  20 2.55  68 2.56  59 2.56
                            62 2.59  66 2.66  57 2.73  48 2.89
  38  0.382  0.955  0.130-  53 2.47  80 2.48  45 2.49  78 2.53  48 2.54  73 2.55  63 2.55  54 2.56
                            55 2.59  57 2.62  24 2.64  70 2.67
  39  0.036  0.383  0.325-  29 2.54   3 2.56  22 2.58  75 2.59  33 2.64  10 2.67  42 2.67  31 2.67
                             7 2.69   5 2.74  65 2.76  43 2.79
  40  0.031  0.382  0.038-  69 2.44  21 2.52  71 2.53  76 2.56  70 2.57  23 2.60  36 2.69  45 2.78
                            47 2.78
  41  0.872  0.215  0.128-  76 2.45  65 2.52  77 2.53  67 2.54  37 2.55  69 2.57  62 2.57  51 2.59
                            23 2.61  70 2.65  66 2.66  24 2.72
  42  0.955  0.545  0.224-  29 2.55  50 2.56  28 2.59  21 2.60  32 2.60  69 2.61  49 2.63  65 2.64
                            64 2.65  39 2.67  31 2.71  33 2.73
  43  0.297  0.116  0.321-  55 2.53  52 2.53  61 2.56  19 2.57  22 2.58  31 2.59   8 2.60  80 2.65
                             3 2.71  10 2.73  13 2.75  39 2.79
  44  0.540  0.630  0.322-  61 2.56  52 2.58  30 2.62  78 2.63  29 2.64  18 2.65  75 2.66  32 2.69
                            27 2.69  15 2.70  14 2.70  26 2.75
  45  0.295  0.119  0.039-  70 2.49  38 2.49  57 2.57  53 2.60  23 2.62  63 2.64  20 2.68  47 2.75
                            40 2.78
  46  0.548  0.625  0.044-  51 2.38  73 2.39  54 2.41  71 2.56  53 2.56  63 2.58  76 2.59  56 2.62
                            72 2.64
  47  0.296  0.379  0.039-  74 2.41  21 2.53  57 2.61  72 2.61  56 2.62  36 2.63  20 2.68  45 2.75
                            40 2.78
  48  0.625  0.950  0.132-  49 2.40  80 2.48  54 2.48  34 2.53  38 2.54  59 2.55  50 2.56  63 2.57
                            20 2.58  57 2.65  66 2.68  37 2.89
  49  0.706  0.794  0.220-  48 2.40  50 2.48  54 2.49  80 2.53  32 2.59  28 2.61  78 2.61  42 2.63
                             1 2.63  61 2.63  29 2.68  59 2.69
  50  0.866  0.706  0.129-  34 2.38  71 2.42  54 2.48  49 2.48  42 2.56  48 2.56  69 2.58  28 2.58
                            36 2.61  21 2.64  66 2.76  58 2.85
[...]
     12.86756      6.45280      2.83379         0.029332      0.009237     -0.013606
      9.04201      4.20780      2.79628         0.011016      0.023535      0.015955
      7.76360      8.00896      6.99521         0.020077      0.003406      0.007071
      7.81315      7.93922      0.88653        -0.027422     -0.007508      0.002393
     10.39144      6.53566      2.82198         0.021811     -0.008588      0.024943
      2.51347      0.25826      5.00083         0.012189     -0.006667     -0.043050
      7.74264      3.48454      0.76157        -0.004277     -0.007883      0.009189
      5.07835      1.87760      2.91701        -0.008139     -0.016079     -0.012660
      5.16037      6.44715      2.89923        -0.024248     -0.003146      0.003266
      7.70892      0.45986      4.84799         0.012803      0.004432      0.037421
      9.04696      1.18422      6.98698        -0.002017     -0.004889     -0.016476
[...]
      9.07350      2.65252      4.91360        -0.006218     -0.026758      0.016197
      6.37169      2.66558      4.85827        -0.007364      0.003968      0.038437
     11.65891      4.17486      2.81483        -0.017949      0.002098     -0.019580
      2.44098      1.89237      2.83279         0.013070      0.018933      0.006599
     11.64953      5.68621      0.88546         0.019383      0.032141     -0.008578
      6.44743      5.71949      0.92597        -0.005346      0.025293     -0.001097
      7.82927      6.50651      2.83621         0.006108     -0.011391     -0.017407
      6.41922      4.13007      2.78290        -0.012300     -0.018359     -0.016507
     10.37228      3.46474      7.04378        -0.001411      0.023669      0.010872
     10.34410      3.45013      0.86804         0.004865     -0.018079     -0.019919
     10.37063      0.48410      4.87151        -0.024483     -0.020123      0.031726
      9.04079      7.29017      4.93700        -0.002319     -0.031478      0.007932
      6.46265      7.29503      4.94074         0.035336      0.031493     -0.006847
      5.04247      0.27633      4.88406        -0.003942      0.018109      0.062478
      7.73093      0.42422     10.38142         0.012617     -0.035685      0.120823
    total drift:                                0.021875     -0.023202     -0.015611

  FREE ENERGIE OF THE ION-ELECTRON SYSTEM (eV)
  free  energy   TOTEN  =      -511.16807597 eV

  energy  without entropy=     -511.16807597  energy(sigma->0) =     -511.16807597

 d Force =-0.1161689E-02[-0.362E-02, 0.130E-02]  d Energy = 0.3655046E-03-0.153E-02
 d Force =-0.1053108E+02[-0.105E+02,-0.105E+02]  d Ewald  =-0.1053133E+02 0.244E-03

 Finite differences progress:
  Degree of freedom:   3/  3
  Displacement:        2/  2
  Total:               6/  6

 SECOND DERIVATIVES (NOT SYMMETRIZED)
              81X         81Y         81Z
 81X    -1.171606    0.112952    0.450069
 81Y     0.076881   -0.963837   -0.178104
 81Z     0.444746   -0.160080   -5.473344

 Eigenvectors and eigenvalues of the dynamical matrix

   1 f  =   36.750981 THz   230.913222 2PiTHz 1225.880727 cm-1   151.989894 meV
             X         Y         Z           dx          dy          dz
     12.949638  8.039213  6.996884            0           0           0
      5.095541  8.075870  6.958101            0           0           0
      4.959546  3.485661  7.030616            0           0           0
     14.339747  8.784916  9.408545            0           0           0
      3.728852  4.224730  9.435158            0           0           0
      6.394778  8.789544  9.271892            0           0           0
     11.659760  4.205848  9.397128            0           0           0
      9.021301  8.780627  9.244032            0           0           0
     10.359588  1.937629  9.238727            0           0           0
      2.436258  1.929012  9.296638            0           0           0
     11.638881  8.774413  9.398413            0           0           0
     12.982495  6.481416  9.371722            0           0           0
      5.043219  1.923874  9.329832            0           0           0
      7.726036  6.511733  9.317890            0           0           0
      9.043230  4.222138  9.291265            0           0           0
      5.067115  6.494246  9.381294            0           0           0
      7.712667  1.956681  9.332373            0           0           0
      7.768172  3.435360  6.984850            0           0           0
      6.308133  1.136554  6.938691            0           0           0
      6.428579  1.129740  0.878720            0           0           0
      3.705484  4.208436  2.816869            0           0           0
      1.176218  1.250235  6.908361            0           0           0
      1.135691  1.190800  0.725566            0           0           0
      6.436066  8.760995  2.900314            0           0           0
      6.386766  4.224359  9.392016            0           0           0
      7.681351  4.990728  4.814740            0           0           0
     10.332919  6.502865  9.319544            0           0           0
     14.264242  7.225928  4.862987            0           0           0
     11.674539  5.690993  7.016114            0           0           0
      6.411809  5.773182  7.004875            0           0           0
      3.621194  2.565893  4.960228            0           0           0
     10.360912  5.024302  4.856517            0           0           0
      3.758641  5.770771  7.162918            0           0           0
     12.969068  7.879772  0.925674            0           0           0
      5.163396  7.917194  0.830298            0           0           0
      3.807011  5.745024  0.813805            0           0           0
      7.798522  2.032451  2.832513            0           0           0
      9.077547  8.733730  2.857427            0           0           0
      2.402340  3.505757  7.145370            0           0           0
      2.344093  3.490514  0.825101            0           0           0
     10.348141  1.969830  2.822490            0           0           0
     12.960353  4.985870  4.925592            0           0           0
      3.746133  1.060095  7.063824            0           0           0
      9.033686  5.761962  7.078540            0           0           0
      3.748243  1.091821  0.867003            0           0           0
      9.091210  5.718673  0.960427            0           0           0
      5.124479  3.470454  0.855627            0           0           0
     11.620923  8.687580  2.905895            0           0           0
     11.653130  7.264496  4.842290            0           0           0
     12.867560  6.452796  2.833790            0           0           0
      9.042010  4.207796  2.796278            0           0           0
      7.763604  8.008961  6.995214            0           0           0
      7.813155  7.939223  0.886525            0           0           0
     10.391439  6.535663  2.821980            0           0           0
      2.513474  0.258257  5.000827            0           0           0
      7.742638  3.484538  0.761574            0           0           0
      5.078354  1.877603  2.917008            0           0           0
      5.160365  6.447147  2.899226            0           0           0
      7.708921  0.459858  4.847993            0           0           0
      9.046959  1.184223  6.986979            0           0           0
[...]
      9.073503  2.652522  4.913605            0           0           0
      6.371693  2.665576  4.858272            0           0           0
     11.658911  4.174860  2.814827            0           0           0
      2.440982  1.892366  2.832794            0           0           0
     11.649530  5.686214  0.885461            0           0           0
      6.447433  5.719494  0.925972            0           0           0
      7.829267  6.506514  2.836212            0           0           0
      6.419224  4.130068  2.782896            0           0           0
     10.372282  3.464735  7.043781            0           0           0
     10.344097  3.450125  0.868038            0           0           0
     10.370626  0.484098  4.871515            0           0           0
      9.040790  7.290173  4.936995            0           0           0
      6.462653  7.295032  4.940739            0           0           0
      5.042471  0.276335  4.884059            0           0           0
      7.730934  0.424219 10.396420    -0.102966    0.038978    0.993921

[...]

   3 f  =   15.051877 THz    94.573733 2PiTHz  502.076560 cm-1    62.249582 meV
             X         Y         Z           dx          dy          dz
     12.949638  8.039213  6.996884            0           0           0
      5.095541  8.075870  6.958101            0           0           0
      4.959546  3.485661  7.030616            0           0           0
     14.339747  8.784916  9.408545            0           0           0
      3.728852  4.224730  9.435158            0           0           0
      6.394778  8.789544  9.271892            0           0           0
     11.659760  4.205848  9.397128            0           0           0
      9.021301  8.780627  9.244032            0           0           0
     10.359588  1.937629  9.238727            0           0           0
      2.436258  1.929012  9.296638            0           0           0
     11.638881  8.774413  9.398413            0           0           0
     12.982495  6.481416  9.371722            0           0           0
      5.043219  1.923874  9.329832            0           0           0
      7.726036  6.511733  9.317890            0           0           0
      9.043230  4.222138  9.291265            0           0           0
      5.067115  6.494246  9.381294            0           0           0
      7.712667  1.956681  9.332373            0           0           0
      7.768172  3.435360  6.984850            0           0           0
      6.308133  1.136554  6.938691            0           0           0
      6.428579  1.129740  0.878720            0           0           0
      3.705484  4.208436  2.816869            0           0           0
      1.176218  1.250235  6.908361            0           0           0
      1.135691  1.190800  0.725566            0           0           0
      6.436066  8.760995  2.900314            0           0           0
      6.386766  4.224359  9.392016            0           0           0
      7.681351  4.990728  4.814740            0           0           0
     10.332919  6.502865  9.319544            0           0           0
     14.264242  7.225928  4.862987            0           0           0
     11.674539  5.690993  7.016114            0           0           0
      6.411809  5.773182  7.004875            0           0           0
      3.621194  2.565893  4.960228            0           0           0
     10.360912  5.024302  4.856517            0           0           0
      3.758641  5.770771  7.162918            0           0           0
     12.969068  7.879772  0.925674            0           0           0
      5.163396  7.917194  0.830298            0           0           0
      3.807011  5.745024  0.813805            0           0           0
      7.798522  2.032451  2.832513            0           0           0
      9.077547  8.733730  2.857427            0           0           0
      2.402340  3.505757  7.145370            0           0           0
      2.344093  3.490514  0.825101            0           0           0
     10.348141  1.969830  2.822490            0           0           0
     12.960353  4.985870  4.925592            0           0           0
      3.746133  1.060095  7.063824            0           0           0
      9.033686  5.761962  7.078540            0           0           0
      3.748243  1.091821  0.867003            0           0           0
      9.091210  5.718673  0.960427            0           0           0
      5.124479  3.470454  0.855627            0           0           0
     11.620923  8.687580  2.905895            0           0           0
     11.653130  7.264496  4.842290            0           0           0
     12.867560  6.452796  2.833790            0           0           0
      9.042010  4.207796  2.796278            0           0           0
      7.763604  8.008961  6.995214            0           0           0
      7.813155  7.939223  0.886525            0           0           0
     10.391439  6.535663  2.821980            0           0           0
      2.513474  0.258257  5.000827            0           0           0
      7.742638  3.484538  0.761574            0           0           0
      5.078354  1.877603  2.917008            0           0           0
      5.160365  6.447147  2.899226            0           0           0
      7.708921  0.459858  4.847993            0           0           0
      9.046959  1.184223  6.986979            0           0           0
[...]
      9.073503  2.652522  4.913605            0           0           0
      6.371693  2.665576  4.858272            0           0           0
     11.658911  4.174860  2.814827            0           0           0
      2.440982  1.892366  2.832794            0           0           0
     11.649530  5.686214  0.885461            0           0           0
      6.447433  5.719494  0.925972            0           0           0
      7.829267  6.506514  2.836212            0           0           0
      6.419224  4.130068  2.782896            0           0           0
     10.372282  3.464735  7.043781            0           0           0
     10.344097  3.450125  0.868038            0           0           0
     10.370626  0.484098  4.871515            0           0           0
      9.040790  7.290173  4.936995            0           0           0
      6.462653  7.295032  4.940739            0           0           0
      5.042471  0.276335  4.884059            0           0           0
      7.730934  0.424219 10.396420     0.363552    0.931573    0.001129

 Finite differences POTIM=  1.500000000000000E-002
  LATTYP: Found a hexagonal cell.
 ALAT       =    10.5600004196
 C/A-ratio  =     2.0833332505

  Lattice vectors:

 A1 = (   5.2800002098,  -9.1452286274,   0.0000000000)
 A2 = ( -10.5600004196,   0.0000000000,   0.0000000000)
 A3 = (   0.0000000000,   0.0000000000, -22.0000000000)

Analysis of symmetry for initial positions (statically):
 Subroutine PRICEL returns:
 Original cell was already a primitive cell.

[...]

The static configuration has the point symmetry C_1 .

Analysis of symmetry for dynamics (positions and initial velocities):
 Subroutine PRICEL returns:
 Original cell was already a primitive cell.

[...]

The dynamic configuration has the point symmetry C_1 .

Analysis of constrained symmetry for selective dynamics:
 Subroutine PRICEL returns:
 Original cell was already a primitive cell.

[...]

The constrained configuration has the point symmetry C_1 .

Analysis of structural, dynamic, and magnetic symmetry:
 Subroutine PRICEL returns:
 Original cell was already a primitive cell.

 Routine SETGRP: Setting up the symmetry group for a
 hexagonal supercell.

 Subroutine GETGRP returns: Found  1 space group operations
 (whereof  1 operations were pure point group operations)
 out of a pool of 24 trial point group operations.

The magnetic configuration has the point symmetry C_1 .

 Subroutine INISYM returns: Found  1 space group operations
 (whereof  1 operations are pure point group operations),
 and found     1 'primitive' translations

 KPOINTS: mesh auto

Automatic generation of k-mesh.
Space group operators:
 irot       det(A)        alpha          n_x          n_y          n_z        tau_x        tau_y        tau_z
    1     1.000000     0.000001     1.000000     0.000000     0.000000     0.000000     0.000000     0.000000

 Subroutine IBZKPT returns following result:

 Found      4 irreducible k-points:

 Following reciprocal coordinates:
            Coordinates               Weight
  0.000000  0.000000  0.000000      1.000000
  0.500000  0.000000  0.000000      1.000000
  0.000000  0.500000  0.000000      1.000000
  0.500000  0.500000  0.000000      1.000000

 Following cartesian coordinates:
            Coordinates               Weight
  0.000000  0.000000  0.000000      1.000000
  0.047348 -0.027337  0.000000      1.000000
  0.000000  0.054673  0.000000      1.000000
  0.047348  0.027337  0.000000      1.000000

 TETIRR: Found     12 inequivalent tetrahedra from       24
 BZINTS: Fermi energy:  2.056855;778.000000 electrons
         Band energy:-679.159244;  BLOECHL correction: -0.287349