 vasp.5.4.4.18Apr17-6-g9f103f2a35 (build Nov 30 2020 22:55:02) complex

 executed on             LinuxIFC date 2022.09.16  22:04:00

 INCAR:
 POTCAR:    PAW_PBE Pt 04Feb2005
 POTCAR:    PAW_PBE Fe 06Sep2000
 POTCAR:    PAW_PBE Co 02Aug2007
 POTCAR:    PAW_PBE Cu 22Jun2005
 POTCAR:    PAW_PBE Ni 02Aug2007
 POTCAR:    PAW_PBE O 08Apr2002

 POTCAR:    PAW_PBE Pt 04Feb2005
   VRHFIN =Pt: s1d9

   TITEL  = PAW_PBE Pt 04Feb2005
   POMASS =  195.080; ZVAL   =   10.000    mass and valenz
   ENMAX  =  230.283; ENMIN  =  172.712 eV

 POTCAR:    PAW_PBE Fe 06Sep2000
   VRHFIN =Fe:  d7 s1

   TITEL  = PAW_PBE Fe 06Sep2000
   POMASS =   55.847; ZVAL   =    8.000    mass and valenz
   ENMAX  =  267.882; ENMIN  =  200.911 eV

 POTCAR:    PAW_PBE Co 02Aug2007
   VRHFIN =Co: d8 s1

   TITEL  = PAW_PBE Co 02Aug2007
   POMASS =   58.933; ZVAL   =    9.000    mass and valenz
   ENMAX  =  267.968; ENMIN  =  200.976 eV

 POTCAR:    PAW_PBE Cu 22Jun2005
   VRHFIN =Cu: d10 p1

   TITEL  = PAW_PBE Cu 22Jun2005
   POMASS =   63.546; ZVAL   =   11.000    mass and valenz
   ENMAX  =  295.446; ENMIN  =  221.585 eV

 POTCAR:    PAW_PBE Ni 02Aug2007
   VRHFIN =Ni:

   TITEL  = PAW_PBE Ni 02Aug2007
   POMASS =   58.690; ZVAL   =   10.000    mass and valenz
   ENMAX  =  269.532; ENMIN  =  202.149 eV

 POTCAR:    PAW_PBE O 08Apr2002
   VRHFIN =O: s2p4

   TITEL  = PAW_PBE O 08Apr2002
   POMASS =   16.000; ZVAL   =    6.000    mass and valenz
   ENMAX  =  400.000; ENMIN  =  300.000 eV

 Optimization of the real space projectors (new method)

 maximal supplied QI-value         = 14.36
 optimisation between [QCUT,QGAM] = [ 11.92, 23.98] = [ 39.79,161.09] Ry
 Optimized for a Real-space Cutoff    1.49 Angstroem

   l    n(q)    QCUT    max X(q) W(low)/X(q) W(high)/X(q)  e(spline)
   2     10    11.920    66.195    0.79E-04    0.18E-03    0.24E-06
   2     10    11.920    64.643    0.81E-04    0.19E-03    0.24E-06
   0     11    11.920    95.520    0.28E-04    0.54E-04    0.18E-06
   0     11    11.920    63.403    0.27E-04    0.52E-04    0.17E-06
   1     10    11.920    19.961    0.18E-04    0.11E-03    0.23E-06
   1     10    11.920    13.289    0.25E-04    0.87E-04    0.19E-06
 Optimization of the real space projectors (new method)

[...]

   l    n(q)    QCUT    max X(q) W(low)/X(q) W(high)/X(q)  e(spline)
   2      9    11.864    60.317    0.21E-03    0.51E-03    0.25E-06
   2      9    11.864    55.921    0.21E-03    0.51E-03    0.26E-06
   0      9    11.864    51.690    0.22E-03    0.30E-04    0.17E-06
   0      9    11.864    30.015    0.20E-03    0.28E-04    0.15E-06
   1      9    11.864    18.849    0.76E-04    0.33E-03    0.17E-06
   1      9    11.864    14.624    0.60E-04    0.28E-03    0.15E-06
 Optimization of the real space projectors (new method)

 maximal supplied QI-value         = 24.76
 optimisation between [QCUT,QGAM] = [ 11.88, 24.01] = [ 39.54,161.47] Ry
 Optimized for a Real-space Cutoff    1.18 Angstroem

   l    n(q)    QCUT    max X(q) W(low)/X(q) W(high)/X(q)  e(spline)
   0      8    11.883    20.381    0.86E-04    0.11E-03    0.31E-06
   0      8    11.883    15.268    0.94E-04    0.12E-03    0.33E-06
   1      8    11.883     5.964    0.19E-03    0.18E-04    0.33E-06
   1      8    11.883     5.382    0.17E-03    0.20E-04    0.29E-06
  PAW_PBE Pt 04Feb2005                  :
  PAW_PBE Fe 06Sep2000                  :
  PAW_PBE Co 02Aug2007                  :
  PAW_PBE Cu 22Jun2005                  :
  PAW_PBE Ni 02Aug2007                  :
  PAW_PBE O 08Apr2002                   :

 POSCAR: 10.56
  positions in cartesian coordinates
 exchange correlation table for  LEXCH =        8
   RHO(1)=    0.500       N(1)  =     2000
   RHO(2)=  100.500       N(2)  =     4000

 ion  position               nearest neighbor table
   1  0.786  0.879  0.317-  49 2.61  28 2.62  19 2.63  59 2.64  33 2.65  61 2.66  29 2.67  60 2.68
                             2 2.72  11 2.75   4 2.83  12 2.88
   2  0.042  0.883  0.315-  79 2.53  77 2.58  60 2.62  28 2.64  30 2.65  52 2.67  33 2.68  22 2.70
                             1 2.72   6 2.72   4 2.85  16 2.93
   3  0.280  0.379  0.321-  39 2.55  64 2.60  33 2.61  31 2.64  19 2.68  30 2.72  43 2.73  68 2.73
                             5 2.76  18 2.81  13 2.83  25 2.84
   4  0.875  0.961  0.424-  11 2.61   6 2.62  17 2.63   9 2.63  16 2.64  12 2.65   1 2.83  60 2.83
                             2 2.85
   5  0.119  0.466  0.426-  12 2.59  16 2.61   7 2.63  25 2.68  33 2.68  10 2.69  39 2.69  13 2.70
                             3 2.76
   6  0.124  0.958  0.421-  16 2.61   4 2.62  14 2.64  10 2.66   8 2.66   9 2.66   2 2.72  52 2.76
                            22 2.84
   7  0.873  0.460  0.426-  15 2.61  10 2.62   5 2.63  27 2.64   9 2.64  12 2.65  39 2.68  75 2.76
                            29 2.78
   8  0.377  0.955  0.424-  81 2.16  14 2.59  27 2.60   6 2.66  11 2.67  43 2.69  10 2.71  13 2.72
                            52 2.73  61 2.76
   9  0.873  0.210  0.420-  17 2.61  10 2.61  15 2.62   4 2.63   7 2.64   6 2.66  75 2.70  60 2.71
                            22 2.78
  10  0.119  0.211  0.427-  81 2.07   9 2.61   7 2.62   6 2.66   5 2.69   8 2.71  13 2.73  39 2.74
                            22 2.81  43 2.87
  11  0.628  0.958  0.423-  12 2.61   4 2.61  17 2.64  27 2.65  13 2.67   8 2.67   1 2.75  19 2.80
                            61 2.83
  12  0.874  0.711  0.428-   5 2.59  11 2.61   4 2.65  16 2.65  27 2.65   7 2.65  33 2.71  29 2.84
                             1 2.88
  13  0.377  0.212  0.429-  81 2.01  17 2.62  25 2.63  11 2.67   5 2.70   8 2.72  10 2.73   3 2.83
                            19 2.86  43 2.89
  14  0.376  0.710  0.423-   8 2.59  27 2.61  25 2.63  15 2.64   6 2.64  16 2.66  44 2.69  52 2.75
                            30 2.75
  15  0.626  0.460  0.422-   7 2.61  27 2.62   9 2.62  14 2.64  25 2.64  17 2.65  44 2.70  75 2.71
                            18 2.75
  16  0.125  0.710  0.427-   5 2.61   6 2.61  25 2.63   4 2.64  12 2.65  14 2.66  33 2.69  30 2.84
                             2 2.93
  17  0.626  0.210  0.422-   9 2.61  13 2.62   4 2.63  11 2.64  15 2.65  25 2.66  18 2.77  60 2.77
                            19 2.83
  18  0.548  0.375  0.317-  67 2.55  60 2.59  75 2.60  68 2.64  44 2.65  26 2.66  30 2.71  19 2.72
                            15 2.75  17 2.77   3 2.81  25 2.89
  19  0.534  0.125  0.316-  43 2.56  80 2.57  68 2.60   1 2.63  59 2.63  61 2.64   3 2.68  18 2.72
                            60 2.76  11 2.80  17 2.83  13 2.86
  20  0.547  0.124  0.040-  37 2.55  57 2.56  48 2.58  62 2.64  63 2.68  47 2.68  45 2.68  56 2.70
                            34 2.71
  21  0.121  0.460  0.128-  40 2.52  36 2.53  47 2.53  42 2.60  69 2.61  64 2.62  70 2.64  50 2.64
                            58 2.67  31 2.70  57 2.71  74 2.72
  22  0.043  0.138  0.316-  65 2.53  39 2.55  55 2.56  43 2.56  75 2.60  77 2.61  60 2.69   2 2.70
                            52 2.74   9 2.78  10 2.81   6 2.84  31 3.40
  23  0.042  0.130  0.033-  70 2.58  40 2.60  41 2.61  45 2.62  62 2.64  76 2.64  24 2.69  35 2.73
                            53 2.78
  24  0.130  0.958  0.132-  79 2.51  77 2.54  35 2.57  53 2.57  55 2.58  70 2.62  38 2.64  58 2.64
                            73 2.65  23 2.69  66 2.70  41 2.72
  25  0.375  0.462  0.427-  13 2.63  14 2.63  16 2.63  15 2.64  17 2.66   5 2.68  30 2.84   3 2.84
                            18 2.89
  26  0.455  0.546  0.219-  73 2.50  74 2.54  51 2.56  79 2.61  64 2.63  30 2.65  18 2.66  68 2.67
                            78 2.67  32 2.68  67 2.72  44 2.73
  27  0.624  0.710  0.423-   8 2.60  14 2.61  15 2.62   7 2.64  12 2.65  11 2.65  44 2.69  61 2.75
                            29 2.77
  28  0.956  0.790  0.221-  58 2.57  66 2.57  50 2.58  42 2.59  49 2.61   1 2.62  64 2.63   2 2.64
                            59 2.70  33 2.72  79 2.76  77 2.77
  29  0.796  0.621  0.319-  39 2.54  42 2.54  75 2.57  32 2.62  33 2.64  44 2.65   1 2.67  49 2.69
                            61 2.69  27 2.77   7 2.78  12 2.84
  30  0.291  0.630  0.318-  79 2.57  64 2.60  52 2.63  44 2.63   2 2.65  33 2.65  26 2.65  18 2.71
                             3 2.72  14 2.75  25 2.84  16 2.84
  31  0.203  0.281  0.225-  70 2.52  55 2.56  65 2.57  43 2.60  57 2.60   3 2.64  39 2.67  80 2.70
                            21 2.70  42 2.71  68 2.75  64 2.79  22 3.40
  32  0.706  0.549  0.221-  54 2.53  69 2.56  51 2.58  49 2.59  42 2.60  29 2.62  78 2.62  65 2.63
                            75 2.67  44 2.68  26 2.68  67 2.70
  33  0.040  0.632  0.326-   3 2.61  29 2.64  39 2.65  30 2.65   1 2.65   2 2.68   5 2.68  16 2.69
                            12 2.71  64 2.71  28 2.72  42 2.74
  34  0.797  0.862  0.042-  50 2.38  66 2.51  48 2.53  36 2.55  71 2.56  63 2.61  20 2.71  35 2.76
                            62 2.76
  35  0.056  0.866  0.038-  58 2.54  72 2.55  36 2.56  24 2.57  66 2.62  53 2.65  23 2.73  62 2.73
                            34 2.76
  36  0.046  0.628  0.037-  21 2.53  34 2.55  35 2.56  58 2.58  50 2.61  47 2.63  72 2.64  40 2.69
                            71 2.72
  37  0.627  0.222  0.129-  51 2.51  74 2.51  67 2.52  56 2.53  41 2.55  20 2.55  68 2.56  59 2.56
                            62 2.59  66 2.66  57 2.73  48 2.89
  38  0.382  0.955  0.130-  53 2.47  80 2.48  45 2.49  78 2.53  48 2.54  73 2.55  63 2.55  54 2.56
                            55 2.59  57 2.62  24 2.64  70 2.67
  39  0.038  0.382  0.325-  29 2.54   3 2.55  22 2.55  75 2.61  33 2.65  31 2.67   7 2.68  42 2.68
                             5 2.69  10 2.74  65 2.77  43 2.80
  40  0.031  0.382  0.038-  69 2.44  21 2.52  71 2.53  76 2.56  70 2.57  23 2.60  36 2.69  45 2.78
                            47 2.78
  41  0.872  0.215  0.128-  76 2.45  65 2.52  77 2.53  67 2.54  37 2.55  69 2.57  62 2.57  51 2.59
                            23 2.61  70 2.65  66 2.66  24 2.72
  42  0.955  0.545  0.224-  29 2.54  50 2.56  28 2.59  21 2.60  32 2.60  69 2.61  49 2.63  65 2.64
                            64 2.65  39 2.68  31 2.71  33 2.74
  43  0.298  0.112  0.320-  52 2.50  55 2.51  61 2.53  19 2.56  22 2.56  31 2.60  80 2.64   8 2.69
                             3 2.73  39 2.80  10 2.87  13 2.89
  44  0.541  0.629  0.321-  61 2.56  52 2.58  78 2.62  30 2.63  18 2.65  75 2.65  29 2.65  32 2.68
                            27 2.69  14 2.69  15 2.70  26 2.73
  45  0.295  0.119  0.039-  70 2.49  38 2.49  57 2.57  53 2.60  23 2.62  63 2.64  20 2.68  47 2.75
                            40 2.78
  46  0.548  0.625  0.044-  51 2.38  73 2.39  54 2.41  71 2.56  53 2.56  63 2.58  76 2.59  56 2.62
                            72 2.64
  47  0.296  0.379  0.039-  74 2.41  21 2.53  57 2.61  72 2.61  56 2.62  36 2.63  20 2.68  45 2.75
                            40 2.78
  48  0.625  0.950  0.132-  49 2.40  80 2.48  54 2.48  34 2.53  38 2.54  59 2.55  50 2.56  63 2.57
                            20 2.58  57 2.65  66 2.68  37 2.89
  49  0.706  0.794  0.220-  48 2.40  50 2.48  54 2.49  80 2.53  32 2.59   1 2.61  28 2.61  78 2.61
                            42 2.63  61 2.64  29 2.69  59 2.69
  50  0.866  0.706  0.129-  34 2.38  71 2.42  54 2.48  49 2.48  42 2.56  48 2.56  69 2.58  28 2.58
[...]
     12.86756      6.45280      2.83379         0.193972      0.045395     -0.084018
      9.04201      4.20780      2.79628        -0.013023     -0.033697      0.027354
      7.77655      8.00591      7.00829         0.041782      0.021992     -0.016291
      7.81315      7.93922      0.88653        -0.040703      0.111360     -0.059019
     10.39144      6.53566      2.82198         0.026519      0.090878     -0.031885
      2.51347      0.25826      5.00083         0.028269      0.004382     -0.035397
      7.74264      3.48454      0.76157         0.010405     -0.024175     -0.013368
      5.07835      1.87760      2.91701        -0.061052     -0.079458     -0.094000
      5.16037      6.44715      2.89923        -0.104871     -0.037929     -0.115010
      7.70892      0.45986      4.84799        -0.014489      0.046657     -0.015515
      9.05609      1.18619      6.96667         0.004124     -0.011162      0.013084
[...]
      9.07350      2.65252      4.91360         0.042093     -0.036912     -0.073397
      6.37169      2.66558      4.85827        -0.070330     -0.053281      0.054593
     11.65891      4.17486      2.81483         0.111084     -0.071918     -0.057275
      2.44098      1.89237      2.83279        -0.030151      0.019157     -0.059605
     11.64953      5.68621      0.88546         0.197287     -0.065745     -0.073176
      6.44743      5.71949      0.92597        -0.129114      0.083726     -0.035437
      7.82927      6.50651      2.83621        -0.023013     -0.027518     -0.067337
      6.41922      4.13007      2.78290         0.015918     -0.012140      0.048346
     10.37154      3.46967      7.03131         0.008383     -0.026741      0.000774
     10.34410      3.45013      0.86804         0.167310      0.022127     -0.038421
     10.37063      0.48410      4.87151        -0.001170     -0.055805     -0.038624
      9.04079      7.29017      4.93700        -0.013739      0.013001     -0.016678
      6.46265      7.29503      4.94074         0.092418      0.043703     -0.076494
      5.04247      0.27633      4.88406        -0.028181      0.001952      0.102165
      3.76729      1.20923     10.73353         0.032717     -0.036648      0.160436
    total drift:                               -0.001101     -0.007970     -0.007333

  FREE ENERGIE OF THE ION-ELECTRON SYSTEM (eV)
  free  energy   TOTEN  =      -508.45103126 eV

  energy  without entropy=     -508.45103126  energy(sigma->0) =     -508.45103126

 d Force = 0.7931195E-03[-0.481E-02, 0.640E-02]  d Energy = 0.1831387E-02-0.104E-02
 d Force =-0.6098766E+02[-0.611E+02,-0.609E+02]  d Ewald  =-0.6098845E+02 0.789E-03

 Finite differences progress:
  Degree of freedom:   3/  3
  Displacement:        2/  2
  Total:               6/  6

 SECOND DERIVATIVES (NOT SYMMETRIZED)
              81X         81Y         81Z
 81X    -5.295811   -1.161851    1.384035
 81Y    -1.214016   -3.026181    2.343799
 81Z     1.396879    2.316438  -12.458199

 Eigenvectors and eigenvalues of the dynamical matrix

   1 f  =   14.271186 THz    89.668509 2PiTHz  476.035524 cm-1    59.020904 meV
             X         Y         Z           dx          dy          dz
     12.946904  8.040225  6.972350            0           0           0
      5.107331  8.075759  6.933286            0           0           0
      4.958151  3.464449  7.052415            0           0           0
     14.308692  8.784643  9.337759            0           0           0
      3.719332  4.261060  9.382952            0           0           0
      6.362738  8.758320  9.251574            0           0           0
     11.646027  4.206393  9.367948            0           0           0
      9.020766  8.734893  9.321135            0           0           0
     10.325094  1.922909  9.241421            0           0           0
      2.373757  1.929036  9.401959            0           0           0
     11.695109  8.762989  9.308156            0           0           0
     12.978437  6.498136  9.406240            0           0           0
      5.100568  1.942857  9.429916            0           0           0
      7.724268  6.493530  9.299902            0           0           0
      9.041265  4.210077  9.274474            0           0           0
      5.066039  6.495446  9.401501            0           0           0
      7.720161  1.916574  9.281975            0           0           0
      7.769331  3.429108  6.965681            0           0           0
      6.292086  1.139771  6.960888            0           0           0
      6.428579  1.129740  0.878720            0           0           0
      3.705484  4.208436  2.816869            0           0           0
      1.189059  1.265766  6.943668            0           0           0
      1.135691  1.190800  0.725566            0           0           0
      6.436066  8.760995  2.900314            0           0           0
      6.399792  4.225629  9.383566            0           0           0
      7.681351  4.990728  4.814740            0           0           0
     10.332027  6.491205  9.295352            0           0           0
     14.264242  7.225928  4.862987            0           0           0
     11.683934  5.683461  7.013719            0           0           0
      6.401662  5.765906  7.001199            0           0           0
      3.621194  2.565893  4.960228            0           0           0
     10.360912  5.024302  4.856517            0           0           0
      3.757721  5.777136  7.168049            0           0           0
     12.969068  7.879772  0.925674            0           0           0
      5.163396  7.917194  0.830298            0           0           0
      3.807011  5.745024  0.813805            0           0           0
      7.798522  2.032451  2.832513            0           0           0
      9.077547  8.733730  2.857427            0           0           0
      2.415280  3.496874  7.154117            0           0           0
      2.344093  3.490514  0.825101            0           0           0
     10.348141  1.969830  2.822490            0           0           0
     12.960353  4.985870  4.925592            0           0           0
      3.738099  1.025730  7.049790            0           0           0
      9.030439  5.752708  7.064014            0           0           0
      3.748243  1.091821  0.867003            0           0           0
      9.091210  5.718673  0.960427            0           0           0
      5.124479  3.470454  0.855627            0           0           0
     11.620923  8.687580  2.905895            0           0           0
     11.653130  7.264496  4.842290            0           0           0
     12.867560  6.452796  2.833790            0           0           0
      9.042010  4.207796  2.796278            0           0           0
      7.776554  8.005912  7.008295            0           0           0
      7.813155  7.939223  0.886525            0           0           0
     10.391439  6.535663  2.821980            0           0           0
      2.513474  0.258257  5.000827            0           0           0
      7.742638  3.484538  0.761574            0           0           0
      5.078354  1.877603  2.917008            0           0           0
      5.160365  6.447147  2.899226            0           0           0
      7.708921  0.459858  4.847993            0           0           0
      9.056090  1.186191  6.966671            0           0           0
[...]
      9.073503  2.652522  4.913605            0           0           0
      6.371693  2.665576  4.858272            0           0           0
     11.658911  4.174860  2.814827            0           0           0
      2.440982  1.892366  2.832794            0           0           0
     11.649530  5.686214  0.885461            0           0           0
      6.447433  5.719494  0.925972            0           0           0
      7.829267  6.506514  2.836212            0           0           0
      6.419224  4.130068  2.782896            0           0           0
     10.371539  3.469671  7.031309            0           0           0
     10.344097  3.450125  0.868038            0           0           0
     10.370626  0.484098  4.871515            0           0           0
      9.040790  7.290173  4.936995            0           0           0
      6.462653  7.295032  4.940739            0           0           0
      5.042471  0.276335  4.884059            0           0           0
      3.767288  1.209230 10.748528    -0.199603   -0.237896    0.950560

[...]

   3 f  =    5.838158 THz    36.682228 2PiTHz  194.739980 cm-1    24.144689 meV
             X         Y         Z           dx          dy          dz
     12.946904  8.040225  6.972350            0           0           0
      5.107331  8.075759  6.933286            0           0           0
      4.958151  3.464449  7.052415            0           0           0
     14.308692  8.784643  9.337759            0           0           0
      3.719332  4.261060  9.382952            0           0           0
      6.362738  8.758320  9.251574            0           0           0
     11.646027  4.206393  9.367948            0           0           0
      9.020766  8.734893  9.321135            0           0           0
     10.325094  1.922909  9.241421            0           0           0
      2.373757  1.929036  9.401959            0           0           0
     11.695109  8.762989  9.308156            0           0           0
     12.978437  6.498136  9.406240            0           0           0
      5.100568  1.942857  9.429916            0           0           0
      7.724268  6.493530  9.299902            0           0           0
      9.041265  4.210077  9.274474            0           0           0
      5.066039  6.495446  9.401501            0           0           0
      7.720161  1.916574  9.281975            0           0           0
      7.769331  3.429108  6.965681            0           0           0
      6.292086  1.139771  6.960888            0           0           0
      6.428579  1.129740  0.878720            0           0           0
      3.705484  4.208436  2.816869            0           0           0
      1.189059  1.265766  6.943668            0           0           0
      1.135691  1.190800  0.725566            0           0           0
      6.436066  8.760995  2.900314            0           0           0
      6.399792  4.225629  9.383566            0           0           0
      7.681351  4.990728  4.814740            0           0           0
     10.332027  6.491205  9.295352            0           0           0
     14.264242  7.225928  4.862987            0           0           0
     11.683934  5.683461  7.013719            0           0           0
      6.401662  5.765906  7.001199            0           0           0
      3.621194  2.565893  4.960228            0           0           0
     10.360912  5.024302  4.856517            0           0           0
      3.757721  5.777136  7.168049            0           0           0
     12.969068  7.879772  0.925674            0           0           0
      5.163396  7.917194  0.830298            0           0           0
      3.807011  5.745024  0.813805            0           0           0
      7.798522  2.032451  2.832513            0           0           0
      9.077547  8.733730  2.857427            0           0           0
      2.415280  3.496874  7.154117            0           0           0
      2.344093  3.490514  0.825101            0           0           0
     10.348141  1.969830  2.822490            0           0           0
     12.960353  4.985870  4.925592            0           0           0
      3.738099  1.025730  7.049790            0           0           0
      9.030439  5.752708  7.064014            0           0           0
      3.748243  1.091821  0.867003            0           0           0
      9.091210  5.718673  0.960427            0           0           0
      5.124479  3.470454  0.855627            0           0           0
     11.620923  8.687580  2.905895            0           0           0
     11.653130  7.264496  4.842290            0           0           0
     12.867560  6.452796  2.833790            0           0           0
      9.042010  4.207796  2.796278            0           0           0
      7.776554  8.005912  7.008295            0           0           0
      7.813155  7.939223  0.886525            0           0           0
     10.391439  6.535663  2.821980            0           0           0
      2.513474  0.258257  5.000827            0           0           0
      7.742638  3.484538  0.761574            0           0           0
      5.078354  1.877603  2.917008            0           0           0
      5.160365  6.447147  2.899226            0           0           0
      7.708921  0.459858  4.847993            0           0           0
      9.056090  1.186191  6.966671            0           0           0
[...]
      9.073503  2.652522  4.913605            0           0           0
      6.371693  2.665576  4.858272            0           0           0
     11.658911  4.174860  2.814827            0           0           0
      2.440982  1.892366  2.832794            0           0           0
     11.649530  5.686214  0.885461            0           0           0
      6.447433  5.719494  0.925972            0           0           0
      7.829267  6.506514  2.836212            0           0           0
      6.419224  4.130068  2.782896            0           0           0
     10.371539  3.469671  7.031309            0           0           0
     10.344097  3.450125  0.868038            0           0           0
     10.370626  0.484098  4.871515            0           0           0
      9.040790  7.290173  4.936995            0           0           0
      6.462653  7.295032  4.940739            0           0           0
      5.042471  0.276335  4.884059            0           0           0
      3.767288  1.209230 10.748528    -0.285426    0.942130    0.175851

 Finite differences POTIM=  1.500000000000000E-002
  LATTYP: Found a hexagonal cell.
 ALAT       =    10.5600004196
 C/A-ratio  =     2.0833332505

  Lattice vectors:

 A1 = (   5.2800002098,  -9.1452286274,   0.0000000000)
 A2 = ( -10.5600004196,   0.0000000000,   0.0000000000)
 A3 = (   0.0000000000,   0.0000000000, -22.0000000000)

Analysis of symmetry for initial positions (statically):
 Subroutine PRICEL returns:
 Original cell was already a primitive cell.

[...]

The static configuration has the point symmetry C_1 .

Analysis of symmetry for dynamics (positions and initial velocities):
 Subroutine PRICEL returns:
 Original cell was already a primitive cell.

[...]

The dynamic configuration has the point symmetry C_1 .

Analysis of constrained symmetry for selective dynamics:
 Subroutine PRICEL returns:
 Original cell was already a primitive cell.

[...]

The constrained configuration has the point symmetry C_1 .

Analysis of structural, dynamic, and magnetic symmetry:
 Subroutine PRICEL returns:
 Original cell was already a primitive cell.

 Routine SETGRP: Setting up the symmetry group for a
 hexagonal supercell.

 Subroutine GETGRP returns: Found  1 space group operations
 (whereof  1 operations were pure point group operations)
 out of a pool of 24 trial point group operations.

The magnetic configuration has the point symmetry C_1 .

 Subroutine INISYM returns: Found  1 space group operations
 (whereof  1 operations are pure point group operations),
 and found     1 'primitive' translations

 KPOINTS: mesh auto

Automatic generation of k-mesh.
Space group operators:
 irot       det(A)        alpha          n_x          n_y          n_z        tau_x        tau_y        tau_z
    1     1.000000     0.000001     1.000000     0.000000     0.000000     0.000000     0.000000     0.000000

 Subroutine IBZKPT returns following result:

 Found      4 irreducible k-points:

 Following reciprocal coordinates:
            Coordinates               Weight
  0.000000  0.000000  0.000000      1.000000
  0.500000  0.000000  0.000000      1.000000
  0.000000  0.500000  0.000000      1.000000
  0.500000  0.500000  0.000000      1.000000

 Following cartesian coordinates:
            Coordinates               Weight
  0.000000  0.000000  0.000000      1.000000
  0.047348 -0.027337  0.000000      1.000000
  0.000000  0.054673  0.000000      1.000000
  0.047348  0.027337  0.000000      1.000000

 TETIRR: Found     12 inequivalent tetrahedra from       24
 BZINTS: Fermi energy:  2.013585;783.000000 electrons
         Band energy:-737.656456;  BLOECHL correction: -0.048373